Zn6 P4 H56 C20 N8 O16                   
   1.0000000000000000     
    -0.0000000045703510   -4.9926932600274121    0.0000000150362290
   -12.3887456210322338    2.4963461051317419    4.1562725779120386
     0.9633596332778026    0.0000000395599016  -17.4124863119005830
   C    H    N    O    P    Zn
    20    56     8    16     4     6
Direct
  0.9583336073546818  0.3615990286536217  0.3421162231302617
  0.5967345788073288  0.6384009715417633  0.6578837767348986
  0.1554077816259891  0.4678401636313012  0.3937602538235936
  0.6875676180972761  0.5321598365418367  0.6062397460456879
  0.0373874367274425  0.5680433870447175  0.3996300001392470
  0.4693450497624596  0.4319566130684294  0.6003699997720418
  0.2080677039078864  0.6797572482601026  0.4537409680986357
  0.5283104556795664  0.3202427517623505  0.5462590318765521
  0.0502586810304848  0.7705691114264539  0.4620097127546430
  0.2796895696048551  0.2294308885273963  0.5379902872767275
  0.9269955713572813  0.2294157192431072  0.0380774489868685
  0.6975808521007849  0.7705842808055507  0.9619235509771400
  0.7693590939382275  0.3202408218466104  0.0463270496526533
  0.4491182720552800  0.6797591781332102  0.9536729503661689
  0.9401589733830420  0.4319607540465285  0.1003760524637016
  0.5081982192535506  0.5680392458434298  0.8996239476166750
  0.8219417941840490  0.5320843007671741  0.1061827266685853
  0.2898574933038702  0.4679156990628357  0.8938172734575005
  0.0188546908846874  0.6383774127245943  0.1577824236713070
  0.3804772780437915  0.3616225870799497  0.8422175764658988
  0.0637846988625057  0.2606285576156466  0.3986943967874126
  0.8031561414449300  0.7393714426843943  0.6013056030080932
  0.2077364721951938  0.2429587315584385  0.3094872049861976
  0.9647777407415319  0.7570412686015615  0.6905127949135803
  0.7533086837415297  0.3639433100357508  0.3652506566833509
  0.3893663738542088  0.6360566902150424  0.6347493431357591
  0.9353214224531712  0.3557784472381229  0.2777895169355133
  0.5795429752461416  0.6442215528783564  0.7222104829978022
  0.3553479754907514  0.4713613635708427  0.3669492002528614
  0.8839866119939899  0.5286386366059475  0.6330507996196530
  0.1916579459460550  0.4680886491858089  0.4562854435016135
  0.7235692968764624  0.5319113509784827  0.5437145563651313
  0.0029502393218053  0.5677810370186833  0.3370135423326346
  0.4351692023762652  0.4322189631246829  0.6629864575693460
  0.8320978282707472  0.5587649632674285  0.4230465957759932
  0.2733328650970179  0.4412350368263134  0.5769534041405677
  0.4023592394420703  0.6969602392061631  0.4265694213767830
  0.7053990002666168  0.3030397608812478  0.5734305785691234
  0.2603250317573185  0.6797991388010090  0.5153000894375168
  0.5805248929403675  0.3202008611238440  0.4846999105881906
  0.9791582332253412  0.7636664353382159  0.4002391247356911
  0.2154917979066440  0.2363335646921669  0.5997608752645291
  0.8620015055672567  0.7587268328089820  0.4934808986261743
  0.1032746727447105  0.2412731670830581  0.5065191014265764
  0.3769891992029173  0.8953869845422489  0.4729787377613519
  0.4816022146543943  0.1046130153918696  0.5270212622999040
  0.2743939374145725  0.9001545113382505  0.5639979068275167
  0.3742394260316573  0.0998454884873183  0.4360020932691953
  0.7029635221343540  0.0999053228818738  0.9360289194895941
  0.6030581992948285  0.9000946773159342  0.0639710803843911
  0.6001842704210105  0.1045949216966946  0.0270467110759753
  0.4955893487103609  0.8954050783492846  0.9729532888839003
  0.1153999471714542  0.2412459036840602  0.0066733427402923
  0.8741550434935448  0.7587540964419830  0.9933266571869268
  0.9978706972949496  0.2362562700138895  0.0998549178882300
  0.7616134272363411  0.7637437299409982  0.9001450821224353
  0.7170310420457255  0.3201169792896579  0.9847503907573198
  0.3969150627675830  0.6798830207770692  0.0152496092249095
  0.5750938026782109  0.3031128407134887  0.0735199080112423
  0.2719809619389864  0.6968871592103270  0.9264800920259972
  0.9747709581947248  0.4322579958448074  0.1629999693234296
  0.5425129622594085  0.5677420039950647  0.8370000307775598
  0.1453326454557597  0.4412051185068293  0.0768831456351151
  0.7041275268547977  0.5587948814212353  0.9231168544287982
  0.6219567696638535  0.5284940301793455  0.1329905226281127
  0.0934627393777987  0.4715059696493853  0.8670094774947046
  0.7855426313953728  0.5317306631484797  0.0436153766589200
  0.2538129681027144  0.4682693366860278  0.9563846234702211
  0.0418838471542102  0.6442586085641366  0.2221183056317031
  0.3976252385397174  0.3557413913146590  0.7778816944491780
  0.2238816331073181  0.6360722670748160  0.1346448023324669
  0.5878093658739374  0.3639277326749877  0.8653551978466965
  0.7691167726111772  0.7569260571247582  0.1903198564351314
  0.0121907153934515  0.2430739427038162  0.8096801436823071
  0.9132728848349458  0.7392683463297374  0.1011547596969464
  0.1740045383477238  0.2607316533987358  0.8988452404844480
  0.0325152276225964  0.2589119354339005  0.3402768718310440
  0.7736032923179366  0.7410880647830140  0.6597231280268048
  0.2033866258242298  0.8835996822870484  0.5042420430381327
  0.3197879435067250  0.1164003176013466  0.4957579570431463
  0.7738545953681850  0.1163932118519142  0.9957897213974647
  0.6574623835322271  0.8836067882577012  0.0042102785218674
  0.9444119563884925  0.7409710252895962  0.1595711794480863
  0.2034409309693856  0.2590289744966938  0.8404288206959976
  0.6304200821536483  0.0414535972436028  0.3448845108450982
  0.5889664848467646  0.9585464025965535  0.6551154892535678
  0.5472435694966435  0.8342571504517906  0.2633032396708899
  0.7129864189983479  0.1657428494092343  0.7366967604192638
  0.6784054797339962  0.9126989815383268  0.4184900193886989
  0.7657064981042581  0.0873010183478442  0.5815099806801669
  0.0304118978937140  0.9430478699002549  0.3235455096336821
  0.0873640278634014  0.0569521299650120  0.6764544904500625
  0.2988129292062425  0.0873000026857085  0.0814882469703804
  0.2115129266430245  0.9126999974178460  0.9185117529678166
  0.4296571624366123  0.1656829415968133  0.2366661459107320
  0.2639742208766336  0.8343170585337134  0.7633338540106109
  0.3465990089673667  0.9585408916819489  0.1550830349279053
  0.3880571173288487  0.0414591084733402  0.8449169649846624
  0.9465770273540528  0.0569231544311677  0.1763572308778336
  0.8896548730570260  0.9430768456988261  0.8236427690475594
  0.7220592814626912  0.9321960102428690  0.3365264505900498
  0.7898632711375200  0.0678039896184757  0.6634735494974038
  0.2549499135909201  0.0677764467603410  0.1634286642238436
  0.1871734669142100  0.9322235533732055  0.8365713356974354
  0.9804245407823160  0.0000000000462848  0.9999999999690985
  0.9966870599426159  0.9999999999469154  0.5000000000388454
  0.7483604758073454  0.1188365060041434  0.2715373229679301
  0.6295239698781359  0.8811634940923838  0.7284626769717164
  0.2285350433892893  0.8811506152348593  0.2292398697723702
  0.3474185550983506  0.1189176386983419  0.7716378729742601

  0.00000000E+00  0.00000000E+00  0.00000000E+00
  0.00000000E+00  0.00000000E+00  0.00000000E+00
  0.00000000E+00  0.00000000E+00  0.00000000E+00
  0.00000000E+00  0.00000000E+00  0.00000000E+00
  0.00000000E+00  0.00000000E+00  0.00000000E+00
  0.00000000E+00  0.00000000E+00  0.00000000E+00
  0.00000000E+00  0.00000000E+00  0.00000000E+00
  0.00000000E+00  0.00000000E+00  0.00000000E+00
  0.00000000E+00  0.00000000E+00  0.00000000E+00
  0.00000000E+00  0.00000000E+00  0.00000000E+00
  0.00000000E+00  0.00000000E+00  0.00000000E+00
  0.00000000E+00  0.00000000E+00  0.00000000E+00
  0.00000000E+00  0.00000000E+00  0.00000000E+00
  0.00000000E+00  0.00000000E+00  0.00000000E+00
  0.00000000E+00  0.00000000E+00  0.00000000E+00
  0.00000000E+00  0.00000000E+00  0.00000000E+00
  0.00000000E+00  0.00000000E+00  0.00000000E+00
  0.00000000E+00  0.00000000E+00  0.00000000E+00
  0.00000000E+00  0.00000000E+00  0.00000000E+00
  0.00000000E+00  0.00000000E+00  0.00000000E+00
  0.00000000E+00  0.00000000E+00  0.00000000E+00
  0.00000000E+00  0.00000000E+00  0.00000000E+00
  0.00000000E+00  0.00000000E+00  0.00000000E+00
  0.00000000E+00  0.00000000E+00  0.00000000E+00
  0.00000000E+00  0.00000000E+00  0.00000000E+00
  0.00000000E+00  0.00000000E+00  0.00000000E+00
  0.00000000E+00  0.00000000E+00  0.00000000E+00
  0.00000000E+00  0.00000000E+00  0.00000000E+00
  0.00000000E+00  0.00000000E+00  0.00000000E+00
  0.00000000E+00  0.00000000E+00  0.00000000E+00
  0.00000000E+00  0.00000000E+00  0.00000000E+00
  0.00000000E+00  0.00000000E+00  0.00000000E+00
  0.00000000E+00  0.00000000E+00  0.00000000E+00
  0.00000000E+00  0.00000000E+00  0.00000000E+00
  0.00000000E+00  0.00000000E+00  0.00000000E+00
  0.00000000E+00  0.00000000E+00  0.00000000E+00
  0.00000000E+00  0.00000000E+00  0.00000000E+00
  0.00000000E+00  0.00000000E+00  0.00000000E+00
  0.00000000E+00  0.00000000E+00  0.00000000E+00
  0.00000000E+00  0.00000000E+00  0.00000000E+00
  0.00000000E+00  0.00000000E+00  0.00000000E+00
  0.00000000E+00  0.00000000E+00  0.00000000E+00
  0.00000000E+00  0.00000000E+00  0.00000000E+00
  0.00000000E+00  0.00000000E+00  0.00000000E+00
  0.00000000E+00  0.00000000E+00  0.00000000E+00
  0.00000000E+00  0.00000000E+00  0.00000000E+00
  0.00000000E+00  0.00000000E+00  0.00000000E+00
  0.00000000E+00  0.00000000E+00  0.00000000E+00
  0.00000000E+00  0.00000000E+00  0.00000000E+00
  0.00000000E+00  0.00000000E+00  0.00000000E+00
  0.00000000E+00  0.00000000E+00  0.00000000E+00
  0.00000000E+00  0.00000000E+00  0.00000000E+00
  0.00000000E+00  0.00000000E+00  0.00000000E+00
  0.00000000E+00  0.00000000E+00  0.00000000E+00
  0.00000000E+00  0.00000000E+00  0.00000000E+00
  0.00000000E+00  0.00000000E+00  0.00000000E+00
  0.00000000E+00  0.00000000E+00  0.00000000E+00
  0.00000000E+00  0.00000000E+00  0.00000000E+00
  0.00000000E+00  0.00000000E+00  0.00000000E+00
  0.00000000E+00  0.00000000E+00  0.00000000E+00
  0.00000000E+00  0.00000000E+00  0.00000000E+00
  0.00000000E+00  0.00000000E+00  0.00000000E+00
  0.00000000E+00  0.00000000E+00  0.00000000E+00
  0.00000000E+00  0.00000000E+00  0.00000000E+00
  0.00000000E+00  0.00000000E+00  0.00000000E+00
  0.00000000E+00  0.00000000E+00  0.00000000E+00
  0.00000000E+00  0.00000000E+00  0.00000000E+00
  0.00000000E+00  0.00000000E+00  0.00000000E+00
  0.00000000E+00  0.00000000E+00  0.00000000E+00
  0.00000000E+00  0.00000000E+00  0.00000000E+00
  0.00000000E+00  0.00000000E+00  0.00000000E+00
  0.00000000E+00  0.00000000E+00  0.00000000E+00
  0.00000000E+00  0.00000000E+00  0.00000000E+00
  0.00000000E+00  0.00000000E+00  0.00000000E+00
  0.00000000E+00  0.00000000E+00  0.00000000E+00
  0.00000000E+00  0.00000000E+00  0.00000000E+00
  0.00000000E+00  0.00000000E+00  0.00000000E+00
  0.00000000E+00  0.00000000E+00  0.00000000E+00
  0.00000000E+00  0.00000000E+00  0.00000000E+00
  0.00000000E+00  0.00000000E+00  0.00000000E+00
  0.00000000E+00  0.00000000E+00  0.00000000E+00
  0.00000000E+00  0.00000000E+00  0.00000000E+00
  0.00000000E+00  0.00000000E+00  0.00000000E+00
  0.00000000E+00  0.00000000E+00  0.00000000E+00
  0.00000000E+00  0.00000000E+00  0.00000000E+00
  0.00000000E+00  0.00000000E+00  0.00000000E+00
  0.00000000E+00  0.00000000E+00  0.00000000E+00
  0.00000000E+00  0.00000000E+00  0.00000000E+00
  0.00000000E+00  0.00000000E+00  0.00000000E+00
  0.00000000E+00  0.00000000E+00  0.00000000E+00
  0.00000000E+00  0.00000000E+00  0.00000000E+00
  0.00000000E+00  0.00000000E+00  0.00000000E+00
  0.00000000E+00  0.00000000E+00  0.00000000E+00
  0.00000000E+00  0.00000000E+00  0.00000000E+00
  0.00000000E+00  0.00000000E+00  0.00000000E+00
  0.00000000E+00  0.00000000E+00  0.00000000E+00
  0.00000000E+00  0.00000000E+00  0.00000000E+00
  0.00000000E+00  0.00000000E+00  0.00000000E+00
  0.00000000E+00  0.00000000E+00  0.00000000E+00
  0.00000000E+00  0.00000000E+00  0.00000000E+00
  0.00000000E+00  0.00000000E+00  0.00000000E+00
  0.00000000E+00  0.00000000E+00  0.00000000E+00
  0.00000000E+00  0.00000000E+00  0.00000000E+00
  0.00000000E+00  0.00000000E+00  0.00000000E+00
  0.00000000E+00  0.00000000E+00  0.00000000E+00
  0.00000000E+00  0.00000000E+00  0.00000000E+00
  0.00000000E+00  0.00000000E+00  0.00000000E+00
  0.00000000E+00  0.00000000E+00  0.00000000E+00
  0.00000000E+00  0.00000000E+00  0.00000000E+00
  0.00000000E+00  0.00000000E+00  0.00000000E+00
