Zn  H  C  N  O                          
   1.00000000000000     
    11.5172695449999996    0.0000153280000000    0.0000080550000000
     0.0000287200000000   16.5149279110000009    9.5348789249999992
    -0.0000153440000000  -16.5149164830000004    9.5348591309999993
   Zn   H    C    N    O 
     6    96   144    24    24
Direct
  0.8099494351105818  0.9962890058076681  0.2981888239888875
  0.8099499060910347  0.3018983398030599  0.0037094788383172
  0.8099489657011532  0.7018099327224689  0.6981005851831483
  0.6915948820447397  0.3627421904825567  0.3317523120691348
  0.6915911724543093  0.9690114239177205  0.6372593178100274
  0.6915945877904477  0.6682474277881454  0.0309900869266357
  0.0976694810253562  0.1495848131958653  0.0023048196233475
  0.0976705940819045  0.8527182634672457  0.8504125443871686
  0.0976675592834013  0.9976943010898225  0.1472790346391406
  0.0130364974765627  0.3134436974121755  0.2513988048935332
  0.0130355199087901  0.9379545288914954  0.6865551902680807
  0.0130351600770808  0.7486012524510457  0.0620436633252766
  0.1660399911918091  0.2502622748029424  0.2946648853649165
  0.1660376377639068  0.0444020906016434  0.7497373591416192
  0.1660397369363764  0.7053346664408835  0.9555975490825332
  0.2499896507700896  0.0864566070791497  0.0439528995457152
  0.2499895054887489  0.9574951039228452  0.9135424005195958
  0.2499874803901889  0.9560464509693034  0.0425041234605104
  0.4289548340533642  0.1091795719088395  0.1031061426317734
  0.4289536772476765  0.9939268614208956  0.8908211588789143
  0.4289544770250870  0.8968935719017708  0.0060750690997793
  0.2122118165413482  0.1355832648535724  0.2988589801745647
  0.2122116326924228  0.1632764502234565  0.8644162428843813
  0.2122145958642037  0.7011395778528708  0.8367231436403983
  0.3761840282109787  0.0881443840198770  0.3508170277433962
  0.3761826039230982  0.2626733784135951  0.9118549094854842
  0.3761857488971074  0.6491819215803503  0.7373266716022258
  0.5886439199246780  0.0577575314656471  0.1531930539164890
  0.5886431406665622  0.0954356141659503  0.9422434153289814
  0.5886429533363184  0.8468076870572716  0.9045656963708097
  0.8365750749764373  0.8161853681230937  0.2655093862631617
  0.8365750127025535  0.4493218603704605  0.1838132792861060
  0.8365756586168800  0.7344895140321910  0.5506787883559809
  0.6381769853386032  0.0124443304292470  0.4376278262960724
  0.6381749522362554  0.4251840363340520  0.9875559169614334
  0.6381757967891915  0.5623689662195019  0.5748144550551686
  0.6024172452093595  0.8804284358534389  0.4612576388507321
  0.6024166688280204  0.5808295602316278  0.1195723606400705
  0.6024154363985801  0.5387420128431231  0.4191698302368607
  0.7220394950128508  0.6902984964379542  0.2158219193439379
  0.7220391627163210  0.5255229691092111  0.3097021424900674
  0.7220404737660786  0.7841791929170228  0.4744779615345465
  0.7500860267539053  0.1524203391191108  0.4776834577493361
  0.7500860885439664  0.3252631397024572  0.8475803565836983
  0.7500879716739206  0.5223164812579597  0.6747367171684644
  0.0498349474487014  0.0900125867588031  0.3328785919646222
  0.0498353351453957  0.2428652753652756  0.9099860295441715
  0.0498340735620673  0.6671217815095929  0.7571348547972860
  0.0954636617241462  0.2317246161170132  0.4809020258636494
  0.0954631327969082  0.2491771012934123  0.7682741442411896
  0.0954667777637397  0.5190984915100856  0.7508215764867288
  0.9102346580380640  0.3711189396974177  0.5581570150279092
  0.9102326065057866  0.1870395828139877  0.6288811202534887
  0.9102348211417493  0.4418433526027457  0.8129611240897603
  0.0130301799610848  0.4313640621690240  0.9439264561762002
  0.0130268727134251  0.5125619956713052  0.5686359127381948
  0.0130244298146351  0.0560729970451135  0.4874388382090018
  0.9707199950639591  0.6530216734352052  0.1688383191746254
  0.9707188380085441  0.5158181323966815  0.3469792993985052
  0.9707173661850703  0.8311603535421384  0.4841821760719540
  0.1240490222427511  0.6103917126445850  0.2317787702505711
  0.1240474685728756  0.6213870180930456  0.3896092188332148
  0.1240479560278871  0.7682237396507787  0.3786147866805720
  0.1635369393613857  0.3861406430191821  0.0065920641969512
  0.1635354275906735  0.6204500039611887  0.6138583628264414
  0.1635341854081673  0.9934083286862219  0.3795525970442739
  0.1841983131796141  0.3421260794225205  0.0944007414831631
  0.1841989093734213  0.7522724170006683  0.6578735999533762
  0.1841971123452950  0.9056007270498085  0.2477283824572467
  0.3247060252681138  0.5832818883436488  0.2325178767227811
  0.3247061062115790  0.6492324084477303  0.4167166940976443
  0.3247065917363869  0.7674811850365586  0.3507641971422117
  0.4779031288370845  0.5309307290197509  0.2867274591227513
  0.4779019427682698  0.7557953116032508  0.4690682159885355
  0.4779008809631122  0.7132725046297423  0.2442017387296360
  0.3390659479588223  0.2906720590977088  0.1475674007466026
  0.3390652844136497  0.8568935381727627  0.7093278503452467
  0.3390619363951330  0.8524346470129487  0.1431071082818818
  0.6884770700530183  0.2163868612479405  0.1437684513765376
  0.6884718082179120  0.9273812574252887  0.7836137214867875
  0.6884762479790112  0.8562320235399525  0.0726204518230773
  0.8604546758224245  0.2418037988866075  0.3504501825501336
  0.8604529463160873  0.1086432202821683  0.7581950628022227
  0.8604509066248553  0.6495507714759228  0.8913540295286282
  0.9119966123952281  0.0887284648787485  0.2188063248112684
  0.9119974318356299  0.1300741281158366  0.9112700535608198
  0.9119922800431084  0.7811934062844159  0.8699224596831598
  0.8029807985394797  0.1397305024597202  0.0201576243829251
  0.8029792024894959  0.8804272581353558  0.8602692615293961
  0.8029805725664474  0.9798430664949223  0.1195737149125620
  0.4781773665888309  0.2576589374062905  0.3272475590146371
  0.4781740472700662  0.0695904046310858  0.7423402872095224
  0.4781753985381627  0.6727546497465298  0.9304135378246343
  0.4293509298545359  0.2293783032900549  0.4546582316660803
  0.4293487562306240  0.2252827906835932  0.7706230692650990
  0.4293505683512038  0.5453442386808121  0.7747188659869124
  0.6994597445324189  0.4038391772495444  0.5221531474354961
  0.6994588186024302  0.1183158772952524  0.5961615922004384
  0.6994591707129416  0.4778469972228834  0.8816859260488883
  0.5619810205897267  0.4591438380850050  0.6569289049670104
  0.5619806494196737  0.1977888851781771  0.5408587929311466
  0.5619815035837803  0.3430741326033129  0.8022137560164282
  0.9542377740835661  0.2749404779059716  0.1010448221586486
  0.9542389675475036  0.8261037178048838  0.7250577370740956
  0.9542371833291980  0.8989545154407210  0.1738945302735999
  0.0456128212847418  0.2352129960735283  0.1246586003118537
  0.0456163839841537  0.8894440457692809  0.7647840671163664
  0.0456120745013138  0.8753405554670906  0.1105525948093629
  0.1127208228272565  0.1712286387460082  0.0663140109791698
  0.1127226383574040  0.8950856997546381  0.8287700120988575
  0.1127181046925614  0.9336849562753571  0.1049125179651540
  0.0649716168114125  0.2629360322352170  0.2069287251298917
  0.0649714930335037  0.9439931269344015  0.7370627304239861
  0.0649700937744271  0.7930702625905539  0.0560050795203537
  0.1495325789880084  0.2269377688054917  0.2304233986322828
  0.1495329908731406  0.0034851366355539  0.7730610739376047
  0.1495322464716864  0.7695762514230964  0.9965141890509130
  0.1980597458979290  0.1358463659515863  0.0900044501013113
  0.1980604732077893  0.9541580448433393  0.8641529841734297
  0.1980586248701783  0.9099942731539343  0.0458405500979637
  0.2176147705206404  0.1628555754002221  0.1724629625690355
  0.2176143016710057  0.0096079793025581  0.8371437079549011
  0.2176124662150727  0.8275351994724716  0.9903911724593542
  0.3097400279104079  0.1271824039965921  0.1983184707363179
  0.3097384614940424  0.0711365758111668  0.8728182297419309
  0.3097410557490861  0.8016804970292668  0.9288633327086231
  0.4155385468905877  0.1025319318507627  0.1561257566830463
  0.4155370518007686  0.0535949741350450  0.8974694797179907
  0.4155377511046368  0.8438743870573120  0.9464069075760904
  0.2956083172640902  0.1196471120616138  0.2675925104489778
  0.2956064582704059  0.1479452260416991  0.8803525763437534
  0.2956093044340804  0.7324072574371669  0.8520538147227299
  0.3862410147051634  0.0931542514231083  0.2966034779649291
  0.3862389478842090  0.2034495541360499  0.9068450728024544
  0.3862445003434090  0.7033956300735795  0.7965492321729073
  0.5056407384921542  0.0750330827364820  0.1846387601132093
  0.5056390338038312  0.1096066087524008  0.9249670144123741
  0.5056415691517770  0.8153603131548550  0.8903953319324103
  0.4933888040923762  0.0727601216035652  0.2565750623143543
  0.4933859476135893  0.1838158639239822  0.9272401298538639
  0.4933896137594331  0.7434254843592569  0.8161855288789681
  0.5959583466774632  0.0552027044696572  0.2933849423123434
  0.5959578899828273  0.2381819173724509  0.9447983794537436
  0.5959590828815990  0.7066156670022252  0.7618183203733864
  0.7792368101807483  0.8519851546531569  0.3161660163317066
  0.7792366849481454  0.4641791538255902  0.1480139006379346
  0.7792357856071774  0.6838324460197853  0.5358195727150417
  0.6762131308989510  0.9525979889856089  0.4077845315286979
  0.6762121546196909  0.4551867665246689  0.0474012085366482
  0.6762124756054035  0.5922129596021293  0.5448120013222990
  0.6557709610961666  0.8880619310129561  0.4186566023483564
  0.6557688390822634  0.5305939594577112  0.1119382616305558
  0.6557674522514247  0.5813424627914472  0.4694064862021747
  0.7256046144199999  0.7447901604393223  0.3465683242441315
  0.7256022445462520  0.6017773108827811  0.2552098906509315
  0.7256049110517395  0.6534328749072884  0.3982241116758445
  0.7257349090569107  0.6801341655521753  0.2671583499988444
  0.7257343432006067  0.5870239175226502  0.3198665163952299
  0.7257341036297973  0.7328417384165675  0.4129769358019146
  0.8383065613370633  0.1535138359834463  0.4586273743477491
  0.8383058317660783  0.3051143928435778  0.8464859671777489
  0.8383085136972710  0.5413724049094171  0.6948862927335853
  0.9954548928883966  0.1250979557144092  0.3854339188043667
  0.9954552077503536  0.2603356208716292  0.8749005351962325
  0.9954567490387731  0.6145666392317111  0.7396651999029231
  0.0188804684272341  0.1940714898854523  0.4573608932393682
  0.0188798919427740  0.2632897205139670  0.8059284500219732
  0.0188834444326034  0.5426396454547984  0.7367100480529842
  0.9083733864697834  0.2734845834364208  0.5861544691270026
  0.9083726074899729  0.3126706722597774  0.7265157863886387
  0.9083749077711190  0.4138463216092774  0.6873293063797732
  0.9081335703243454  0.3543699965995231  0.6054350246231195
  0.9081312766942702  0.2510662424060328  0.6456305622273746
  0.9081336612693107  0.3945653389402892  0.7489339750148147
  0.8873434686230084  0.5679743804358637  0.0142955339578492
  0.8873417237205956  0.4463214352288958  0.4320233733217833
  0.8873440138152091  0.9857032950207909  0.5536790010125188
  0.9821334060886002  0.5444765978993829  0.0524269570825240
  0.9821314294151264  0.5079507961401717  0.4555224873492065
  0.9821329866049737  0.9475716050773428  0.4920504327625395
  0.0375832673352008  0.4696671972376052  0.0071117816876480
  0.0375794540817580  0.5374440327738697  0.5303314759412245
  0.0375790963347740  0.9928879401044810  0.4625577936408334
  0.0142815938598773  0.5948604722225355  0.1336293790549092
  0.0142794906684145  0.5387696548486218  0.4051393318411698
  0.0142796167412840  0.8663691861309388  0.4612312075560965
  0.1000997842699718  0.5706333762217000  0.1684974071231835
  0.1000991956518504  0.5978636424141115  0.4293667786147566
  0.1001003132822333  0.8315036395117659  0.4021373166158497
  0.1212247288491426  0.4447284987254605  0.0423799269751939
  0.1212224260385213  0.5976492326828478  0.5552704950920386
  0.1212239294528814  0.9576213567816936  0.4023525967112249
  0.1542837636677632  0.4946469245865472  0.1237511959512503
  0.1542822002521973  0.6291028890231161  0.5053529174214830
  0.1542840096089080  0.8762506193214890  0.3708985256591575
  0.2437868663155029  0.4662439144094321  0.1591118171795927
  0.2437868003226527  0.6928668566043754  0.5337568576008422
  0.2437878658087342  0.8408894238921860  0.3071339754399318
  0.2494889132022564  0.3836584087020398  0.1355910451399680
  0.2494886353479302  0.7519302158323313  0.6163420289296226
  0.2494861277052607  0.8644106469426731  0.2480704851338302
  0.3264053487907148  0.5192438897235263  0.2147834301071896
  0.3264043952625784  0.6955361445819292  0.4807553400929905
  0.3264056732837091  0.7852170161770715  0.3044615711485292
  0.4128452199986015  0.4900390229906009  0.2445913347800541
  0.4128449139441273  0.7545492874172268  0.5099603999661824
  0.4128445593972145  0.7554100239790529  0.2454471036238601
  0.3352480673857343  0.3545712654241271  0.1655245443891786
  0.3352467004286979  0.8109524014205363  0.6454289731556457
  0.3352469020089615  0.8344784635188773  0.1890501117686298
  0.4183875055435777  0.4073790410966538  0.2199903289215612
  0.4183852549591407  0.8126096548618307  0.5926203921714972
  0.4183847963731182  0.7800118023778424  0.1873890856297677
  0.5099457894344468  0.3736250504304408  0.2503105961393572
  0.5099415629491517  0.8766863187595604  0.6263761116749720
  0.5099438142066575  0.7496909832222229  0.1233152079186652
  0.7436560293622776  0.2040314790415252  0.1823979291573110
  0.7436514428393508  0.9783645526709890  0.7959683883512199
  0.7436525486315517  0.8176029149786146  0.0216352652929999
  0.8324723376215104  0.2129498982205860  0.2878691504614963
  0.8324698738181908  0.0749170735705107  0.7870486564553971
  0.8324693369867688  0.7121314987817442  0.9250808589525263
  0.8594536601418028  0.1383215619088176  0.2240540423547159
  0.8594529042429002  0.0857308725799300  0.8616781301163243
  0.8594512531522653  0.7759469319885852  0.9142686754586080
  0.8040689901220048  0.0661468922303072  0.0776687840238282
  0.8040685304752557  0.0115216905877702  0.9338528735587559
  0.8040672002761511  0.9223307093128881  0.9884783562756709
  0.8041140200125128  0.0789141621076723  0.0117187406926433
  0.8041122339640339  0.9328042020811367  0.9210852803003036
  0.8041144310673047  0.9882805839583213  0.0671953095567304
  0.5144342381833482  0.2842877996896291  0.3877137622639637
  0.5144307848542979  0.1034287921795425  0.7157121832332081
  0.5144332299452117  0.6122849842948597  0.8965725183709949
  0.4893103451884713  0.2703882159966398  0.4498333008807265
  0.4893092081800887  0.1794468386905166  0.7296124759314253
  0.4893144827172549  0.5501702590204474  0.8205563546543360
  0.6285106916031040  0.3636542769746285  0.4882206828520452
  0.6285097486176738  0.1245687654045327  0.6363467732478938
  0.6285108380973554  0.5117805496066339  0.8754339467415448
  0.5649316126502555  0.3277210294259021  0.5910800605747895
  0.5649318813197226  0.2633625824162067  0.6722820992623895
  0.5649333406095991  0.4089223279074119  0.7366402027167638
  0.5648950483587711  0.4040627113325570  0.6609270606440845
  0.5648944605684747  0.2568684523216689  0.5959401999722971
  0.5648935834161861  0.3390735057796874  0.7431332260023069
  0.7535864777655590  0.9293805289345656  0.3442193603622954
  0.7535847915623251  0.4148372073202253  0.0706178639075929
  0.7535848762466770  0.6557780376779903  0.5851612134258062
  0.7215079758612646  0.8248172704309198  0.3601155855865628
  0.7215075831806743  0.5352974474773546  0.1751822250071413
  0.7215059715746150  0.6398832388962745  0.4647027206569661
  0.8829239429029982  0.1011022497078784  0.3872396149024908
  0.8829241631524098  0.2861368397321513  0.8988966326048740
  0.8829265752008695  0.6127605984931392  0.7138631706947862
  0.9183184966888902  0.2113293403097884  0.5033826786371378
  0.9183186754673756  0.2920541290436276  0.7886704711259966
  0.9183223991196883  0.4966170327194845  0.7079453645931437
  0.7601086972621331  0.2526203645345930  0.2610221350209585
  0.7601047446467675  0.0084007532343762  0.7473800728968172
  0.7601067212532442  0.7389782101510818  0.9915989303499018
  0.8031954572814470  0.1335611639966672  0.1573713865988680
  0.8031923343194265  0.0238090221616716  0.8664383262666178
  0.8031921752135531  0.8426288055431925  0.9761906036402195
  0.6017178363266709  0.3418179693816157  0.4124100992677597
  0.6017153670512272  0.0705939784279508  0.6581827827570592
  0.6017161757080842  0.5875919370663780  0.9294093446153155
  0.5614385098166537  0.3214841381015532  0.5137855816431696
  0.5614381831500879  0.1923042078024011  0.6785174327764807
  0.5614384906004446  0.4862165543554013  0.8076982989150707
  0.6789276983842925  0.0148652718842044  0.2431431793362222
  0.6789272864754210  0.2282769805346518  0.9851347598769493
  0.6789274205835056  0.7568586429259767  0.7717239349323179
  0.5988887630412378  0.0815202034797124  0.3683966231247524
  0.5988881155475312  0.2868771870221494  0.9184808932187138
  0.5988895871165383  0.6316034960618282  0.7131235206487005
  0.9450697637982728  0.2490592203017741  0.0235580697779199
  0.9450694225995022  0.7744985850445616  0.7509394793472026
  0.9450699555260229  0.9764414545780440  0.2255000636263702
  0.8905229551159195  0.3287277351006281  0.1532286584721092
  0.8905232772633411  0.8244993766919109  0.6712696022461699
  0.8905216929691449  0.8467711632902493  0.1754994263369198
  0.5089578644164376  0.3002962428947527  0.2304509749458816
  0.5089543141575845  0.9301527566319265  0.6997022077066433
  0.5089564802929445  0.7695510363135227  0.0698458082440467
  0.5891137965444315  0.4242248002776137  0.2979155861698715
  0.5891113093923153  0.8736912958004268  0.5757751064801724
  0.5891128750344805  0.7020858241588428  0.1263104058314610
  0.8258817674361296  0.6291675474854017  0.0650127023580751
  0.8258843934644986  0.4358445243019844  0.3708286121041766
  0.8258825380780124  0.9349875862220713  0.5641551534853733
  0.8714226226579811  0.5282687044944083  0.9387799778150665
  0.8714196892844797  0.4105126755781470  0.4717305478877378
  0.8714215854478908  0.0612170680366688  0.5894870151308211
 
  0.00000000E+00  0.00000000E+00  0.00000000E+00
  0.00000000E+00  0.00000000E+00  0.00000000E+00
  0.00000000E+00  0.00000000E+00  0.00000000E+00
  0.00000000E+00  0.00000000E+00  0.00000000E+00
  0.00000000E+00  0.00000000E+00  0.00000000E+00
  0.00000000E+00  0.00000000E+00  0.00000000E+00
  0.00000000E+00  0.00000000E+00  0.00000000E+00
  0.00000000E+00  0.00000000E+00  0.00000000E+00
  0.00000000E+00  0.00000000E+00  0.00000000E+00
  0.00000000E+00  0.00000000E+00  0.00000000E+00
  0.00000000E+00  0.00000000E+00  0.00000000E+00
  0.00000000E+00  0.00000000E+00  0.00000000E+00
  0.00000000E+00  0.00000000E+00  0.00000000E+00
  0.00000000E+00  0.00000000E+00  0.00000000E+00
  0.00000000E+00  0.00000000E+00  0.00000000E+00
  0.00000000E+00  0.00000000E+00  0.00000000E+00
  0.00000000E+00  0.00000000E+00  0.00000000E+00
  0.00000000E+00  0.00000000E+00  0.00000000E+00
  0.00000000E+00  0.00000000E+00  0.00000000E+00
  0.00000000E+00  0.00000000E+00  0.00000000E+00
  0.00000000E+00  0.00000000E+00  0.00000000E+00
  0.00000000E+00  0.00000000E+00  0.00000000E+00
  0.00000000E+00  0.00000000E+00  0.00000000E+00
  0.00000000E+00  0.00000000E+00  0.00000000E+00
  0.00000000E+00  0.00000000E+00  0.00000000E+00
  0.00000000E+00  0.00000000E+00  0.00000000E+00
  0.00000000E+00  0.00000000E+00  0.00000000E+00
  0.00000000E+00  0.00000000E+00  0.00000000E+00
  0.00000000E+00  0.00000000E+00  0.00000000E+00
  0.00000000E+00  0.00000000E+00  0.00000000E+00
  0.00000000E+00  0.00000000E+00  0.00000000E+00
  0.00000000E+00  0.00000000E+00  0.00000000E+00
  0.00000000E+00  0.00000000E+00  0.00000000E+00
  0.00000000E+00  0.00000000E+00  0.00000000E+00
  0.00000000E+00  0.00000000E+00  0.00000000E+00
  0.00000000E+00  0.00000000E+00  0.00000000E+00
  0.00000000E+00  0.00000000E+00  0.00000000E+00
  0.00000000E+00  0.00000000E+00  0.00000000E+00
  0.00000000E+00  0.00000000E+00  0.00000000E+00
  0.00000000E+00  0.00000000E+00  0.00000000E+00
  0.00000000E+00  0.00000000E+00  0.00000000E+00
  0.00000000E+00  0.00000000E+00  0.00000000E+00
  0.00000000E+00  0.00000000E+00  0.00000000E+00
  0.00000000E+00  0.00000000E+00  0.00000000E+00
  0.00000000E+00  0.00000000E+00  0.00000000E+00
  0.00000000E+00  0.00000000E+00  0.00000000E+00
  0.00000000E+00  0.00000000E+00  0.00000000E+00
  0.00000000E+00  0.00000000E+00  0.00000000E+00
  0.00000000E+00  0.00000000E+00  0.00000000E+00
  0.00000000E+00  0.00000000E+00  0.00000000E+00
  0.00000000E+00  0.00000000E+00  0.00000000E+00
  0.00000000E+00  0.00000000E+00  0.00000000E+00
  0.00000000E+00  0.00000000E+00  0.00000000E+00
  0.00000000E+00  0.00000000E+00  0.00000000E+00
  0.00000000E+00  0.00000000E+00  0.00000000E+00
  0.00000000E+00  0.00000000E+00  0.00000000E+00
  0.00000000E+00  0.00000000E+00  0.00000000E+00
  0.00000000E+00  0.00000000E+00  0.00000000E+00
  0.00000000E+00  0.00000000E+00  0.00000000E+00
  0.00000000E+00  0.00000000E+00  0.00000000E+00
  0.00000000E+00  0.00000000E+00  0.00000000E+00
  0.00000000E+00  0.00000000E+00  0.00000000E+00
  0.00000000E+00  0.00000000E+00  0.00000000E+00
  0.00000000E+00  0.00000000E+00  0.00000000E+00
  0.00000000E+00  0.00000000E+00  0.00000000E+00
  0.00000000E+00  0.00000000E+00  0.00000000E+00
  0.00000000E+00  0.00000000E+00  0.00000000E+00
  0.00000000E+00  0.00000000E+00  0.00000000E+00
  0.00000000E+00  0.00000000E+00  0.00000000E+00
  0.00000000E+00  0.00000000E+00  0.00000000E+00
  0.00000000E+00  0.00000000E+00  0.00000000E+00
  0.00000000E+00  0.00000000E+00  0.00000000E+00
  0.00000000E+00  0.00000000E+00  0.00000000E+00
  0.00000000E+00  0.00000000E+00  0.00000000E+00
  0.00000000E+00  0.00000000E+00  0.00000000E+00
  0.00000000E+00  0.00000000E+00  0.00000000E+00
  0.00000000E+00  0.00000000E+00  0.00000000E+00
  0.00000000E+00  0.00000000E+00  0.00000000E+00
  0.00000000E+00  0.00000000E+00  0.00000000E+00
  0.00000000E+00  0.00000000E+00  0.00000000E+00
  0.00000000E+00  0.00000000E+00  0.00000000E+00
  0.00000000E+00  0.00000000E+00  0.00000000E+00
  0.00000000E+00  0.00000000E+00  0.00000000E+00
  0.00000000E+00  0.00000000E+00  0.00000000E+00
  0.00000000E+00  0.00000000E+00  0.00000000E+00
  0.00000000E+00  0.00000000E+00  0.00000000E+00
  0.00000000E+00  0.00000000E+00  0.00000000E+00
  0.00000000E+00  0.00000000E+00  0.00000000E+00
  0.00000000E+00  0.00000000E+00  0.00000000E+00
  0.00000000E+00  0.00000000E+00  0.00000000E+00
  0.00000000E+00  0.00000000E+00  0.00000000E+00
  0.00000000E+00  0.00000000E+00  0.00000000E+00
  0.00000000E+00  0.00000000E+00  0.00000000E+00
  0.00000000E+00  0.00000000E+00  0.00000000E+00
  0.00000000E+00  0.00000000E+00  0.00000000E+00
  0.00000000E+00  0.00000000E+00  0.00000000E+00
  0.00000000E+00  0.00000000E+00  0.00000000E+00
  0.00000000E+00  0.00000000E+00  0.00000000E+00
  0.00000000E+00  0.00000000E+00  0.00000000E+00
  0.00000000E+00  0.00000000E+00  0.00000000E+00
  0.00000000E+00  0.00000000E+00  0.00000000E+00
  0.00000000E+00  0.00000000E+00  0.00000000E+00
  0.00000000E+00  0.00000000E+00  0.00000000E+00
  0.00000000E+00  0.00000000E+00  0.00000000E+00
  0.00000000E+00  0.00000000E+00  0.00000000E+00
  0.00000000E+00  0.00000000E+00  0.00000000E+00
  0.00000000E+00  0.00000000E+00  0.00000000E+00
  0.00000000E+00  0.00000000E+00  0.00000000E+00
  0.00000000E+00  0.00000000E+00  0.00000000E+00
  0.00000000E+00  0.00000000E+00  0.00000000E+00
  0.00000000E+00  0.00000000E+00  0.00000000E+00
  0.00000000E+00  0.00000000E+00  0.00000000E+00
  0.00000000E+00  0.00000000E+00  0.00000000E+00
  0.00000000E+00  0.00000000E+00  0.00000000E+00
  0.00000000E+00  0.00000000E+00  0.00000000E+00
  0.00000000E+00  0.00000000E+00  0.00000000E+00
  0.00000000E+00  0.00000000E+00  0.00000000E+00
  0.00000000E+00  0.00000000E+00  0.00000000E+00
  0.00000000E+00  0.00000000E+00  0.00000000E+00
  0.00000000E+00  0.00000000E+00  0.00000000E+00
  0.00000000E+00  0.00000000E+00  0.00000000E+00
  0.00000000E+00  0.00000000E+00  0.00000000E+00
  0.00000000E+00  0.00000000E+00  0.00000000E+00
  0.00000000E+00  0.00000000E+00  0.00000000E+00
  0.00000000E+00  0.00000000E+00  0.00000000E+00
  0.00000000E+00  0.00000000E+00  0.00000000E+00
  0.00000000E+00  0.00000000E+00  0.00000000E+00
  0.00000000E+00  0.00000000E+00  0.00000000E+00
  0.00000000E+00  0.00000000E+00  0.00000000E+00
  0.00000000E+00  0.00000000E+00  0.00000000E+00
  0.00000000E+00  0.00000000E+00  0.00000000E+00
  0.00000000E+00  0.00000000E+00  0.00000000E+00
  0.00000000E+00  0.00000000E+00  0.00000000E+00
  0.00000000E+00  0.00000000E+00  0.00000000E+00
  0.00000000E+00  0.00000000E+00  0.00000000E+00
  0.00000000E+00  0.00000000E+00  0.00000000E+00
  0.00000000E+00  0.00000000E+00  0.00000000E+00
  0.00000000E+00  0.00000000E+00  0.00000000E+00
  0.00000000E+00  0.00000000E+00  0.00000000E+00
  0.00000000E+00  0.00000000E+00  0.00000000E+00
  0.00000000E+00  0.00000000E+00  0.00000000E+00
  0.00000000E+00  0.00000000E+00  0.00000000E+00
  0.00000000E+00  0.00000000E+00  0.00000000E+00
  0.00000000E+00  0.00000000E+00  0.00000000E+00
  0.00000000E+00  0.00000000E+00  0.00000000E+00
  0.00000000E+00  0.00000000E+00  0.00000000E+00
  0.00000000E+00  0.00000000E+00  0.00000000E+00
  0.00000000E+00  0.00000000E+00  0.00000000E+00
  0.00000000E+00  0.00000000E+00  0.00000000E+00
  0.00000000E+00  0.00000000E+00  0.00000000E+00
  0.00000000E+00  0.00000000E+00  0.00000000E+00
  0.00000000E+00  0.00000000E+00  0.00000000E+00
  0.00000000E+00  0.00000000E+00  0.00000000E+00
  0.00000000E+00  0.00000000E+00  0.00000000E+00
  0.00000000E+00  0.00000000E+00  0.00000000E+00
  0.00000000E+00  0.00000000E+00  0.00000000E+00
  0.00000000E+00  0.00000000E+00  0.00000000E+00
  0.00000000E+00  0.00000000E+00  0.00000000E+00
  0.00000000E+00  0.00000000E+00  0.00000000E+00
  0.00000000E+00  0.00000000E+00  0.00000000E+00
  0.00000000E+00  0.00000000E+00  0.00000000E+00
  0.00000000E+00  0.00000000E+00  0.00000000E+00
  0.00000000E+00  0.00000000E+00  0.00000000E+00
  0.00000000E+00  0.00000000E+00  0.00000000E+00
  0.00000000E+00  0.00000000E+00  0.00000000E+00
  0.00000000E+00  0.00000000E+00  0.00000000E+00
  0.00000000E+00  0.00000000E+00  0.00000000E+00
  0.00000000E+00  0.00000000E+00  0.00000000E+00
  0.00000000E+00  0.00000000E+00  0.00000000E+00
  0.00000000E+00  0.00000000E+00  0.00000000E+00
  0.00000000E+00  0.00000000E+00  0.00000000E+00
  0.00000000E+00  0.00000000E+00  0.00000000E+00
  0.00000000E+00  0.00000000E+00  0.00000000E+00
  0.00000000E+00  0.00000000E+00  0.00000000E+00
  0.00000000E+00  0.00000000E+00  0.00000000E+00
  0.00000000E+00  0.00000000E+00  0.00000000E+00
  0.00000000E+00  0.00000000E+00  0.00000000E+00
  0.00000000E+00  0.00000000E+00  0.00000000E+00
  0.00000000E+00  0.00000000E+00  0.00000000E+00
  0.00000000E+00  0.00000000E+00  0.00000000E+00
  0.00000000E+00  0.00000000E+00  0.00000000E+00
  0.00000000E+00  0.00000000E+00  0.00000000E+00
  0.00000000E+00  0.00000000E+00  0.00000000E+00
  0.00000000E+00  0.00000000E+00  0.00000000E+00
  0.00000000E+00  0.00000000E+00  0.00000000E+00
  0.00000000E+00  0.00000000E+00  0.00000000E+00
  0.00000000E+00  0.00000000E+00  0.00000000E+00
  0.00000000E+00  0.00000000E+00  0.00000000E+00
  0.00000000E+00  0.00000000E+00  0.00000000E+00
  0.00000000E+00  0.00000000E+00  0.00000000E+00
  0.00000000E+00  0.00000000E+00  0.00000000E+00
  0.00000000E+00  0.00000000E+00  0.00000000E+00
  0.00000000E+00  0.00000000E+00  0.00000000E+00
  0.00000000E+00  0.00000000E+00  0.00000000E+00
  0.00000000E+00  0.00000000E+00  0.00000000E+00
  0.00000000E+00  0.00000000E+00  0.00000000E+00
  0.00000000E+00  0.00000000E+00  0.00000000E+00
  0.00000000E+00  0.00000000E+00  0.00000000E+00
  0.00000000E+00  0.00000000E+00  0.00000000E+00
  0.00000000E+00  0.00000000E+00  0.00000000E+00
  0.00000000E+00  0.00000000E+00  0.00000000E+00
  0.00000000E+00  0.00000000E+00  0.00000000E+00
  0.00000000E+00  0.00000000E+00  0.00000000E+00
  0.00000000E+00  0.00000000E+00  0.00000000E+00
  0.00000000E+00  0.00000000E+00  0.00000000E+00
  0.00000000E+00  0.00000000E+00  0.00000000E+00
  0.00000000E+00  0.00000000E+00  0.00000000E+00
  0.00000000E+00  0.00000000E+00  0.00000000E+00
  0.00000000E+00  0.00000000E+00  0.00000000E+00
  0.00000000E+00  0.00000000E+00  0.00000000E+00
  0.00000000E+00  0.00000000E+00  0.00000000E+00
  0.00000000E+00  0.00000000E+00  0.00000000E+00
  0.00000000E+00  0.00000000E+00  0.00000000E+00
  0.00000000E+00  0.00000000E+00  0.00000000E+00
  0.00000000E+00  0.00000000E+00  0.00000000E+00
  0.00000000E+00  0.00000000E+00  0.00000000E+00
  0.00000000E+00  0.00000000E+00  0.00000000E+00
  0.00000000E+00  0.00000000E+00  0.00000000E+00
  0.00000000E+00  0.00000000E+00  0.00000000E+00
  0.00000000E+00  0.00000000E+00  0.00000000E+00
  0.00000000E+00  0.00000000E+00  0.00000000E+00
  0.00000000E+00  0.00000000E+00  0.00000000E+00
  0.00000000E+00  0.00000000E+00  0.00000000E+00
  0.00000000E+00  0.00000000E+00  0.00000000E+00
  0.00000000E+00  0.00000000E+00  0.00000000E+00
  0.00000000E+00  0.00000000E+00  0.00000000E+00
  0.00000000E+00  0.00000000E+00  0.00000000E+00
  0.00000000E+00  0.00000000E+00  0.00000000E+00
  0.00000000E+00  0.00000000E+00  0.00000000E+00
  0.00000000E+00  0.00000000E+00  0.00000000E+00
  0.00000000E+00  0.00000000E+00  0.00000000E+00
  0.00000000E+00  0.00000000E+00  0.00000000E+00
  0.00000000E+00  0.00000000E+00  0.00000000E+00
  0.00000000E+00  0.00000000E+00  0.00000000E+00
  0.00000000E+00  0.00000000E+00  0.00000000E+00
  0.00000000E+00  0.00000000E+00  0.00000000E+00
  0.00000000E+00  0.00000000E+00  0.00000000E+00
  0.00000000E+00  0.00000000E+00  0.00000000E+00
  0.00000000E+00  0.00000000E+00  0.00000000E+00
  0.00000000E+00  0.00000000E+00  0.00000000E+00
  0.00000000E+00  0.00000000E+00  0.00000000E+00
  0.00000000E+00  0.00000000E+00  0.00000000E+00
  0.00000000E+00  0.00000000E+00  0.00000000E+00
  0.00000000E+00  0.00000000E+00  0.00000000E+00
  0.00000000E+00  0.00000000E+00  0.00000000E+00
  0.00000000E+00  0.00000000E+00  0.00000000E+00
  0.00000000E+00  0.00000000E+00  0.00000000E+00
  0.00000000E+00  0.00000000E+00  0.00000000E+00
  0.00000000E+00  0.00000000E+00  0.00000000E+00
  0.00000000E+00  0.00000000E+00  0.00000000E+00
  0.00000000E+00  0.00000000E+00  0.00000000E+00
  0.00000000E+00  0.00000000E+00  0.00000000E+00
  0.00000000E+00  0.00000000E+00  0.00000000E+00
  0.00000000E+00  0.00000000E+00  0.00000000E+00
  0.00000000E+00  0.00000000E+00  0.00000000E+00
  0.00000000E+00  0.00000000E+00  0.00000000E+00
  0.00000000E+00  0.00000000E+00  0.00000000E+00
  0.00000000E+00  0.00000000E+00  0.00000000E+00
  0.00000000E+00  0.00000000E+00  0.00000000E+00
  0.00000000E+00  0.00000000E+00  0.00000000E+00
  0.00000000E+00  0.00000000E+00  0.00000000E+00
  0.00000000E+00  0.00000000E+00  0.00000000E+00
  0.00000000E+00  0.00000000E+00  0.00000000E+00
  0.00000000E+00  0.00000000E+00  0.00000000E+00
  0.00000000E+00  0.00000000E+00  0.00000000E+00
  0.00000000E+00  0.00000000E+00  0.00000000E+00
  0.00000000E+00  0.00000000E+00  0.00000000E+00
  0.00000000E+00  0.00000000E+00  0.00000000E+00
  0.00000000E+00  0.00000000E+00  0.00000000E+00
  0.00000000E+00  0.00000000E+00  0.00000000E+00
  0.00000000E+00  0.00000000E+00  0.00000000E+00
  0.00000000E+00  0.00000000E+00  0.00000000E+00
  0.00000000E+00  0.00000000E+00  0.00000000E+00
  0.00000000E+00  0.00000000E+00  0.00000000E+00
  0.00000000E+00  0.00000000E+00  0.00000000E+00
  0.00000000E+00  0.00000000E+00  0.00000000E+00
  0.00000000E+00  0.00000000E+00  0.00000000E+00
  0.00000000E+00  0.00000000E+00  0.00000000E+00
  0.00000000E+00  0.00000000E+00  0.00000000E+00
  0.00000000E+00  0.00000000E+00  0.00000000E+00
  0.00000000E+00  0.00000000E+00  0.00000000E+00
  0.00000000E+00  0.00000000E+00  0.00000000E+00
  0.00000000E+00  0.00000000E+00  0.00000000E+00
  0.00000000E+00  0.00000000E+00  0.00000000E+00
  0.00000000E+00  0.00000000E+00  0.00000000E+00
  0.00000000E+00  0.00000000E+00  0.00000000E+00
  0.00000000E+00  0.00000000E+00  0.00000000E+00
  0.00000000E+00  0.00000000E+00  0.00000000E+00
  0.00000000E+00  0.00000000E+00  0.00000000E+00
  0.00000000E+00  0.00000000E+00  0.00000000E+00
  0.00000000E+00  0.00000000E+00  0.00000000E+00
  0.00000000E+00  0.00000000E+00  0.00000000E+00
  0.00000000E+00  0.00000000E+00  0.00000000E+00
  0.00000000E+00  0.00000000E+00  0.00000000E+00
