Zn  H  C  N  O                          
   1.00000000000000     
    -7.6793692140000003    0.0000000000000000   -1.7864000000000000
    -3.8396881469999999    7.8551727460000000   -0.8932030000000000
     0.0000000000000000    0.0000000000000000  -16.4278000000000013
   Zn   H    C    N    O 
     2    44    40     8     8
Direct
  0.0601981762303438  0.6222994908023125  0.4482677051034827
  0.6822225388354752  0.3777523545247305  0.9482735436458753
  0.3695963019102777  0.7548669127638803  0.4889585808925148
  0.1240067920126435  0.2449303232675177  0.9888975862388776
  0.7671086584400584  0.0017135205596688  0.4972678368897974
  0.7683551793231373  0.9980646197745600  0.9973341527825212
  0.8926434165545558  0.2395198757351409  0.5288359932005946
  0.1315415746613908  0.7603830231539490  0.0290847060223953
  0.2543521849560761  0.2089272958173609  0.5056496164665063
  0.4628225007354203  0.7910838120223787  0.0058373884839398
  0.4397925533209843  0.9952919245450289  0.5059464353028389
  0.4344046146322427  0.0048172078735362  0.0060042642287286
  0.2782426306455292  0.9637611093728040  0.6546264898793339
  0.2418443051465147  0.0365389800174896  0.1547433379221630
  0.1228521794344815  0.1863205364573659  0.6553607180835499
  0.3087434629325188  0.8140101060484071  0.1555962702896707
  0.5663522732114785  0.0215386733647804  0.6247994187578101
  0.5878456601459376  0.9784482465918742  0.1248170542321390
  0.4163017491422067  0.2449405076393489  0.6268049866133865
  0.6609563585415472  0.7550540505961791  0.1269135865999544
  0.2538141496348629  0.2197150916736845  0.7755692316721721
  0.4734137258118025  0.7805480793687423  0.2756976487462310
  0.4141223618050347  0.9981830130970337  0.7727219561368059
  0.4121918060951657  0.0020827040383438  0.2727577813277762
  0.3446975037415143  0.3367462544152175  0.8742576373363278
  0.6811786661875274  0.6636365829961619  0.3743648111056075
  0.9519379505661902  0.1442348929343353  0.7909596541250181
  0.0961576393991947  0.8558194984856655  0.2910665730938646
  0.8071706773773428  0.0145241872698563  0.6906120876983621
  0.8217721080498208  0.9856447783331816  0.1906874586516949
  0.5528758826942592  0.2407674612837880  0.2782167000105886
  0.7940608070311157  0.7586173076886809  0.7779946504851623
  0.6589326701779115  0.1823957341650555  0.3664675891507514
  0.8415086478626748  0.8174295088888712  0.8661871012448472
  0.6639454986183893  0.4102201319049144  0.1607371594973301
  0.0751398299136170  0.5889367617479522  0.6605869395438688
  0.9214382408704438  0.4929503303376492  0.0908897121099912
  0.4153879367408777  0.5065782928868501  0.5909186707206473
  0.1930438454512071  0.3195168433791693  0.3039696777066396
  0.5123030674773190  0.6811218763743270  0.8039921168333777
  0.9412828684867733  0.2278053020426825  0.3719418245008370
  0.1687702835053457  0.7724196776053915  0.8718124881146494
  0.3028439232498172  0.4786820254099098  0.2008619166513057
  0.7818630519005794  0.5215696882142140  0.7009132223342647
  0.1389565295842843  0.6212695962014436  0.1424912762764805
  0.7605225845895163  0.3789464721212923  0.6425867328036077
  0.2211441321418022  0.8512963643485989  0.4955616489010453
  0.0719608690201028  0.1485136021475881  0.9956084386590689
  0.9092989816675825  0.9861132594371611  0.5012234734705814
  0.8949334035954379  0.0136979801055048  0.0012938975938894
  0.9679650495665655  0.1036539903485405  0.5172477860890083
  0.0710469670682485  0.8962170823785982  0.0174373873188998
  0.2905001232345654  0.0825125074849637  0.5339741268234732
  0.3724994279945761  0.9175457030744738  0.0341246208991635
  0.2677839025380280  0.0875041227260098  0.6286296334003865
  0.3549706894798632  0.9127144916896768  0.1287683705786833
  0.4236104725558931  0.1219731291699304  0.6523080075805723
  0.5454100202343000  0.8781169075514583  0.1523778524012798
  0.3981267961225399  0.1235822599183862  0.7469285142320246
  0.5215949826316759  0.8766439927761738  0.2470033527768223
  0.4921406751300879  0.2665008227942565  0.8403079270215912
  0.7584742876618833  0.7337929013636497  0.3404098851729458
  0.8046303938155503  0.1650644794107521  0.7934800871866443
  0.9696280282526359  0.8350752061232924  0.2935679038577632
  0.7346823598973700  0.0998552196575702  0.7436846352229480
  0.8345094825005930  0.9003188381313834  0.2437645194904690
  0.4453854108808812  0.4417496740306603  0.3656814283050167
  0.8874700572906349  0.5579775444444408  0.8656348551251938
  0.6138613792624241  0.2841146938667194  0.3199293840428865
  0.8982967999961886  0.7155183191689929  0.8197457655468270
  0.7817594166871089  0.3155831297615137  0.2725231120282530
  0.0976590694922024  0.6841440887135875  0.7723804943929125
  0.7813828020910805  0.3871754445564193  0.1922528575792484
  0.1691623436229222  0.6123569978075167  0.6921541096092838
  0.9267889615109794  0.4346460746822629  0.1528553440699554
  0.3620618525789965  0.5651040586294442  0.6528372676848306
  0.0758582655252056  0.4136446269312870  0.1924626652842676
  0.4898251116039773  0.5865065160210534  0.6924662487369631
  0.0807742877892608  0.3348825143711238  0.2708875653349452
  0.4156913241952864  0.6654532203205576  0.7708600181221783
  0.9364245321739233  0.2858956858897344  0.3100596751482669
  0.2223495693636721  0.7142287230865705  0.8099473752505872
  0.2176384099907906  0.4845456774885264  0.1549679866824931
  0.7025097340831650  0.5156716638806813  0.6550370185807353
  0.3639228668892187  0.4014081041827637  0.0749728671951644
  0.7657262334648038  0.5985839079597994  0.5749759379951698
  0.0689052770257277  0.8291300790700618  0.4876116180563201
  0.8975851243941975  0.1706811604725971  0.9876106970625784
  0.1655204645738095  0.0159589106507951  0.5130875525155716
  0.1809271773026566  0.9839401690988581  0.0132649155460243
  0.5369556570140759  0.1650288341093571  0.7743732066738716
  0.7018882540645279  0.8352165142823722  0.2744542133902641
  0.6519045353252721  0.2688406822211959  0.8534331093763541
  0.9205872950149256  0.7314110314029207  0.3535479083445807
  0.3006954621524187  0.4144733801886034  0.4072218288393046
  0.7155921437420716  0.5853505898188445  0.9073350839151431
  0.4505579506216648  0.5823309235725347  0.3610089938446848
  0.0332202832141064  0.4173670148335660  0.8609194059043759
  0.3907835750795883  0.2623074076950402  0.0490437221053597
  0.6533354001771414  0.7372021198322827  0.5487144046118786
  0.4568830761301754  0.4894163533141480  0.0397208340600557
  0.9469162803523048  0.5108149915663205  0.5399753633393800
 
  0.00000000E+00  0.00000000E+00  0.00000000E+00
  0.00000000E+00  0.00000000E+00  0.00000000E+00
  0.00000000E+00  0.00000000E+00  0.00000000E+00
  0.00000000E+00  0.00000000E+00  0.00000000E+00
  0.00000000E+00  0.00000000E+00  0.00000000E+00
  0.00000000E+00  0.00000000E+00  0.00000000E+00
  0.00000000E+00  0.00000000E+00  0.00000000E+00
  0.00000000E+00  0.00000000E+00  0.00000000E+00
  0.00000000E+00  0.00000000E+00  0.00000000E+00
  0.00000000E+00  0.00000000E+00  0.00000000E+00
  0.00000000E+00  0.00000000E+00  0.00000000E+00
  0.00000000E+00  0.00000000E+00  0.00000000E+00
  0.00000000E+00  0.00000000E+00  0.00000000E+00
  0.00000000E+00  0.00000000E+00  0.00000000E+00
  0.00000000E+00  0.00000000E+00  0.00000000E+00
  0.00000000E+00  0.00000000E+00  0.00000000E+00
  0.00000000E+00  0.00000000E+00  0.00000000E+00
  0.00000000E+00  0.00000000E+00  0.00000000E+00
  0.00000000E+00  0.00000000E+00  0.00000000E+00
  0.00000000E+00  0.00000000E+00  0.00000000E+00
  0.00000000E+00  0.00000000E+00  0.00000000E+00
  0.00000000E+00  0.00000000E+00  0.00000000E+00
  0.00000000E+00  0.00000000E+00  0.00000000E+00
  0.00000000E+00  0.00000000E+00  0.00000000E+00
  0.00000000E+00  0.00000000E+00  0.00000000E+00
  0.00000000E+00  0.00000000E+00  0.00000000E+00
  0.00000000E+00  0.00000000E+00  0.00000000E+00
  0.00000000E+00  0.00000000E+00  0.00000000E+00
  0.00000000E+00  0.00000000E+00  0.00000000E+00
  0.00000000E+00  0.00000000E+00  0.00000000E+00
  0.00000000E+00  0.00000000E+00  0.00000000E+00
  0.00000000E+00  0.00000000E+00  0.00000000E+00
  0.00000000E+00  0.00000000E+00  0.00000000E+00
  0.00000000E+00  0.00000000E+00  0.00000000E+00
  0.00000000E+00  0.00000000E+00  0.00000000E+00
  0.00000000E+00  0.00000000E+00  0.00000000E+00
  0.00000000E+00  0.00000000E+00  0.00000000E+00
  0.00000000E+00  0.00000000E+00  0.00000000E+00
  0.00000000E+00  0.00000000E+00  0.00000000E+00
  0.00000000E+00  0.00000000E+00  0.00000000E+00
  0.00000000E+00  0.00000000E+00  0.00000000E+00
  0.00000000E+00  0.00000000E+00  0.00000000E+00
  0.00000000E+00  0.00000000E+00  0.00000000E+00
  0.00000000E+00  0.00000000E+00  0.00000000E+00
  0.00000000E+00  0.00000000E+00  0.00000000E+00
  0.00000000E+00  0.00000000E+00  0.00000000E+00
  0.00000000E+00  0.00000000E+00  0.00000000E+00
  0.00000000E+00  0.00000000E+00  0.00000000E+00
  0.00000000E+00  0.00000000E+00  0.00000000E+00
  0.00000000E+00  0.00000000E+00  0.00000000E+00
  0.00000000E+00  0.00000000E+00  0.00000000E+00
  0.00000000E+00  0.00000000E+00  0.00000000E+00
  0.00000000E+00  0.00000000E+00  0.00000000E+00
  0.00000000E+00  0.00000000E+00  0.00000000E+00
  0.00000000E+00  0.00000000E+00  0.00000000E+00
  0.00000000E+00  0.00000000E+00  0.00000000E+00
  0.00000000E+00  0.00000000E+00  0.00000000E+00
  0.00000000E+00  0.00000000E+00  0.00000000E+00
  0.00000000E+00  0.00000000E+00  0.00000000E+00
  0.00000000E+00  0.00000000E+00  0.00000000E+00
  0.00000000E+00  0.00000000E+00  0.00000000E+00
  0.00000000E+00  0.00000000E+00  0.00000000E+00
  0.00000000E+00  0.00000000E+00  0.00000000E+00
  0.00000000E+00  0.00000000E+00  0.00000000E+00
  0.00000000E+00  0.00000000E+00  0.00000000E+00
  0.00000000E+00  0.00000000E+00  0.00000000E+00
  0.00000000E+00  0.00000000E+00  0.00000000E+00
  0.00000000E+00  0.00000000E+00  0.00000000E+00
  0.00000000E+00  0.00000000E+00  0.00000000E+00
  0.00000000E+00  0.00000000E+00  0.00000000E+00
  0.00000000E+00  0.00000000E+00  0.00000000E+00
  0.00000000E+00  0.00000000E+00  0.00000000E+00
  0.00000000E+00  0.00000000E+00  0.00000000E+00
  0.00000000E+00  0.00000000E+00  0.00000000E+00
  0.00000000E+00  0.00000000E+00  0.00000000E+00
  0.00000000E+00  0.00000000E+00  0.00000000E+00
  0.00000000E+00  0.00000000E+00  0.00000000E+00
  0.00000000E+00  0.00000000E+00  0.00000000E+00
  0.00000000E+00  0.00000000E+00  0.00000000E+00
  0.00000000E+00  0.00000000E+00  0.00000000E+00
  0.00000000E+00  0.00000000E+00  0.00000000E+00
  0.00000000E+00  0.00000000E+00  0.00000000E+00
  0.00000000E+00  0.00000000E+00  0.00000000E+00
  0.00000000E+00  0.00000000E+00  0.00000000E+00
  0.00000000E+00  0.00000000E+00  0.00000000E+00
  0.00000000E+00  0.00000000E+00  0.00000000E+00
  0.00000000E+00  0.00000000E+00  0.00000000E+00
  0.00000000E+00  0.00000000E+00  0.00000000E+00
  0.00000000E+00  0.00000000E+00  0.00000000E+00
  0.00000000E+00  0.00000000E+00  0.00000000E+00
  0.00000000E+00  0.00000000E+00  0.00000000E+00
  0.00000000E+00  0.00000000E+00  0.00000000E+00
  0.00000000E+00  0.00000000E+00  0.00000000E+00
  0.00000000E+00  0.00000000E+00  0.00000000E+00
  0.00000000E+00  0.00000000E+00  0.00000000E+00
  0.00000000E+00  0.00000000E+00  0.00000000E+00
  0.00000000E+00  0.00000000E+00  0.00000000E+00
  0.00000000E+00  0.00000000E+00  0.00000000E+00
  0.00000000E+00  0.00000000E+00  0.00000000E+00
  0.00000000E+00  0.00000000E+00  0.00000000E+00
  0.00000000E+00  0.00000000E+00  0.00000000E+00
  0.00000000E+00  0.00000000E+00  0.00000000E+00
