Zn6 H96 C144 N24 O24                    
   1.0000000000000000     
     0.0000000000000000    0.0000000000000000  -11.5208898635292343
    -9.5175903858188047  -16.4849501991396217    0.0000000000000000
    -9.5175904112767107   16.4849501844414768   -0.0000000000000000
   Zn   H    C    N    O 
     6    96   144    24    24
Direct
  0.8088626393065448  0.6701038201779825  0.0340924523714622
  0.8088626393065448  0.3639886321934824  0.3298961798220240
  0.8088626393065448  0.9659075476285357  0.6360113678065139
  0.6933057813704763  0.3027925778334730  0.0004014709645930
  0.6933057813704763  0.6976098931311253  0.6972074221665313
  0.6933057813704763  0.9995985290354064  0.3023901068688712
  0.0933522475895250  0.5157231236797999  0.3284183630997571
  0.0933522475895250  0.8126952394199494  0.4842768763202077
  0.0933522475895250  0.6715816369002438  0.1873047605800424
  0.0142013780288145  0.3495651290034077  0.0785498439700101
  0.0142013780288145  0.7289847149665999  0.6504348709965979
  0.0142023780288120  0.9214501560299991  0.2710152850333848
  0.1665526382219415  0.4140603429029536  0.0359746601045071
  0.1665526382219415  0.6219133172015525  0.5859396570970510
  0.1665526382219415  0.9640253398954969  0.3780866827984385
  0.2449560036594803  0.5803544105150222  0.2875285803155278
  0.2449560036594803  0.7071741698005024  0.4196455894849818
  0.2449560036594803  0.7124714196844678  0.2928258301994975
  0.4268584035906779  0.5557058831751608  0.2280893544062833
  0.4268584035906779  0.6723834712311206  0.4442941168248454
  0.4268584035906779  0.7719106455937180  0.3276165287688717
  0.2101637048573177  0.5308274127107047  0.0325540584686747
  0.2101637048573177  0.5017256457579686  0.4691725872893041
  0.2101637048573177  0.9674459415313224  0.4982743542420257
  0.3748859794080763  0.5773212161441659  0.9802716982783963
  0.3748859794080763  0.4029504821342391  0.4226787838558395
  0.3748859794080763  0.0197283017216020  0.5970505178657618
  0.5869019159331864  0.6072120337185408  0.1782155490589024
  0.5869019159331864  0.5710035153403606  0.3927879662814641
  0.5869019159331864  0.8217844509410988  0.4289964846596336
  0.8360981868016910  0.8497601765204188  0.0648603901055160
  0.8360981868016910  0.2151002135851000  0.1502398234795905
  0.8360981868016910  0.9351396098944811  0.7848997864148932
  0.6331117504678967  0.6535750180981467  0.8965354573459939
  0.6331117504678967  0.2429604392478441  0.3464249819018468
  0.6331117504678967  0.1034645426540092  0.7570395607521593
  0.5954111330035111  0.7854378845201296  0.8723483884337400
  0.5954111330035111  0.0869105039136053  0.2145621154798661
  0.5954111330035111  0.1276516115662648  0.9130894960863943
  0.7169102316754541  0.9748091597775301  0.1167430633783644
  0.7169102316754541  0.1419339036008294  0.0251908402224694
  0.7169102316754541  0.8832569366216398  0.8580660963991663
  0.7573119331567425  0.5174844939694773  0.8506517282975522
  0.7573119331567425  0.3331672343280971  0.4825155060305488
  0.7573119331567425  0.1493482717024255  0.6668327656718991
  0.0437950291225215  0.5715686324886834  0.0062599972267560
  0.0437950291225215  0.4346913647380420  0.4284313675112853
  0.0437950291225215  0.9937400027732745  0.5653086352619586
  0.0910241129963872  0.4280977833096778  0.8599854119999586
  0.0910241129963872  0.4318876286902371  0.5719022166902766
  0.0910241129963872  0.1400145880000846  0.5681123713097652
  0.9141875700191172  0.2933190253313452  0.7738798169786539
  0.9141875700191172  0.4805607916473044  0.7066809746686555
  0.9141875700191172  0.2261201830213504  0.5194392083526899
  0.0201886345314512  0.2376723393790900  0.3958439277701827
  0.0201886345314512  0.1581725883910870  0.7623276606208920
  0.0201886345314512  0.6041560722298206  0.8418274116089278
  0.9719574604687297  0.0182010529786569  0.1691181053542808
  0.9719574604687297  0.1509160523756300  0.9817989470213350
  0.9719574604687297  0.8308828946457130  0.8490839476243890
  0.1265596630719842  0.0603843608389119  0.1062923674492385
  0.1265596630719842  0.0459080066103323  0.9396156391610766
  0.1265596630719842  0.8937076325507557  0.9540919933896849
  0.1725327090445050  0.2821862406636024  0.3336617857824796
  0.1725327090445050  0.0514755451188704  0.7178137593363746
  0.1725327090445050  0.6663382142175269  0.9485244548811452
  0.1897615859496612  0.3275967681339927  0.2440517949225239
  0.1897615859496612  0.9164560267885323  0.6724032318659940
  0.1897615859496612  0.7559482050774725  0.0835439732114846
  0.3278451795105641  0.0852823291470951  0.1049297782889409
  0.3278451795105641  0.0196474491418517  0.9147176708528927
  0.3278451795105641  0.8950702217110604  0.9803525508581589
  0.4802761858427462  0.1367510685719872  0.0492086377596164
  0.4802761858427462  0.9124575691876289  0.8632489314280059
  0.4802761858427462  0.9507913622403841  0.0875424308123778
  0.3429023387095987  0.3778299595689076  0.1881334779765097
  0.3429023387095987  0.8103045184076001  0.6221700404310870
  0.3429023387095987  0.8118665220234899  0.1896954815924058
  0.6886054162318834  0.4489072565535190  0.1889984588491380
  0.6886054162318834  0.7400922022956209  0.5510927434464816
  0.6886054162318834  0.8110015411508653  0.2599077977043759
  0.8630106155438507  0.4240414032075157  0.9829767028435448
  0.8630106155438507  0.5589352996360193  0.5759585967924807
  0.8630106155438507  0.0170232971564580  0.4410647003639813
  0.9109133238406394  0.5782689620726265  0.1150816199607857
  0.9109133238406394  0.5368116578881543  0.4217310379273714
  0.9109133238406394  0.8849193800392188  0.4631883421118476
  0.8020844604270770  0.5267696885451510  0.3134762283962708
  0.8020844604270770  0.7867065398511183  0.4732303114548467
  0.8020844604270770  0.6865237716037309  0.2132934601488826
  0.4767709045001992  0.4069912587200261  0.0063172776443448
  0.4767709045001992  0.5993270189243146  0.5930087412799709
  0.4767709045001992  0.9936827223556634  0.4006739810756772
  0.4247348719537161  0.4349458071580635  0.8788113996469142
  0.4247348719537161  0.4438645924888361  0.5650541928419304
  0.4247348719537161  0.1211886003530956  0.5561354075111593
  0.6993749998105271  0.2635201628000521  0.8108353332967480
  0.6993749998105271  0.5473141704966941  0.7364798371999496
  0.6993749998105271  0.1891646667032491  0.4526858295033070
  0.5591973966853411  0.2066825790092146  0.6754344694840195
  0.5591973966853411  0.4687518904748037  0.7933174209907873
  0.5591973966853411  0.3245655305159819  0.5312481095251932
  0.9536898055630971  0.3879155639560380  0.2287215879696531
  0.9536898055630971  0.8408060240136156  0.6120844360439700
  0.9536898055630971  0.7712784120303536  0.1591939759863696
  0.0443137061772202  0.4288048310698704  0.2056169074592605
  0.0443137061772202  0.7768130763893808  0.5711951689301348
  0.0443137061772202  0.7943830925407456  0.2231869236106073
  0.1094394641506614  0.4939689750609982  0.2644164529236414
  0.1094394641506614  0.7704474778626482  0.5060310249390091
  0.1094394641506614  0.7355835470763610  0.2295525221373424
  0.0648872139843634  0.4008278352951436  0.1232861073259348
  0.0648872139843634  0.7224582720307854  0.5991721647048618
  0.0648872139843634  0.8767138926740706  0.2775417279692037
  0.1489226027628035  0.4375779374721092  0.1002077516390832
  0.1489226027628035  0.6626298141669791  0.5624220625278968
  0.1489226027628035  0.8997922483609193  0.3373701858330126
  0.1944407908076966  0.5300699310462069  0.2411948289697022
  0.1944407908076966  0.7111248979234973  0.4699300689538006
  0.1944407908076966  0.7588051710302965  0.2888751020764974
  0.2153854483828781  0.5026269380111577  0.1586844605401345
  0.2153854483828781  0.6560575225289786  0.4973730619888507
  0.2153854483828781  0.8413155394598639  0.3439424774710151
  0.3076040590581286  0.5386608633547496  0.1331053644982143
  0.3076040590581286  0.5944445011434650  0.4613391366452569
  0.3076040590581286  0.8668946355017855  0.4055554988565289
  0.4135036789264070  0.5628212870303679  0.1752593706551377
  0.4135036789264070  0.6124380836247677  0.4371787129696377
  0.4135036789264070  0.8247406293448644  0.3875619163752247
  0.2936044481217867  0.5463551652116808  0.0637718204126470
  0.2936044481217867  0.5174176552009646  0.4536448347883257
  0.2936044481217867  0.9362281795873525  0.4825823447990302
  0.3846272596568978  0.5724660915427811  0.0346681445493954
  0.3846272596568978  0.4622020530066129  0.4275339084572239
  0.3846272596568978  0.9653318554506058  0.5377979469933809
  0.5038728572404579  0.5901965759732005  0.1467754551291221
  0.5038728572404579  0.5565788791559187  0.4098034240268044
  0.5038728572404579  0.8532245448708808  0.4434211208440737
  0.4917692939042785  0.5925543675549954  0.0747741735583405
  0.4917692939042785  0.4822198060033437  0.4074456324450107
  0.4917692939042785  0.9252258264416613  0.5177801939966485
  0.5947720113922152  0.6097663026468662  0.0378397627936281
  0.5947720113922152  0.4280734601467602  0.3902336973531397
  0.5947720113922152  0.9621602372063733  0.5719265398532324
  0.7771734270946004  0.8139979980615021  0.0151538242880699
  0.7771734270946004  0.2011548262265722  0.1860010019385079
  0.7771734270946004  0.9848461757119282  0.7988451737734223
  0.6716383278206667  0.7134022302328199  0.9254183363717964
  0.6716383278206667  0.2120171061389714  0.2865977697671788
  0.6716383278206667  0.0745816636282061  0.7879828938610274
  0.6501600152617776  0.7779329311446747  0.9144928297058902
  0.6501600152617776  0.1365598985612120  0.2220670688553244
  0.6501600152617776  0.0855071702941133  0.8634401014387852
  0.7207158900574252  0.9214833881386606  0.9859212845488298
  0.7207158900574252  0.0644368964101712  0.0785166118613410
  0.7207158900574252  0.0140787154511706  0.9355631035898273
  0.7208142854161917  0.9856861160515439  0.0657617136170953
  0.7208142854161917  0.0800765975655473  0.0143138839484558
  0.7208142854161917  0.9342382863829063  0.9199234024344510
  0.8422309934894965  0.5141090828165539  0.8731239959548439
  0.8422309934894965  0.3590159131382931  0.4858909171834533
  0.8422309934894965  0.1268760040451505  0.6409840868617053
  0.9923982290814071  0.5381256483161079  0.9516895014536138
  0.9923982290814071  0.4135638531374840  0.4618743516838696
  0.9923982290814071  0.0483104985464082  0.5864361468625163
  0.0166247813240487  0.4682662669631485  0.8805412735927883
  0.0166257813240461  0.4122750066296209  0.5317337330368248
  0.0166247813240487  0.1194587264072379  0.5877249933703798
  0.9132572896400071  0.3924103248457007  0.7476159426091399
  0.9132572896400071  0.3552056177634362  0.6075896751542971
  0.9132572896400071  0.2523840573908632  0.6447943822365630
  0.9130509579786316  0.3110490175967095  0.7271557123986910
  0.9130509579786316  0.4161066948019791  0.6889509824032906
  0.9130509579786316  0.2728442876013115  0.5838933051980181
  0.8892221364235112  0.1024187254340330  0.3232710379696807
  0.8892221364235112  0.2208523125356534  0.8975812745659567
  0.8892221364235112  0.6767289620303136  0.7791476874643631
  0.9857323185479245  0.1258234945921748  0.2861575942474089
  0.9857323185479245  0.1603340996552383  0.8741765054078106
  0.9857323185479245  0.7138424057525866  0.8396659003447799
  0.0436286231595207  0.1996784275313888  0.3322336319062237
  0.0436286231595207  0.1325552043748408  0.8003215724685933
  0.0436286231595207  0.6677663680937779  0.8674447956251762
  0.0171479261498447  0.0757508832697784  0.2046111522315694
  0.0171479261498447  0.1288602689617978  0.9242491167302103
  0.0171479261498447  0.7953888477684242  0.8711397310382205
  0.1036320009624883  0.0996745756852201  0.1699286039005390
  0.1036320009624883  0.0702540282153300  0.9003254243147667
  0.1036320009624883  0.8300713960994571  0.9297459717846874
  0.1283788801636054  0.2242998369151915  0.2972571850704245
  0.1283788801636054  0.0729573481552227  0.7757001630847882
  0.1283788801636054  0.7027428149295786  0.9270426518447946
  0.1596412329773919  0.1749722640714395  0.2153170920037269
  0.1596412329773919  0.0403448279322875  0.8250277359285432
  0.1596412329773919  0.7846829079962726  0.9596551720677299
  0.2486773559908970  0.2030537626069856  0.1792490822310107
  0.2486773559908970  0.9761953196240248  0.7969462373929985
  0.2486773559908970  0.8207509177689886  0.0238046803759908
  0.2543881563743972  0.2856528209200859  0.2023268374623474
  0.2543881563743972  0.9166740165422638  0.7143471790799008
  0.2543881563743972  0.7976731625376504  0.0833259834577518
  0.3300895654697465  0.1494267692454928  0.1226993564257748
  0.3300895654697465  0.9732735871802789  0.8505732307544940
  0.3300895654697465  0.8773006435742255  0.0267264128197337
  0.4158411596496205  0.1780530583734284  0.0918047621308131
  0.4158411596496205  0.9137517037573846  0.8219469416265610
  0.4158411596496205  0.9081952378691870  0.0862482962426256
  0.3392133659546387  0.3140371196945676  0.1709429499335536
  0.3392133659546387  0.8569058302389863  0.6859628803054229
  0.3392133659546387  0.8290570500664461  0.1430941697610239
  0.4215776885397399  0.2607100480778897  0.1159483408200817
  0.4215786885397374  0.8552382927421924  0.7392899519221020
  0.4215786885397374  0.8840516591799176  0.1447617072578163
  0.5126840235117189  0.2940753537248990  0.0847401696653380
  0.5126840235117189  0.7906658159404433  0.7059246462750959
  0.5126840235117189  0.9152598303346622  0.2093341840595616
  0.7442438129396418  0.4614808409287973  0.1506740450839611
  0.7442438129396418  0.6891932041551677  0.5385191590712013
  0.7442438129396418  0.8493259549160428  0.3108067958448301
  0.8341143396972526  0.4529640376146631  0.0454896758280522
  0.8341143396972526  0.5925256382133851  0.5470359623853347
  0.8341143396972526  0.9545103241719520  0.4074743617866128
  0.8592623811020778  0.5281117363469409  0.1094834584557657
  0.8592623811020778  0.5813717221088162  0.4718882636530591
  0.8592623811020778  0.8905165415442360  0.4186282778911825
  0.8023526855700934  0.6003204712049536  0.2556615331666314
  0.8023526855700934  0.6553410619616682  0.3996795287950445
  0.8023526855700934  0.7443384668333705  0.3446589380383314
  0.8023152612656960  0.5876702729111434  0.3217922935354649
  0.8023152612656960  0.7341220206243210  0.4123297270888543
  0.8023152612656960  0.6782077064645355  0.2658779793756803
  0.5126245900744368  0.3807201630649312  0.9456470110620172
  0.5126245900744368  0.5649268479970794  0.6192798369350655
  0.5126245900744368  0.0543529889379900  0.4350731520029181
  0.4860715849561885  0.3944747025779912  0.8834807457355578
  0.4860715849561885  0.4890050431575612  0.6055252974220039
  0.4860715849561885  0.1165192542644499  0.5109949568424362
  0.6275510596696929  0.3027275641211657  0.8448357596392031
  0.6275510596696929  0.5421081955180379  0.6972724358788350
  0.6275510596696929  0.1551642403607966  0.4578918044819618
  0.5616240889965139  0.3384978965968889  0.7421487164240410
  0.5616240889965139  0.4036508198271572  0.6615021034031106
  0.5616240889965139  0.2578512835759609  0.5963491801728414
  0.5616509980940272  0.2621814281402108  0.6719291803898786
  0.5616509980940272  0.4097477522496601  0.7378185718597907
  0.5616509980940272  0.3280708196101221  0.5902522477503374
  0.7512520559468767  0.7366429182132440  0.9878749513511561
  0.7512520559468767  0.2512320331379125  0.2633570817867607
  0.7512520559468767  0.0121250486488437  0.7487679668620828
  0.7173771801240116  0.8411500407477249  0.9719062801443520
  0.7173771801240116  0.1307562393966263  0.1588499592522794
  0.7173771801240116  0.0280937198556484  0.8692437606033688
  0.8835901644328710  0.5653510195215216  0.9461609729761992
  0.8835901644328710  0.3808099534546761  0.4346489804784764
  0.8835901644328710  0.0538390270238024  0.6191900465453236
  0.9206508107867097  0.4539421937147423  0.8309419039781636
  0.9206508107867097  0.3769997102634196  0.5460578062852507
  0.9206508107867097  0.1690580960218451  0.6230002897365787
  0.7621756310248518  0.4127354642768165  0.0720709141359504
  0.7621756310248518  0.6593344498591327  0.5872645357231830
  0.7621756310248518  0.9279290858640534  0.3406655501408642
  0.8024585241077778  0.5325797091310859  0.1759532679207742
  0.8024585241077778  0.6433745587896849  0.4674202908689142
  0.8024585241077778  0.8240467320792270  0.3566254412103142
  0.6012683049276049  0.3240781030109792  0.9207522218810248
  0.6012683049276049  0.5966741188700424  0.6759218969890191
  0.6012683049276049  0.0792477781189778  0.4033258811299563
  0.5586785250894459  0.3442091373847925  0.8193663350639279
  0.5586775250894485  0.4751581976791372  0.6557918626152109
  0.5586775250894485  0.1806336649360752  0.5248418023208615
  0.6769555516081821  0.6512163811147963  0.0884113480948354
  0.6769555516081821  0.4371939669800437  0.3487836188852100
  0.6769555516081821  0.9115886519051625  0.5628060330199525
  0.5986481705365796  0.5821582687650451  0.9625105843249910
  0.5986481705365796  0.3803523155599322  0.4178417312349598
  0.5986481705365796  0.0374894156750154  0.6196476844400560
  0.9400855320278307  0.4166048126783105  0.3066187003115685
  0.9400855320278307  0.8900138876332525  0.5833961873216996
  0.9400855320278307  0.6933812996884294  0.1099861123667364
  0.8951125822729779  0.3308807724419985  0.1757132489361508
  0.8951125822729779  0.8448324764941316  0.6691192275580028
  0.8951125822729779  0.8242867510638697  0.1551675235058469
  0.5116137441013107  0.3673688200994223  0.1041298595622845
  0.5116137441013107  0.7367600394628581  0.6326311799005762
  0.5116137441013107  0.8958701404377148  0.2632399605371437
  0.5914910822619767  0.2431194632764203  0.0368379937855218
  0.5914910822619767  0.7937185305091025  0.7568805367235756
  0.5914910822619767  0.9631620062144776  0.2062814694909028
  0.8264232736088812  0.0425673746301090  0.2715985036693255
  0.8264232736088812  0.2290311290392303  0.9574326253698892
  0.8264232736088812  0.7284014963306611  0.7709688709607853
  0.8733074082764934  0.1408612144452167  0.3989496642452831
  0.8733074082764934  0.2580884498000602  0.8591387855547691
  0.8733074082764934  0.6010503357547162  0.7419115501999552

  0.00000000E+00  0.00000000E+00  0.00000000E+00
  0.00000000E+00  0.00000000E+00  0.00000000E+00
  0.00000000E+00  0.00000000E+00  0.00000000E+00
  0.00000000E+00  0.00000000E+00  0.00000000E+00
  0.00000000E+00  0.00000000E+00  0.00000000E+00
  0.00000000E+00  0.00000000E+00  0.00000000E+00
  0.00000000E+00  0.00000000E+00  0.00000000E+00
  0.00000000E+00  0.00000000E+00  0.00000000E+00
  0.00000000E+00  0.00000000E+00  0.00000000E+00
  0.00000000E+00  0.00000000E+00  0.00000000E+00
  0.00000000E+00  0.00000000E+00  0.00000000E+00
  0.00000000E+00  0.00000000E+00  0.00000000E+00
  0.00000000E+00  0.00000000E+00  0.00000000E+00
  0.00000000E+00  0.00000000E+00  0.00000000E+00
  0.00000000E+00  0.00000000E+00  0.00000000E+00
  0.00000000E+00  0.00000000E+00  0.00000000E+00
  0.00000000E+00  0.00000000E+00  0.00000000E+00
  0.00000000E+00  0.00000000E+00  0.00000000E+00
  0.00000000E+00  0.00000000E+00  0.00000000E+00
  0.00000000E+00  0.00000000E+00  0.00000000E+00
  0.00000000E+00  0.00000000E+00  0.00000000E+00
  0.00000000E+00  0.00000000E+00  0.00000000E+00
  0.00000000E+00  0.00000000E+00  0.00000000E+00
  0.00000000E+00  0.00000000E+00  0.00000000E+00
  0.00000000E+00  0.00000000E+00  0.00000000E+00
  0.00000000E+00  0.00000000E+00  0.00000000E+00
  0.00000000E+00  0.00000000E+00  0.00000000E+00
  0.00000000E+00  0.00000000E+00  0.00000000E+00
  0.00000000E+00  0.00000000E+00  0.00000000E+00
  0.00000000E+00  0.00000000E+00  0.00000000E+00
  0.00000000E+00  0.00000000E+00  0.00000000E+00
  0.00000000E+00  0.00000000E+00  0.00000000E+00
  0.00000000E+00  0.00000000E+00  0.00000000E+00
  0.00000000E+00  0.00000000E+00  0.00000000E+00
  0.00000000E+00  0.00000000E+00  0.00000000E+00
  0.00000000E+00  0.00000000E+00  0.00000000E+00
  0.00000000E+00  0.00000000E+00  0.00000000E+00
  0.00000000E+00  0.00000000E+00  0.00000000E+00
  0.00000000E+00  0.00000000E+00  0.00000000E+00
  0.00000000E+00  0.00000000E+00  0.00000000E+00
  0.00000000E+00  0.00000000E+00  0.00000000E+00
  0.00000000E+00  0.00000000E+00  0.00000000E+00
  0.00000000E+00  0.00000000E+00  0.00000000E+00
  0.00000000E+00  0.00000000E+00  0.00000000E+00
  0.00000000E+00  0.00000000E+00  0.00000000E+00
  0.00000000E+00  0.00000000E+00  0.00000000E+00
  0.00000000E+00  0.00000000E+00  0.00000000E+00
  0.00000000E+00  0.00000000E+00  0.00000000E+00
  0.00000000E+00  0.00000000E+00  0.00000000E+00
  0.00000000E+00  0.00000000E+00  0.00000000E+00
  0.00000000E+00  0.00000000E+00  0.00000000E+00
  0.00000000E+00  0.00000000E+00  0.00000000E+00
  0.00000000E+00  0.00000000E+00  0.00000000E+00
  0.00000000E+00  0.00000000E+00  0.00000000E+00
  0.00000000E+00  0.00000000E+00  0.00000000E+00
  0.00000000E+00  0.00000000E+00  0.00000000E+00
  0.00000000E+00  0.00000000E+00  0.00000000E+00
  0.00000000E+00  0.00000000E+00  0.00000000E+00
  0.00000000E+00  0.00000000E+00  0.00000000E+00
  0.00000000E+00  0.00000000E+00  0.00000000E+00
  0.00000000E+00  0.00000000E+00  0.00000000E+00
  0.00000000E+00  0.00000000E+00  0.00000000E+00
  0.00000000E+00  0.00000000E+00  0.00000000E+00
  0.00000000E+00  0.00000000E+00  0.00000000E+00
  0.00000000E+00  0.00000000E+00  0.00000000E+00
  0.00000000E+00  0.00000000E+00  0.00000000E+00
  0.00000000E+00  0.00000000E+00  0.00000000E+00
  0.00000000E+00  0.00000000E+00  0.00000000E+00
  0.00000000E+00  0.00000000E+00  0.00000000E+00
  0.00000000E+00  0.00000000E+00  0.00000000E+00
  0.00000000E+00  0.00000000E+00  0.00000000E+00
  0.00000000E+00  0.00000000E+00  0.00000000E+00
  0.00000000E+00  0.00000000E+00  0.00000000E+00
  0.00000000E+00  0.00000000E+00  0.00000000E+00
  0.00000000E+00  0.00000000E+00  0.00000000E+00
  0.00000000E+00  0.00000000E+00  0.00000000E+00
  0.00000000E+00  0.00000000E+00  0.00000000E+00
  0.00000000E+00  0.00000000E+00  0.00000000E+00
  0.00000000E+00  0.00000000E+00  0.00000000E+00
  0.00000000E+00  0.00000000E+00  0.00000000E+00
  0.00000000E+00  0.00000000E+00  0.00000000E+00
  0.00000000E+00  0.00000000E+00  0.00000000E+00
  0.00000000E+00  0.00000000E+00  0.00000000E+00
  0.00000000E+00  0.00000000E+00  0.00000000E+00
  0.00000000E+00  0.00000000E+00  0.00000000E+00
  0.00000000E+00  0.00000000E+00  0.00000000E+00
  0.00000000E+00  0.00000000E+00  0.00000000E+00
  0.00000000E+00  0.00000000E+00  0.00000000E+00
  0.00000000E+00  0.00000000E+00  0.00000000E+00
  0.00000000E+00  0.00000000E+00  0.00000000E+00
  0.00000000E+00  0.00000000E+00  0.00000000E+00
  0.00000000E+00  0.00000000E+00  0.00000000E+00
  0.00000000E+00  0.00000000E+00  0.00000000E+00
  0.00000000E+00  0.00000000E+00  0.00000000E+00
  0.00000000E+00  0.00000000E+00  0.00000000E+00
  0.00000000E+00  0.00000000E+00  0.00000000E+00
  0.00000000E+00  0.00000000E+00  0.00000000E+00
  0.00000000E+00  0.00000000E+00  0.00000000E+00
  0.00000000E+00  0.00000000E+00  0.00000000E+00
  0.00000000E+00  0.00000000E+00  0.00000000E+00
  0.00000000E+00  0.00000000E+00  0.00000000E+00
  0.00000000E+00  0.00000000E+00  0.00000000E+00
  0.00000000E+00  0.00000000E+00  0.00000000E+00
  0.00000000E+00  0.00000000E+00  0.00000000E+00
  0.00000000E+00  0.00000000E+00  0.00000000E+00
  0.00000000E+00  0.00000000E+00  0.00000000E+00
  0.00000000E+00  0.00000000E+00  0.00000000E+00
  0.00000000E+00  0.00000000E+00  0.00000000E+00
  0.00000000E+00  0.00000000E+00  0.00000000E+00
  0.00000000E+00  0.00000000E+00  0.00000000E+00
  0.00000000E+00  0.00000000E+00  0.00000000E+00
  0.00000000E+00  0.00000000E+00  0.00000000E+00
  0.00000000E+00  0.00000000E+00  0.00000000E+00
  0.00000000E+00  0.00000000E+00  0.00000000E+00
  0.00000000E+00  0.00000000E+00  0.00000000E+00
  0.00000000E+00  0.00000000E+00  0.00000000E+00
  0.00000000E+00  0.00000000E+00  0.00000000E+00
  0.00000000E+00  0.00000000E+00  0.00000000E+00
  0.00000000E+00  0.00000000E+00  0.00000000E+00
  0.00000000E+00  0.00000000E+00  0.00000000E+00
  0.00000000E+00  0.00000000E+00  0.00000000E+00
  0.00000000E+00  0.00000000E+00  0.00000000E+00
  0.00000000E+00  0.00000000E+00  0.00000000E+00
  0.00000000E+00  0.00000000E+00  0.00000000E+00
  0.00000000E+00  0.00000000E+00  0.00000000E+00
  0.00000000E+00  0.00000000E+00  0.00000000E+00
  0.00000000E+00  0.00000000E+00  0.00000000E+00
  0.00000000E+00  0.00000000E+00  0.00000000E+00
  0.00000000E+00  0.00000000E+00  0.00000000E+00
  0.00000000E+00  0.00000000E+00  0.00000000E+00
  0.00000000E+00  0.00000000E+00  0.00000000E+00
  0.00000000E+00  0.00000000E+00  0.00000000E+00
  0.00000000E+00  0.00000000E+00  0.00000000E+00
  0.00000000E+00  0.00000000E+00  0.00000000E+00
  0.00000000E+00  0.00000000E+00  0.00000000E+00
  0.00000000E+00  0.00000000E+00  0.00000000E+00
  0.00000000E+00  0.00000000E+00  0.00000000E+00
  0.00000000E+00  0.00000000E+00  0.00000000E+00
  0.00000000E+00  0.00000000E+00  0.00000000E+00
  0.00000000E+00  0.00000000E+00  0.00000000E+00
  0.00000000E+00  0.00000000E+00  0.00000000E+00
  0.00000000E+00  0.00000000E+00  0.00000000E+00
  0.00000000E+00  0.00000000E+00  0.00000000E+00
  0.00000000E+00  0.00000000E+00  0.00000000E+00
  0.00000000E+00  0.00000000E+00  0.00000000E+00
  0.00000000E+00  0.00000000E+00  0.00000000E+00
  0.00000000E+00  0.00000000E+00  0.00000000E+00
  0.00000000E+00  0.00000000E+00  0.00000000E+00
  0.00000000E+00  0.00000000E+00  0.00000000E+00
  0.00000000E+00  0.00000000E+00  0.00000000E+00
  0.00000000E+00  0.00000000E+00  0.00000000E+00
  0.00000000E+00  0.00000000E+00  0.00000000E+00
  0.00000000E+00  0.00000000E+00  0.00000000E+00
  0.00000000E+00  0.00000000E+00  0.00000000E+00
  0.00000000E+00  0.00000000E+00  0.00000000E+00
  0.00000000E+00  0.00000000E+00  0.00000000E+00
  0.00000000E+00  0.00000000E+00  0.00000000E+00
  0.00000000E+00  0.00000000E+00  0.00000000E+00
  0.00000000E+00  0.00000000E+00  0.00000000E+00
  0.00000000E+00  0.00000000E+00  0.00000000E+00
  0.00000000E+00  0.00000000E+00  0.00000000E+00
  0.00000000E+00  0.00000000E+00  0.00000000E+00
  0.00000000E+00  0.00000000E+00  0.00000000E+00
  0.00000000E+00  0.00000000E+00  0.00000000E+00
  0.00000000E+00  0.00000000E+00  0.00000000E+00
  0.00000000E+00  0.00000000E+00  0.00000000E+00
  0.00000000E+00  0.00000000E+00  0.00000000E+00
  0.00000000E+00  0.00000000E+00  0.00000000E+00
  0.00000000E+00  0.00000000E+00  0.00000000E+00
  0.00000000E+00  0.00000000E+00  0.00000000E+00
  0.00000000E+00  0.00000000E+00  0.00000000E+00
  0.00000000E+00  0.00000000E+00  0.00000000E+00
  0.00000000E+00  0.00000000E+00  0.00000000E+00
  0.00000000E+00  0.00000000E+00  0.00000000E+00
  0.00000000E+00  0.00000000E+00  0.00000000E+00
  0.00000000E+00  0.00000000E+00  0.00000000E+00
  0.00000000E+00  0.00000000E+00  0.00000000E+00
  0.00000000E+00  0.00000000E+00  0.00000000E+00
  0.00000000E+00  0.00000000E+00  0.00000000E+00
  0.00000000E+00  0.00000000E+00  0.00000000E+00
  0.00000000E+00  0.00000000E+00  0.00000000E+00
  0.00000000E+00  0.00000000E+00  0.00000000E+00
  0.00000000E+00  0.00000000E+00  0.00000000E+00
  0.00000000E+00  0.00000000E+00  0.00000000E+00
  0.00000000E+00  0.00000000E+00  0.00000000E+00
  0.00000000E+00  0.00000000E+00  0.00000000E+00
  0.00000000E+00  0.00000000E+00  0.00000000E+00
  0.00000000E+00  0.00000000E+00  0.00000000E+00
  0.00000000E+00  0.00000000E+00  0.00000000E+00
  0.00000000E+00  0.00000000E+00  0.00000000E+00
  0.00000000E+00  0.00000000E+00  0.00000000E+00
  0.00000000E+00  0.00000000E+00  0.00000000E+00
  0.00000000E+00  0.00000000E+00  0.00000000E+00
  0.00000000E+00  0.00000000E+00  0.00000000E+00
  0.00000000E+00  0.00000000E+00  0.00000000E+00
  0.00000000E+00  0.00000000E+00  0.00000000E+00
  0.00000000E+00  0.00000000E+00  0.00000000E+00
  0.00000000E+00  0.00000000E+00  0.00000000E+00
  0.00000000E+00  0.00000000E+00  0.00000000E+00
  0.00000000E+00  0.00000000E+00  0.00000000E+00
  0.00000000E+00  0.00000000E+00  0.00000000E+00
  0.00000000E+00  0.00000000E+00  0.00000000E+00
  0.00000000E+00  0.00000000E+00  0.00000000E+00
  0.00000000E+00  0.00000000E+00  0.00000000E+00
  0.00000000E+00  0.00000000E+00  0.00000000E+00
  0.00000000E+00  0.00000000E+00  0.00000000E+00
  0.00000000E+00  0.00000000E+00  0.00000000E+00
  0.00000000E+00  0.00000000E+00  0.00000000E+00
  0.00000000E+00  0.00000000E+00  0.00000000E+00
  0.00000000E+00  0.00000000E+00  0.00000000E+00
  0.00000000E+00  0.00000000E+00  0.00000000E+00
  0.00000000E+00  0.00000000E+00  0.00000000E+00
  0.00000000E+00  0.00000000E+00  0.00000000E+00
  0.00000000E+00  0.00000000E+00  0.00000000E+00
  0.00000000E+00  0.00000000E+00  0.00000000E+00
  0.00000000E+00  0.00000000E+00  0.00000000E+00
  0.00000000E+00  0.00000000E+00  0.00000000E+00
  0.00000000E+00  0.00000000E+00  0.00000000E+00
  0.00000000E+00  0.00000000E+00  0.00000000E+00
  0.00000000E+00  0.00000000E+00  0.00000000E+00
  0.00000000E+00  0.00000000E+00  0.00000000E+00
  0.00000000E+00  0.00000000E+00  0.00000000E+00
  0.00000000E+00  0.00000000E+00  0.00000000E+00
  0.00000000E+00  0.00000000E+00  0.00000000E+00
  0.00000000E+00  0.00000000E+00  0.00000000E+00
  0.00000000E+00  0.00000000E+00  0.00000000E+00
  0.00000000E+00  0.00000000E+00  0.00000000E+00
  0.00000000E+00  0.00000000E+00  0.00000000E+00
  0.00000000E+00  0.00000000E+00  0.00000000E+00
  0.00000000E+00  0.00000000E+00  0.00000000E+00
  0.00000000E+00  0.00000000E+00  0.00000000E+00
  0.00000000E+00  0.00000000E+00  0.00000000E+00
  0.00000000E+00  0.00000000E+00  0.00000000E+00
  0.00000000E+00  0.00000000E+00  0.00000000E+00
  0.00000000E+00  0.00000000E+00  0.00000000E+00
  0.00000000E+00  0.00000000E+00  0.00000000E+00
  0.00000000E+00  0.00000000E+00  0.00000000E+00
  0.00000000E+00  0.00000000E+00  0.00000000E+00
  0.00000000E+00  0.00000000E+00  0.00000000E+00
  0.00000000E+00  0.00000000E+00  0.00000000E+00
  0.00000000E+00  0.00000000E+00  0.00000000E+00
  0.00000000E+00  0.00000000E+00  0.00000000E+00
  0.00000000E+00  0.00000000E+00  0.00000000E+00
  0.00000000E+00  0.00000000E+00  0.00000000E+00
  0.00000000E+00  0.00000000E+00  0.00000000E+00
  0.00000000E+00  0.00000000E+00  0.00000000E+00
  0.00000000E+00  0.00000000E+00  0.00000000E+00
  0.00000000E+00  0.00000000E+00  0.00000000E+00
  0.00000000E+00  0.00000000E+00  0.00000000E+00
  0.00000000E+00  0.00000000E+00  0.00000000E+00
  0.00000000E+00  0.00000000E+00  0.00000000E+00
  0.00000000E+00  0.00000000E+00  0.00000000E+00
  0.00000000E+00  0.00000000E+00  0.00000000E+00
  0.00000000E+00  0.00000000E+00  0.00000000E+00
  0.00000000E+00  0.00000000E+00  0.00000000E+00
  0.00000000E+00  0.00000000E+00  0.00000000E+00
  0.00000000E+00  0.00000000E+00  0.00000000E+00
  0.00000000E+00  0.00000000E+00  0.00000000E+00
  0.00000000E+00  0.00000000E+00  0.00000000E+00
  0.00000000E+00  0.00000000E+00  0.00000000E+00
  0.00000000E+00  0.00000000E+00  0.00000000E+00
  0.00000000E+00  0.00000000E+00  0.00000000E+00
  0.00000000E+00  0.00000000E+00  0.00000000E+00
  0.00000000E+00  0.00000000E+00  0.00000000E+00
  0.00000000E+00  0.00000000E+00  0.00000000E+00
  0.00000000E+00  0.00000000E+00  0.00000000E+00
  0.00000000E+00  0.00000000E+00  0.00000000E+00
  0.00000000E+00  0.00000000E+00  0.00000000E+00
  0.00000000E+00  0.00000000E+00  0.00000000E+00
  0.00000000E+00  0.00000000E+00  0.00000000E+00
  0.00000000E+00  0.00000000E+00  0.00000000E+00
  0.00000000E+00  0.00000000E+00  0.00000000E+00
  0.00000000E+00  0.00000000E+00  0.00000000E+00
  0.00000000E+00  0.00000000E+00  0.00000000E+00
  0.00000000E+00  0.00000000E+00  0.00000000E+00
  0.00000000E+00  0.00000000E+00  0.00000000E+00
  0.00000000E+00  0.00000000E+00  0.00000000E+00
  0.00000000E+00  0.00000000E+00  0.00000000E+00
  0.00000000E+00  0.00000000E+00  0.00000000E+00
  0.00000000E+00  0.00000000E+00  0.00000000E+00
  0.00000000E+00  0.00000000E+00  0.00000000E+00
  0.00000000E+00  0.00000000E+00  0.00000000E+00
  0.00000000E+00  0.00000000E+00  0.00000000E+00
  0.00000000E+00  0.00000000E+00  0.00000000E+00
  0.00000000E+00  0.00000000E+00  0.00000000E+00
  0.00000000E+00  0.00000000E+00  0.00000000E+00
  0.00000000E+00  0.00000000E+00  0.00000000E+00
  0.00000000E+00  0.00000000E+00  0.00000000E+00
  0.00000000E+00  0.00000000E+00  0.00000000E+00
  0.00000000E+00  0.00000000E+00  0.00000000E+00
  0.00000000E+00  0.00000000E+00  0.00000000E+00
  0.00000000E+00  0.00000000E+00  0.00000000E+00
  0.00000000E+00  0.00000000E+00  0.00000000E+00
  0.00000000E+00  0.00000000E+00  0.00000000E+00
