       N       E                     dE             d eps       ncg     rms          ort
DAV:   1     0.694700408460E+04    0.69470E+04   -0.50202E+05  1304   0.144E+03
DAV:   2    -0.114905455283E+04   -0.80961E+04   -0.77238E+04  1304   0.330E+02
DAV:   3    -0.215449557347E+04   -0.10054E+04   -0.99286E+03  1304   0.129E+02
DAV:   4    -0.219392402794E+04   -0.39428E+02   -0.39157E+02  1304   0.302E+01
DAV:   5    -0.219551394633E+04   -0.15899E+01   -0.15876E+01  1304   0.561E+00
SDA:   6    -0.187516922974E+04    0.32034E+03   -0.15876E+01  1304   0.748E+03 0.000E+00
CGA:   7    -0.200563507758E+04   -0.13047E+03   -0.12991E+03  1304   0.568E+02-0.629E+01
CGA:   8    -0.201933118989E+04   -0.13696E+02   -0.13694E+02  1304   0.169E+02 0.474E-02
CGA:   9    -0.202419772723E+04   -0.48665E+01   -0.48667E+01  1304   0.585E+01-0.239E-01
CGA:  10    -0.202590979268E+04   -0.17121E+01   -0.17207E+01  1304   0.233E+01-0.823E-01
CGA:  11    -0.202658424976E+04   -0.67446E+00   -0.67579E+00  1304   0.706E+00-0.126E-01
CGA:  12    -0.202679838173E+04   -0.21413E+00   -0.21448E+00  1304   0.214E+00-0.318E-02
CGA:  13    -0.202685618390E+04   -0.57802E-01   -0.57830E-01  1304   0.630E-01-0.411E-03
CGA:  14    -0.202687338764E+04   -0.17204E-01   -0.17190E-01  1304   0.167E-01 0.285E-03
CGA:  15    -0.202687832234E+04   -0.49347E-02   -0.49287E-02  1304   0.450E-02 0.850E-04
CGA:  16    -0.202687969948E+04   -0.13771E-02   -0.13707E-02  1304   0.150E-02 0.847E-04
CGA:  17    -0.202688016625E+04   -0.46676E-03   -0.46622E-03  1304   0.529E-03 0.757E-05
CGA:  18    -0.202688032766E+04   -0.16141E-03   -0.15969E-03  1304   0.183E-03 0.263E-04
CGA:  19    -0.202688039186E+04   -0.64197E-04   -0.64306E-04  1304   0.614E-04-0.108E-05
CGA:  20    -0.202688041273E+04   -0.20874E-04   -0.20805E-04  1304   0.232E-04 0.710E-06
CGA:  21    -0.202688042055E+04   -0.78152E-05   -0.81647E-05  1304   0.123E-04-0.348E-05
CGA:  22    -0.202688042315E+04   -0.26086E-05   -0.26122E-05  1304   0.348E-05 0.100E-05
CGA:  23    -0.202688042449E+04   -0.13362E-05   -0.13078E-05  1304   0.157E-05 0.301E-06
CGA:  24    -0.202688042501E+04   -0.52352E-06   -0.61640E-06  1304   0.218E-05-0.889E-06
CGA:  25    -0.202688042520E+04   -0.18755E-06   -0.25644E-06  1304   0.273E-06 0.477E-06
CGA:  26    -0.202688042527E+04   -0.64043E-07   -0.68560E-07  1304   0.182E-06 0.917E-07
CGA:  27    -0.202688042539E+04   -0.12747E-06    0.81355E-06  1304   0.812E-07 0.111E-07
CGA:  28    -0.202688042546E+04   -0.64923E-07    0.22226E-07  1304   0.532E-07 0.281E-07
   1 F= -.20483394E+04 E0= -.20483394E+04  d E =-.204834E+04
       N       E                     dE             d eps       ncg     rms          ort
SDA:   1    -0.202685580577E+04    0.24620E-01    0.00000E+00  1304   0.615E-01 0.000E+00
CGA:   2    -0.202687597581E+04   -0.20170E-01   -0.20172E-01  1304   0.191E-01-0.296E-04
CGA:   3    -0.202688110642E+04   -0.51306E-02   -0.51304E-02  1304   0.349E-02 0.240E-04
CGA:   4    -0.202688188813E+04   -0.78172E-03   -0.78109E-03  1304   0.802E-03-0.176E-04
CGA:   5    -0.202688207277E+04   -0.18463E-03   -0.18495E-03  1304   0.205E-03 0.123E-04
CGA:   6    -0.202688213135E+04   -0.58585E-04   -0.58726E-04  1304   0.777E-04-0.554E-05
CGA:   7    -0.202688215385E+04   -0.22502E-04   -0.22422E-04  1304   0.272E-04 0.205E-05
CGA:   8    -0.202688216354E+04   -0.96891E-05   -0.98773E-05  1304   0.111E-04-0.199E-05
CGA:   9    -0.202688216587E+04   -0.23275E-05   -0.23636E-05  1304   0.310E-05 0.107E-05
CGA:  10    -0.202688216694E+04   -0.10728E-05   -0.11302E-05  1304   0.143E-05-0.826E-06
CGA:  11    -0.202688216716E+04   -0.21354E-06   -0.22370E-06  1304   0.442E-06 0.190E-06
CGA:  12    -0.202688216727E+04   -0.11249E-06   -0.11432E-06  1304   0.138E-06 0.561E-07
CGA:  13    -0.202688216720E+04    0.67885E-07   -0.13276E-06  1304   0.113E-05-0.342E-06
CGA:  14    -0.202688216729E+04   -0.92354E-07   -0.13997E-06  1304   0.161E-06 0.284E-06
   2 F= -.20483399E+04 E0= -.20483399E+04  d E =-.556093E-03
       N       E                     dE             d eps       ncg     rms          ort
SDA:   1    -0.202687935552E+04    0.28117E-02    0.00000E+00  1304   0.603E-02 0.000E+00
CGA:   2    -0.202688133333E+04   -0.19778E-02   -0.19773E-02  1304   0.186E-02 0.980E-05
CGA:   3    -0.202688183844E+04   -0.50511E-03   -0.50505E-03  1304   0.341E-03-0.661E-05
CGA:   4    -0.202688191299E+04   -0.74548E-04   -0.74843E-04  1304   0.745E-04 0.497E-05
CGA:   5    -0.202688193215E+04   -0.19160E-04   -0.19073E-04  1304   0.227E-04-0.361E-05
CGA:   6    -0.202688193718E+04   -0.50300E-05   -0.50972E-05  1304   0.656E-05 0.172E-05
CGA:   7    -0.202688193959E+04   -0.24178E-05   -0.24421E-05  1304   0.290E-05-0.335E-06
CGA:   8    -0.202688194044E+04   -0.84234E-06   -0.83392E-06  1304   0.724E-06 0.319E-06
CGA:   9    -0.202688194073E+04   -0.29826E-06   -0.31130E-06  1304   0.303E-06-0.120E-06
CGA:  10    -0.202688194076E+04   -0.22977E-07   -0.37904E-07  1304   0.114E-06 0.112E-06
   3 F= -.20483401E+04 E0= -.20483401E+04  d E =-.701993E-03
       N       E                     dE             d eps       ncg     rms          ort
SDA:   1    -0.202687657365E+04    0.53671E-02    0.00000E+00  1304   0.162E-01 0.000E+00
CGA:   2    -0.202688187991E+04   -0.53063E-02   -0.53072E-02  1304   0.486E-02-0.171E-04
CGA:   3    -0.202688314912E+04   -0.12692E-02   -0.12693E-02  1304   0.846E-03 0.112E-04
CGA:   4    -0.202688334957E+04   -0.20045E-03   -0.20014E-03  1304   0.185E-03-0.824E-05
CGA:   5    -0.202688339430E+04   -0.44729E-04   -0.44849E-04  1304   0.481E-04 0.461E-05
CGA:   6    -0.202688340843E+04   -0.14132E-04   -0.14184E-04  1304   0.225E-04-0.284E-05
CGA:   7    -0.202688341382E+04   -0.53961E-05   -0.54152E-05  1304   0.684E-05 0.132E-05
CGA:   8    -0.202688341647E+04   -0.26461E-05   -0.27028E-05  1304   0.243E-05-0.546E-06
CGA:   9    -0.202688341717E+04   -0.70496E-06   -0.70230E-06  1304   0.542E-06 0.641E-07
CGA:  10    -0.202688341737E+04   -0.19932E-06   -0.22464E-06  1304   0.364E-06-0.198E-06
CGA:  11    -0.202688341740E+04   -0.26586E-07   -0.34844E-07  1304   0.150E-06 0.633E-07
   4 F= -.20483407E+04 E0= -.20483407E+04  d E =-.592494E-03
       N       E                     dE             d eps       ncg     rms          ort
SDA:   1    -0.202688106489E+04    0.23525E-02    0.00000E+00  1304   0.726E-02 0.000E+00
CGA:   2    -0.202688344944E+04   -0.23846E-02   -0.23852E-02  1304   0.218E-02-0.117E-04
CGA:   3    -0.202688401826E+04   -0.56881E-03   -0.56890E-03  1304   0.380E-03 0.751E-05
CGA:   4    -0.202688410883E+04   -0.90571E-04   -0.90378E-04  1304   0.839E-04-0.557E-05
CGA:   5    -0.202688412854E+04   -0.19711E-04   -0.19805E-04  1304   0.211E-04 0.306E-05
CGA:   6    -0.202688413501E+04   -0.64732E-05   -0.65287E-05  1304   0.106E-04-0.188E-05
CGA:   7    -0.202688413736E+04   -0.23451E-05   -0.23670E-05  1304   0.309E-05 0.846E-06
CGA:   8    -0.202688413856E+04   -0.11960E-05   -0.12176E-05  1304   0.116E-05-0.226E-06
CGA:   9    -0.202688413894E+04   -0.38411E-06   -0.40724E-06  1304   0.455E-06-0.220E-06
CGA:  10    -0.202688413898E+04   -0.44143E-07   -0.57727E-07  1304   0.142E-06 0.112E-06
   5 F= -.20483408E+04 E0= -.20483408E+04  d E =-.721322E-03
       N       E                     dE             d eps       ncg     rms          ort
SDA:   1    -0.202687708505E+04    0.70539E-02    0.00000E+00  1304   0.199E-01 0.000E+00
CGA:   2    -0.202688331704E+04   -0.62320E-02   -0.62321E-02  1304   0.578E-02-0.268E-05
CGA:   3    -0.202688487257E+04   -0.15555E-02   -0.15555E-02  1304   0.966E-03 0.274E-05
CGA:   4    -0.202688510856E+04   -0.23599E-03   -0.23599E-03  1304   0.199E-03 0.123E-06
CGA:   5    -0.202688516374E+04   -0.55176E-04   -0.55169E-04  1304   0.447E-04 0.107E-05
CGA:   6    -0.202688517970E+04   -0.15961E-04   -0.16069E-04  1304   0.177E-04-0.124E-05
CGA:   7    -0.202688518483E+04   -0.51280E-05   -0.51041E-05  1304   0.709E-05 0.108E-05
CGA:   8    -0.202688518709E+04   -0.22674E-05   -0.22845E-05  1304   0.307E-05-0.620E-06
CGA:   9    -0.202688518772E+04   -0.62530E-06   -0.64026E-06  1304   0.661E-06 0.309E-06
CGA:  10    -0.202688518797E+04   -0.25303E-06   -0.26936E-06  1304   0.281E-06-0.168E-06
CGA:  11    -0.202688518804E+04   -0.68336E-07   -0.68993E-07  1304   0.100E-06-0.154E-07
   6 F= -.20483414E+04 E0= -.20483414E+04  d E =-.607264E-03
       N       E                     dE             d eps       ncg     rms          ort
SDA:   1    -0.202686804862E+04    0.17139E-01    0.00000E+00  1304   0.445E-01 0.000E+00
CGA:   2    -0.202688197171E+04   -0.13923E-01   -0.13923E-01  1304   0.129E-01-0.368E-05
CGA:   3    -0.202688544498E+04   -0.34733E-02   -0.34733E-02  1304   0.216E-02 0.385E-05
CGA:   4    -0.202688597309E+04   -0.52811E-03   -0.52812E-03  1304   0.446E-03 0.439E-06
CGA:   5    -0.202688609695E+04   -0.12386E-03   -0.12386E-03  1304   0.100E-03 0.139E-05
CGA:   6    -0.202688613237E+04   -0.35414E-04   -0.35538E-04  1304   0.384E-04-0.160E-05
CGA:   7    -0.202688614414E+04   -0.11773E-04   -0.11730E-04  1304   0.162E-04 0.144E-05
CGA:   8    -0.202688614898E+04   -0.48424E-05   -0.48471E-05  1304   0.641E-05-0.814E-06
CGA:   9    -0.202688615045E+04   -0.14743E-05   -0.14897E-05  1304   0.141E-05 0.406E-06
CGA:  10    -0.202688615099E+04   -0.53206E-06   -0.56287E-06  1304   0.597E-06-0.328E-06
CGA:  11    -0.202688615108E+04   -0.96887E-07   -0.10317E-06  1304   0.182E-06 0.106E-06
   7 F= -.20483417E+04 E0= -.20483417E+04  d E =-.909399E-03
       N       E                     dE             d eps       ncg     rms          ort
SDA:   1    -0.202688434569E+04    0.18053E-02    0.00000E+00  1304   0.581E-02 0.000E+00
CGA:   2    -0.202688612871E+04   -0.17830E-02   -0.17830E-02  1304   0.168E-02 0.405E-06
CGA:   3    -0.202688658477E+04   -0.45605E-03   -0.45605E-03  1304   0.275E-03-0.228E-06
CGA:   4    -0.202688665096E+04   -0.66193E-04   -0.66216E-04  1304   0.577E-04 0.573E-06
CGA:   5    -0.202688666711E+04   -0.16157E-04   -0.16156E-04  1304   0.137E-04-0.802E-06
CGA:   6    -0.202688667122E+04   -0.41016E-05   -0.40835E-05  1304   0.494E-05 0.829E-06
CGA:   7    -0.202688667297E+04   -0.17561E-05   -0.18109E-05  1304   0.355E-05-0.852E-06
CGA:   8    -0.202688667348E+04   -0.50981E-06   -0.56163E-06  1304   0.902E-06 0.554E-06
CGA:   9    -0.202688667367E+04   -0.18506E-06   -0.20201E-06  1304   0.375E-06 0.197E-06
CGA:  10    -0.202688667380E+04   -0.13110E-06   -0.19027E-06  1304   0.653E-06-0.420E-06
CGA:  11    -0.202688667384E+04   -0.37311E-07   -0.73354E-07  1304   0.113E-06 0.212E-06
   8 F= -.20483420E+04 E0= -.20483420E+04  d E =-.317737E-03
       N       E                     dE             d eps       ncg     rms          ort
SDA:   1    -0.202686711222E+04    0.19562E-01    0.00000E+00  1304   0.523E-01 0.000E+00
CGA:   2    -0.202688316362E+04   -0.16051E-01   -0.16051E-01  1304   0.151E-01 0.159E-05
CGA:   3    -0.202688727010E+04   -0.41065E-02   -0.41065E-02  1304   0.246E-02-0.629E-06
CGA:   4    -0.202688786620E+04   -0.59611E-03   -0.59616E-03  1304   0.519E-03 0.189E-05
CGA:   5    -0.202688800999E+04   -0.14378E-03   -0.14380E-03  1304   0.121E-03-0.244E-05
CGA:   6    -0.202688804860E+04   -0.38614E-04   -0.38478E-04  1304   0.470E-04 0.268E-05
CGA:   7    -0.202688806315E+04   -0.14551E-04   -0.14638E-04  1304   0.252E-04-0.253E-05
CGA:   8    -0.202688806883E+04   -0.56751E-05   -0.57357E-05  1304   0.610E-05 0.195E-05
CGA:   9    -0.202688807101E+04   -0.21791E-05   -0.21972E-05  1304   0.178E-05-0.283E-06
CGA:  10    -0.202688807158E+04   -0.57791E-06   -0.60020E-06  1304   0.678E-06-0.281E-06
CGA:  11    -0.202688807166E+04   -0.73625E-07   -0.95607E-07  1304   0.217E-06 0.198E-06
   9 F= -.20483428E+04 E0= -.20483428E+04  d E =-.110078E-02
       N       E                     dE             d eps       ncg     rms          ort
SDA:   1    -0.202680627745E+04    0.81794E-01    0.00000E+00  1304   0.209E+00 0.000E+00
CGA:   2    -0.202687047902E+04   -0.64202E-01   -0.64201E-01  1304   0.606E-01 0.296E-05
CGA:   3    -0.202688690412E+04   -0.16425E-01   -0.16425E-01  1304   0.984E-02-0.680E-06
CGA:   4    -0.202688928782E+04   -0.23837E-02   -0.23838E-02  1304   0.208E-02 0.410E-05
CGA:   5    -0.202688986154E+04   -0.57371E-03   -0.57375E-03  1304   0.483E-03-0.468E-05
CGA:   6    -0.202689001730E+04   -0.15576E-03   -0.15548E-03  1304   0.192E-03 0.534E-05
CGA:   7    -0.202689007414E+04   -0.56838E-04   -0.56942E-04  1304   0.953E-04-0.482E-05
CGA:   8    -0.202689009815E+04   -0.24009E-04   -0.24063E-04  1304   0.250E-04 0.393E-05
CGA:   9    -0.202689010669E+04   -0.85410E-05   -0.86050E-05  1304   0.683E-05-0.110E-05
CGA:  10    -0.202689010860E+04   -0.19120E-05   -0.19074E-05  1304   0.177E-05 0.264E-06
CGA:  11    -0.202689010921E+04   -0.60622E-06   -0.61960E-06  1304   0.874E-06-0.217E-06
CGA:  12    -0.202689010935E+04   -0.14623E-06   -0.15726E-06  1304   0.288E-06 0.150E-06
CGA:  13    -0.202689010946E+04   -0.10979E-06   -0.11194E-06  1304   0.151E-06-0.377E-07
CGA:  14    -0.202689010949E+04   -0.28755E-07   -0.70405E-07  1304   0.414E-06-0.162E-06
  10 F= -.20483436E+04 E0= -.20483436E+04  d E =-.191055E-02
       N       E                     dE             d eps       ncg     rms          ort
SDA:   1    -0.202687892184E+04    0.11188E-01    0.00000E+00  1304   0.312E-01 0.000E+00
CGA:   2    -0.202688854607E+04   -0.96242E-02   -0.96241E-02  1304   0.896E-02 0.551E-05
CGA:   3    -0.202689097320E+04   -0.24271E-02   -0.24271E-02  1304   0.145E-02-0.111E-05
CGA:   4    -0.202689132674E+04   -0.35354E-03   -0.35354E-03  1304   0.302E-03-0.886E-07
CGA:   5    -0.202689140995E+04   -0.83208E-04   -0.83211E-04  1304   0.671E-04 0.620E-06
CGA:   6    -0.202689143309E+04   -0.23137E-04   -0.23090E-04  1304   0.236E-04 0.736E-06
CGA:   7    -0.202689144157E+04   -0.84832E-05   -0.85733E-05  1304   0.122E-04-0.119E-05
CGA:   8    -0.202689144414E+04   -0.25764E-05   -0.26484E-05  1304   0.343E-05 0.124E-05
CGA:   9    -0.202689144535E+04   -0.12023E-05   -0.12145E-05  1304   0.110E-05-0.333E-06
CGA:  10    -0.202689144566E+04   -0.30931E-06   -0.30952E-06  1304   0.269E-06-0.935E-08
CGA:  11    -0.202689144572E+04   -0.60536E-07   -0.63777E-07  1304   0.798E-07 0.671E-07
  11 F= -.20483446E+04 E0= -.20483446E+04  d E =-.100610E-02
       N       E                     dE             d eps       ncg     rms          ort
SDA:   1    -0.202681740301E+04    0.74043E-01    0.00000E+00  1304   0.189E+00 0.000E+00
CGA:   2    -0.202687570915E+04   -0.58306E-01   -0.58306E-01  1304   0.543E-01 0.998E-05
CGA:   3    -0.202689040166E+04   -0.14693E-01   -0.14692E-01  1304   0.875E-02-0.224E-05
CGA:   4    -0.202689253912E+04   -0.21375E-02   -0.21375E-02  1304   0.183E-02 0.339E-06
CGA:   5    -0.202689304333E+04   -0.50420E-03   -0.50423E-03  1304   0.406E-03 0.145E-05
CGA:   6    -0.202689318405E+04   -0.14073E-03   -0.14063E-03  1304   0.144E-03 0.184E-05
CGA:   7    -0.202689323422E+04   -0.50173E-04   -0.50304E-04  1304   0.699E-04-0.275E-05
CGA:   8    -0.202689325124E+04   -0.17016E-04   -0.17176E-04  1304   0.221E-04 0.315E-05
CGA:   9    -0.202689325819E+04   -0.69471E-05   -0.69491E-05  1304   0.621E-05-0.124E-05
CGA:  10    -0.202689325982E+04   -0.16348E-05   -0.16424E-05  1304   0.150E-05 0.392E-06
CGA:  11    -0.202689326038E+04   -0.55999E-06   -0.57531E-06  1304   0.800E-06-0.242E-06
CGA:  12    -0.202689326050E+04   -0.12155E-06   -0.13675E-06  1304   0.276E-06 0.157E-06
CGA:  13    -0.202689326060E+04   -0.94224E-07   -0.94118E-07  1304   0.124E-06 0.173E-08
CGA:  14    -0.202689326053E+04    0.67266E-07   -0.10700E-06  1304   0.123E-05-0.312E-06
CGA:  15    -0.202689326062E+04   -0.90171E-07   -0.13978E-06  1304   0.126E-06 0.236E-06
  12 F= -.20483456E+04 E0= -.20483456E+04  d E =-.200893E-02
       N       E                     dE             d eps       ncg     rms          ort
SDA:   1    -0.202688721819E+04    0.60423E-02    0.00000E+00  1304   0.172E-01 0.000E+00
CGA:   2    -0.202689242926E+04   -0.52111E-02   -0.52111E-02  1304   0.489E-02 0.785E-05
CGA:   3    -0.202689376144E+04   -0.13322E-02   -0.13321E-02  1304   0.780E-03-0.228E-05
CGA:   4    -0.202689395193E+04   -0.19049E-03   -0.19059E-03  1304   0.164E-03 0.162E-05
CGA:   5    -0.202689399704E+04   -0.45108E-04   -0.45113E-04  1304   0.364E-04 0.210E-06
CGA:   6    -0.202689400955E+04   -0.12518E-04   -0.12503E-04  1304   0.127E-04 0.343E-06
CGA:   7    -0.202689401421E+04   -0.46541E-05   -0.47034E-05  1304   0.622E-05-0.745E-06
CGA:   8    -0.202689401546E+04   -0.12511E-05   -0.13201E-05  1304   0.171E-05 0.868E-06
CGA:   9    -0.202689401609E+04   -0.63448E-06   -0.64193E-06  1304   0.645E-06-0.260E-06
CGA:  10    -0.202689401625E+04   -0.15858E-06   -0.15879E-06  1304   0.163E-06 0.921E-08
CGA:  11    -0.202689401628E+04   -0.28020E-07   -0.33207E-07  1304   0.524E-07 0.514E-07
  13 F= -.20483463E+04 E0= -.20483463E+04  d E =-.645944E-03
       N       E                     dE             d eps       ncg     rms          ort
SDA:   1    -0.202683467815E+04    0.59338E-01    0.00000E+00  1304   0.155E+00 0.000E+00
CGA:   2    -0.202688158423E+04   -0.46906E-01   -0.46906E-01  1304   0.440E-01 0.188E-04
CGA:   3    -0.202689356791E+04   -0.11984E-01   -0.11984E-01  1304   0.701E-02-0.643E-05
CGA:   4    -0.202689528366E+04   -0.17157E-02   -0.17161E-02  1304   0.148E-02 0.563E-05
CGA:   5    -0.202689569002E+04   -0.40637E-03   -0.40637E-03  1304   0.329E-03 0.378E-06
CGA:   6    -0.202689580282E+04   -0.11280E-03   -0.11273E-03  1304   0.117E-03 0.143E-05
CGA:   7    -0.202689584329E+04   -0.40468E-04   -0.40578E-04  1304   0.554E-04-0.249E-05
CGA:   8    -0.202689585673E+04   -0.13444E-04   -0.13598E-04  1304   0.171E-04 0.300E-05
CGA:   9    -0.202689586222E+04   -0.54898E-05   -0.54954E-05  1304   0.508E-05-0.123E-05
CGA:  10    -0.202689586347E+04   -0.12461E-05   -0.12600E-05  1304   0.117E-05 0.423E-06
CGA:  11    -0.202689586392E+04   -0.45252E-06   -0.46721E-06  1304   0.587E-06-0.204E-06
CGA:  12    -0.202689586402E+04   -0.98473E-07   -0.10746E-06  1304   0.213E-06 0.113E-06
  14 F= -.20483478E+04 E0= -.20483478E+04  d E =-.216595E-02
       N       E                     dE             d eps       ncg     rms          ort
SDA:   1    -0.202665290586E+04    0.24296E+00    0.00000E+00  1304   0.618E+00 0.000E+00
CGA:   2    -0.202684054624E+04   -0.18764E+00   -0.18764E+00  1304   0.176E+00-0.120E-05
CGA:   3    -0.202688846011E+04   -0.47914E-01   -0.47914E-01  1304   0.280E-01-0.654E-05
CGA:   4    -0.202689532817E+04   -0.68681E-02   -0.68687E-02  1304   0.590E-02 0.124E-04
CGA:   5    -0.202689695114E+04   -0.16230E-02   -0.16230E-02  1304   0.131E-02 0.127E-05
CGA:   6    -0.202689740335E+04   -0.45221E-03   -0.45207E-03  1304   0.467E-03 0.271E-05
CGA:   7    -0.202689756399E+04   -0.16064E-03   -0.16086E-03  1304   0.212E-03-0.451E-05
CGA:   8    -0.202689761900E+04   -0.55005E-04   -0.55221E-04  1304   0.704E-04 0.616E-05
CGA:   9    -0.202689763967E+04   -0.20674E-04   -0.20641E-04  1304   0.195E-04-0.281E-05
CGA:  10    -0.202689764481E+04   -0.51400E-05   -0.51609E-05  1304   0.477E-05 0.101E-05
CGA:  11    -0.202689764654E+04   -0.17244E-05   -0.17559E-05  1304   0.229E-05-0.573E-06
CGA:  12    -0.202689764697E+04   -0.43141E-06   -0.45574E-06  1304   0.770E-06 0.338E-06
CGA:  13    -0.202689764727E+04   -0.29953E-06   -0.30470E-06  1304   0.338E-06-0.101E-06
CGA:  14    -0.202689764738E+04   -0.11202E-06   -0.12684E-06  1304   0.247E-06-0.109E-06
CGA:  15    -0.202689764739E+04   -0.87821E-08   -0.20935E-07  1304   0.111E-06 0.671E-07
  15 F= -.20483489E+04 E0= -.20483489E+04  d E =-.330392E-02
       N       E                     dE             d eps       ncg     rms          ort
SDA:   1    -0.202687077666E+04    0.26871E-01    0.00000E+00  1304   0.710E-01 0.000E+00
CGA:   2    -0.202689201251E+04   -0.21236E-01   -0.21236E-01  1304   0.201E-01 0.199E-04
CGA:   3    -0.202689753981E+04   -0.55273E-02   -0.55272E-02  1304   0.331E-02-0.131E-04
CGA:   4    -0.202689833655E+04   -0.79674E-03   -0.79709E-03  1304   0.722E-03 0.772E-05
CGA:   5    -0.202689852871E+04   -0.19216E-03   -0.19205E-03  1304   0.180E-03-0.602E-05
CGA:   6    -0.202689857871E+04   -0.50001E-04   -0.50012E-04  1304   0.726E-04 0.463E-05
CGA:   7    -0.202689860033E+04   -0.21619E-04   -0.21646E-04  1304   0.322E-04-0.329E-05
CGA:   8    -0.202689860895E+04   -0.86174E-05   -0.86218E-05  1304   0.793E-05 0.239E-05
CGA:   9    -0.202689861192E+04   -0.29719E-05   -0.30209E-05  1304   0.267E-05-0.677E-06
CGA:  10    -0.202689861246E+04   -0.53484E-06   -0.55940E-06  1304   0.669E-06 0.432E-06
CGA:  11    -0.202689861271E+04   -0.25684E-06   -0.26365E-06  1304   0.308E-06-0.122E-06
CGA:  12    -0.202689861277E+04   -0.53755E-07   -0.57716E-07  1304   0.116E-06 0.679E-07
  16 F= -.20483503E+04 E0= -.20483503E+04  d E =-.140158E-02
       N       E                     dE             d eps       ncg     rms          ort
SDA:   1    -0.202664919747E+04    0.24942E+00    0.00000E+00  1304   0.639E+00 0.000E+00
CGA:   2    -0.202684034886E+04   -0.19115E+00   -0.19115E+00  1304   0.181E+00 0.191E-04
CGA:   3    -0.202689004861E+04   -0.49700E-01   -0.49700E-01  1304   0.298E-01-0.289E-04
CGA:   4    -0.202689723195E+04   -0.71833E-02   -0.71843E-02  1304   0.650E-02 0.243E-04
CGA:   5    -0.202689894874E+04   -0.17168E-02   -0.17165E-02  1304   0.160E-02-0.175E-04
CGA:   6    -0.202689940614E+04   -0.45740E-03   -0.45730E-03  1304   0.673E-03 0.142E-04
CGA:   7    -0.202689959464E+04   -0.18850E-03   -0.18847E-03  1304   0.273E-03-0.968E-05
CGA:   8    -0.202689967713E+04   -0.82497E-04   -0.82310E-04  1304   0.739E-04 0.743E-05
CGA:   9    -0.202689970218E+04   -0.25048E-04   -0.25179E-04  1304   0.225E-04-0.260E-05
CGA:  10    -0.202689970730E+04   -0.51185E-05   -0.51985E-05  1304   0.648E-05 0.182E-05
CGA:  11    -0.202689970949E+04   -0.21869E-05   -0.22170E-05  1304   0.286E-05-0.872E-06
CGA:  12    -0.202689971002E+04   -0.52989E-06   -0.55783E-06  1304   0.877E-06 0.480E-06
CGA:  13    -0.202689971036E+04   -0.34335E-06   -0.34667E-06  1304   0.377E-06-0.631E-07
CGA:  14    -0.202689971036E+04    0.72032E-09   -0.26686E-06  1304   0.168E-05-0.558E-06
CGA:  15    -0.202689971049E+04   -0.12826E-06   -0.20207E-06  1304   0.206E-06 0.394E-06
CGA:  16    -0.202689971052E+04   -0.29300E-07   -0.39902E-07  1304   0.813E-07 0.754E-07
  17 F= -.20483527E+04 E0= -.20483527E+04  d E =-.381284E-02
       N       E                     dE             d eps       ncg     rms          ort
SDA:   1    -0.202685579522E+04    0.43915E-01    0.00000E+00  1304   0.111E+00 0.000E+00
CGA:   2    -0.202688904311E+04   -0.33248E-01   -0.33248E-01  1304   0.315E-01 0.225E-04
CGA:   3    -0.202689768949E+04   -0.86464E-02   -0.86458E-02  1304   0.520E-02-0.155E-04
CGA:   4    -0.202689893704E+04   -0.12476E-02   -0.12483E-02  1304   0.114E-02 0.964E-05
CGA:   5    -0.202689923813E+04   -0.30109E-03   -0.30074E-03  1304   0.287E-03-0.741E-05
CGA:   6    -0.202689931690E+04   -0.78765E-04   -0.78939E-04  1304   0.117E-03 0.559E-05
CGA:   7    -0.202689935131E+04   -0.34416E-04   -0.34343E-04  1304   0.489E-04-0.375E-05
CGA:   8    -0.202689936532E+04   -0.14008E-04   -0.14033E-04  1304   0.125E-04 0.275E-05
CGA:   9    -0.202689936988E+04   -0.45624E-05   -0.46047E-05  1304   0.435E-05-0.975E-06
CGA:  10    -0.202689937068E+04   -0.79451E-06   -0.85589E-06  1304   0.114E-05 0.654E-06
CGA:  11    -0.202689937109E+04   -0.41784E-06   -0.42065E-06  1304   0.447E-06-0.143E-06
CGA:  12    -0.202689937121E+04   -0.11831E-06   -0.11818E-06  1304   0.152E-06 0.381E-07
CGA:  13    -0.202689937126E+04   -0.52052E-07   -0.52037E-07  1304   0.516E-07 0.417E-08
CGA:  14    -0.202689937096E+04    0.30368E-06    0.25336E+03  1304   0.148E-05-0.251E-06
CGA:  15    -0.202689937118E+04   -0.21588E-06   -0.28180E-06  1304   0.211E-06 0.182E-06
CGA:  16    -0.202689937129E+04   -0.11500E-06   -0.10179E-06  1304   0.197E-06-0.123E-06
CGA:  17    -0.202689937129E+04    0.37835E-08   -0.24393E-07  1304   0.367E-07 0.684E-07
  18 F= -.20483530E+04 E0= -.20483530E+04  d E =-.402397E-02
       N       E                     dE             d eps       ncg     rms          ort
SDA:   1    -0.202681016409E+04    0.89207E-01    0.00000E+00  1304   0.232E+00 0.000E+00
CGA:   2    -0.202687899481E+04   -0.68831E-01   -0.68831E-01  1304   0.653E-01 0.219E-04
CGA:   3    -0.202689725204E+04   -0.18257E-01   -0.18255E-01  1304   0.104E-01-0.170E-04
CGA:   4    -0.202689976699E+04   -0.25150E-02   -0.25171E-02  1304   0.233E-02 0.977E-05
CGA:   5    -0.202690037712E+04   -0.61013E-03   -0.60877E-03  1304   0.577E-03-0.684E-05
CGA:   6    -0.202690054066E+04   -0.16354E-03   -0.16438E-03  1304   0.243E-03 0.515E-05
CGA:   7    -0.202690060907E+04   -0.68410E-04   -0.67776E-04  1304   0.987E-04-0.385E-05
CGA:   8    -0.202690063836E+04   -0.29296E-04   -0.29644E-04  1304   0.269E-04 0.271E-05
CGA:   9    -0.202690064761E+04   -0.92415E-05   -0.91467E-05  1304   0.833E-05-0.985E-06
CGA:  10    -0.202690064935E+04   -0.17490E-05   -0.18813E-05  1304   0.247E-05 0.704E-06
CGA:  11    -0.202690065023E+04   -0.87378E-06   -0.84053E-06  1304   0.106E-05-0.332E-06
CGA:  12    -0.202690065040E+04   -0.17594E-06   -0.20830E-06  1304   0.333E-06 0.179E-06
CGA:  13    -0.202690065053E+04   -0.12959E-06   -0.12825E-06  1304   0.131E-06-0.177E-07
CGA:  14    -0.202690065042E+04    0.10963E-06   -0.14444E-06  1304   0.139E-05-0.331E-06
CGA:  15    -0.202690065053E+04   -0.10639E-06   -0.18561E-06  1304   0.177E-06 0.264E-06
CGA:  16    -0.202690065058E+04   -0.45082E-07   -0.49175E-07  1304   0.667E-07 0.219E-07
CGA:  17    -0.202690064907E+04    0.15032E-05    0.25336E+03  1304   0.874E-05-0.752E-06
CGA:  18    -0.202690065005E+04   -0.98137E-06   -0.12726E-05  1304   0.113E-05 0.485E-06
CGA:  19    -0.202690065053E+04   -0.47113E-06   -0.43840E-06  1304   0.238E-06-0.937E-07
CGA:  20    -0.202690065060E+04   -0.74753E-07   -0.62045E-07  1304   0.866E-07-0.307E-07
  19 F= -.20483553E+04 E0= -.20483553E+04  d E =-.231947E-02
       N       E                     dE             d eps       ncg     rms          ort
SDA:   1    -0.202620518116E+04    0.69547E+00    0.00000E+00  1304   0.178E+01 0.000E+00
CGA:   2    -0.202673339645E+04   -0.52822E+00   -0.52813E+00  1304   0.501E+00 0.345E-03
CGA:   3    -0.202687338093E+04   -0.13998E+00   -0.14001E+00  1304   0.798E-01-0.870E-04
CGA:   4    -0.202689270497E+04   -0.19324E-01   -0.19331E-01  1304   0.178E-01 0.273E-04
CGA:   5    -0.202689736086E+04   -0.46559E-02   -0.46516E-02  1304   0.438E-02-0.141E-04
CGA:   6    -0.202689862588E+04   -0.12650E-02   -0.12681E-02  1304   0.187E-02 0.113E-04
CGA:   7    -0.202689913800E+04   -0.51212E-03   -0.50980E-03  1304   0.743E-03-0.807E-05
CGA:   8    -0.202689936844E+04   -0.23044E-03   -0.23189E-03  1304   0.211E-03 0.607E-05
CGA:   9    -0.202689943710E+04   -0.68658E-04   -0.68181E-04  1304   0.606E-04-0.215E-05
CGA:  10    -0.202689945190E+04   -0.14803E-04   -0.15240E-04  1304   0.205E-04 0.158E-05
CGA:  11    -0.202689945783E+04   -0.59312E-05   -0.57236E-05  1304   0.717E-05-0.847E-06
CGA:  12    -0.202689945965E+04   -0.18201E-05   -0.19207E-05  1304   0.239E-05 0.447E-06
CGA:  13    -0.202689946061E+04   -0.96031E-06   -0.92543E-06  1304   0.111E-05-0.271E-06
CGA:  14    -0.202689946083E+04   -0.22148E-06   -0.24509E-06  1304   0.386E-06 0.100E-06
CGA:  15    -0.202689946098E+04   -0.15135E-06   -0.14272E-06  1304   0.165E-06-0.637E-07
CGA:  16    -0.202689946102E+04   -0.32596E-07   -0.35638E-07  1304   0.570E-07 0.145E-07
  20 F= -.20483570E+04 E0= -.20483570E+04  d E =-.403624E-02
       N       E                     dE             d eps       ncg     rms          ort
SDA:   1    -0.202685792792E+04    0.41533E-01    0.00000E+00  1304   0.109E+00 0.000E+00
CGA:   2    -0.202689023774E+04   -0.32310E-01   -0.32309E-01  1304   0.307E-01-0.136E-04
CGA:   3    -0.202689879863E+04   -0.85609E-02   -0.85628E-02  1304   0.489E-02 0.129E-04
CGA:   4    -0.202689998389E+04   -0.11853E-02   -0.11839E-02  1304   0.110E-02-0.689E-05
CGA:   5    -0.202690026706E+04   -0.28316E-03   -0.28408E-03  1304   0.270E-03 0.544E-05
CGA:   6    -0.202690034671E+04   -0.79658E-04   -0.79172E-04  1304   0.120E-03-0.386E-05
CGA:   7    -0.202690037719E+04   -0.30480E-04   -0.30912E-04  1304   0.432E-04 0.288E-05
CGA:   8    -0.202690039246E+04   -0.15272E-04   -0.15161E-04  1304   0.138E-04-0.183E-05
CGA:   9    -0.202690039632E+04   -0.38560E-05   -0.39282E-05  1304   0.329E-05 0.692E-06
CGA:  10    -0.202690039748E+04   -0.11590E-05   -0.11181E-05  1304   0.173E-05-0.564E-06
CGA:  11    -0.202690039768E+04   -0.19858E-06   -0.25527E-06  1304   0.462E-06 0.264E-06
CGA:  12    -0.202690039779E+04   -0.10886E-06   -0.12118E-06  1304   0.218E-06 0.800E-07
CGA:  13    -0.202690039787E+04   -0.84998E-07   -0.12997E-06  1304   0.781E-06-0.336E-06
  21 F= -.20483572E+04 E0= -.20483572E+04  d E =-.425094E-02
       N       E                     dE             d eps       ncg     rms          ort
SDA:   1    -0.202678208105E+04    0.11832E+00    0.00000E+00  1304   0.313E+00 0.000E+00
CGA:   2    -0.202687426322E+04   -0.92182E-01   -0.92181E-01  1304   0.878E-01-0.418E-05
CGA:   3    -0.202689901529E+04   -0.24752E-01   -0.24752E-01  1304   0.144E-01 0.327E-05
CGA:   4    -0.202690253493E+04   -0.35196E-02   -0.35190E-02  1304   0.305E-02-0.663E-05
CGA:   5    -0.202690337650E+04   -0.84157E-03   -0.84218E-03  1304   0.678E-03 0.801E-05
CGA:   6    -0.202690361232E+04   -0.23582E-03   -0.23580E-03  1304   0.254E-03-0.535E-05
CGA:   7    -0.202690369159E+04   -0.79275E-04   -0.79413E-04  1304   0.114E-03 0.405E-05
CGA:   8    -0.202690372365E+04   -0.32057E-04   -0.31860E-04  1304   0.404E-04-0.273E-05
CGA:   9    -0.202690373416E+04   -0.10511E-04   -0.10603E-04  1304   0.915E-05 0.123E-05
CGA:  10    -0.202690373737E+04   -0.32070E-05   -0.32069E-05  1304   0.325E-05-0.897E-06
CGA:  11    -0.202690373806E+04   -0.69496E-06   -0.72705E-06  1304   0.995E-06 0.349E-06
CGA:  12    -0.202690373846E+04   -0.40233E-06   -0.41027E-06  1304   0.565E-06-0.213E-06
CGA:  13    -0.202690373857E+04   -0.10386E-06   -0.10912E-06  1304   0.210E-06 0.584E-07
CGA:  14    -0.202690373864E+04   -0.75983E-07   -0.75735E-07  1304   0.774E-07-0.322E-07
  22 F= -.20483593E+04 E0= -.20483593E+04  d E =-.209663E-02
       N       E                     dE             d eps       ncg     rms          ort
SDA:   1    -0.202686721211E+04    0.36526E-01    0.00000E+00  1304   0.966E-01 0.000E+00
CGA:   2    -0.202689563734E+04   -0.28425E-01   -0.28425E-01  1304   0.271E-01-0.888E-06
CGA:   3    -0.202690326775E+04   -0.76304E-02   -0.76305E-02  1304   0.444E-02 0.120E-05
CGA:   4    -0.202690435406E+04   -0.10863E-02   -0.10859E-02  1304   0.939E-03-0.372E-05
CGA:   5    -0.202690461305E+04   -0.25898E-03   -0.25926E-03  1304   0.207E-03 0.426E-05
CGA:   6    -0.202690468634E+04   -0.73294E-04   -0.73336E-04  1304   0.765E-04-0.287E-05
CGA:   7    -0.202690471065E+04   -0.24307E-04   -0.24342E-04  1304   0.321E-04 0.211E-05
CGA:   8    -0.202690472030E+04   -0.96537E-05   -0.95760E-05  1304   0.129E-04-0.161E-05
CGA:   9    -0.202690472321E+04   -0.29075E-05   -0.29795E-05  1304   0.277E-05 0.782E-06
CGA:  10    -0.202690472426E+04   -0.10510E-05   -0.10645E-05  1304   0.103E-05-0.443E-06
CGA:  11    -0.202690472450E+04   -0.23831E-06   -0.24342E-06  1304   0.287E-06 0.957E-07
CGA:  12    -0.202690472461E+04   -0.11033E-06   -0.11086E-06  1304   0.116E-06-0.231E-07
CGA:  13    -0.202690472466E+04   -0.47294E-07   -0.55119E-07  1304   0.850E-07-0.421E-07
  23 F= -.20483596E+04 E0= -.20483596E+04  d E =-.239439E-02
       N       E                     dE             d eps       ncg     rms          ort
SDA:   1    -0.202677807464E+04    0.12665E+00    0.00000E+00  1304   0.343E+00 0.000E+00
CGA:   2    -0.202687858796E+04   -0.10051E+00   -0.10051E+00  1304   0.956E-01-0.182E-04
CGA:   3    -0.202690550786E+04   -0.26920E-01   -0.26921E-01  1304   0.162E-01 0.304E-04
CGA:   4    -0.202690939002E+04   -0.38822E-02   -0.38807E-02  1304   0.350E-02-0.165E-04
CGA:   5    -0.202691032901E+04   -0.93900E-03   -0.93987E-03  1304   0.833E-03 0.154E-04
CGA:   6    -0.202691058438E+04   -0.25537E-03   -0.25520E-03  1304   0.372E-03-0.954E-05
CGA:   7    -0.202691068026E+04   -0.95877E-04   -0.96276E-04  1304   0.143E-03 0.665E-05
CGA:   8    -0.202691072733E+04   -0.47067E-04   -0.47081E-04  1304   0.413E-04-0.266E-05
CGA:   9    -0.202691074017E+04   -0.12840E-04   -0.12842E-04  1304   0.102E-04 0.107E-05
CGA:  10    -0.202691074349E+04   -0.33215E-05   -0.33203E-05  1304   0.498E-05-0.139E-05
CGA:  11    -0.202691074424E+04   -0.75561E-06   -0.83094E-06  1304   0.124E-05 0.597E-06
CGA:  12    -0.202691074463E+04   -0.38309E-06   -0.38743E-06  1304   0.570E-06 0.127E-06
CGA:  13    -0.202691074483E+04   -0.19888E-06   -0.29482E-06  1304   0.152E-05-0.608E-06
CGA:  14    -0.202691074491E+04   -0.84161E-07   -0.16137E-06  1304   0.172E-06 0.363E-06
  24 F= -.20483620E+04 E0= -.20483620E+04  d E =-.238141E-02
       N       E                     dE             d eps       ncg     rms          ort
SDA:   1    -0.202675630925E+04    0.15444E+00    0.00000E+00  1304   0.412E+00 0.000E+00
CGA:   2    -0.202687707188E+04   -0.12076E+00   -0.12076E+00  1304   0.115E+00-0.238E-04
CGA:   3    -0.202690941066E+04   -0.32339E-01   -0.32339E-01  1304   0.195E-01 0.370E-04
CGA:   4    -0.202691407451E+04   -0.46638E-02   -0.46627E-02  1304   0.421E-02-0.198E-04
CGA:   5    -0.202691520361E+04   -0.11291E-02   -0.11296E-02  1304   0.100E-02 0.188E-04
CGA:   6    -0.202691551003E+04   -0.30642E-03   -0.30655E-03  1304   0.448E-03-0.115E-04
CGA:   7    -0.202691562581E+04   -0.11578E-03   -0.11603E-03  1304   0.171E-03 0.798E-05
CGA:   8    -0.202691568245E+04   -0.56642E-04   -0.56745E-04  1304   0.496E-04-0.314E-05
CGA:   9    -0.202691569794E+04   -0.15489E-04   -0.15460E-04  1304   0.122E-04 0.126E-05
CGA:  10    -0.202691570189E+04   -0.39479E-05   -0.39844E-05  1304   0.599E-05-0.164E-05
CGA:  11    -0.202691570282E+04   -0.93470E-06   -0.10068E-05  1304   0.149E-05 0.704E-06
CGA:  12    -0.202691570329E+04   -0.46997E-06   -0.47131E-06  1304   0.682E-06 0.141E-06
CGA:  13    -0.202691570352E+04   -0.22474E-06   -0.34926E-06  1304   0.176E-05-0.704E-06
CGA:  14    -0.202691570362E+04   -0.10736E-06   -0.18792E-06  1304   0.198E-06 0.417E-06
CGA:  15    -0.202691570364E+04   -0.12937E-07   -0.29651E-07  1304   0.854E-07 0.989E-07
  25 F= -.20483630E+04 E0= -.20483630E+04  d E =-.335917E-02
       N       E                     dE             d eps       ncg     rms          ort
SDA:   1    -0.202677802800E+04    0.13768E+00    0.00000E+00  1304   0.365E+00 0.000E+00
CGA:   2    -0.202688548211E+04   -0.10745E+00   -0.10745E+00  1304   0.102E+00 0.686E-05
CGA:   3    -0.202691439023E+04   -0.28908E-01   -0.28908E-01  1304   0.169E-01 0.433E-05
CGA:   4    -0.202691849916E+04   -0.41089E-02   -0.41090E-02  1304   0.354E-02 0.626E-06
CGA:   5    -0.202691949746E+04   -0.99830E-03   -0.99829E-03  1304   0.773E-03 0.216E-05
CGA:   6    -0.202691977157E+04   -0.27412E-03   -0.27399E-03  1304   0.269E-03 0.162E-05
CGA:   7    -0.202691986831E+04   -0.96734E-04   -0.96920E-04  1304   0.113E-03-0.243E-05
CGA:   8    -0.202691989941E+04   -0.31109E-04   -0.31144E-04  1304   0.370E-04 0.436E-05
CGA:   9    -0.202691991052E+04   -0.11106E-04   -0.11113E-04  1304   0.124E-04-0.259E-05
CGA:  10    -0.202691991329E+04   -0.27641E-05   -0.28068E-05  1304   0.293E-05 0.100E-05
CGA:  11    -0.202691991439E+04   -0.11024E-05   -0.11197E-05  1304   0.113E-05-0.250E-06
CGA:  12    -0.202691991475E+04   -0.36283E-06   -0.35963E-06  1304   0.381E-06 0.529E-07
CGA:  13    -0.202691991490E+04   -0.14921E-06   -0.15543E-06  1304   0.198E-06-0.630E-07
CGA:  14    -0.202691991494E+04   -0.39341E-07   -0.40204E-07  1304   0.710E-07 0.172E-07
  26 F= -.20483656E+04 E0= -.20483656E+04  d E =-.265368E-02
       N       E                     dE             d eps       ncg     rms          ort
SDA:   1    -0.202658189951E+04    0.33802E+00    0.00000E+00  1304   0.880E+00 0.000E+00
CGA:   2    -0.202684089666E+04   -0.25900E+00   -0.25900E+00  1304   0.247E+00-0.322E-05
CGA:   3    -0.202691055835E+04   -0.69662E-01   -0.69662E-01  1304   0.408E-01 0.947E-05
CGA:   4    -0.202692045958E+04   -0.99012E-02   -0.99014E-02  1304   0.853E-02 0.233E-05
CGA:   5    -0.202692286521E+04   -0.24056E-02   -0.24057E-02  1304   0.186E-02 0.365E-05
CGA:   6    -0.202692352657E+04   -0.66136E-03   -0.66121E-03  1304   0.646E-03 0.241E-05
CGA:   7    -0.202692375927E+04   -0.23270E-03   -0.23292E-03  1304   0.266E-03-0.323E-05
CGA:   8    -0.202692383509E+04   -0.75814E-04   -0.75882E-04  1304   0.899E-04 0.656E-05
CGA:   9    -0.202692386077E+04   -0.25685E-04   -0.25613E-04  1304   0.283E-04-0.395E-05
CGA:  10    -0.202692386765E+04   -0.68739E-05   -0.69326E-05  1304   0.696E-05 0.151E-05
CGA:  11    -0.202692387021E+04   -0.25622E-05   -0.25954E-05  1304   0.274E-05-0.544E-06
CGA:  12    -0.202692387098E+04   -0.76578E-06   -0.76433E-06  1304   0.932E-06 0.273E-06
CGA:  13    -0.202692387137E+04   -0.39384E-06   -0.43725E-06  1304   0.753E-06-0.333E-06
CGA:  14    -0.202692387143E+04   -0.61074E-07   -0.77314E-07  1304   0.325E-06 0.114E-06
  27 F= -.20483672E+04 E0= -.20483672E+04  d E =-.420876E-02
       N       E                     dE             d eps       ncg     rms          ort
SDA:   1    -0.202678622080E+04    0.13765E+00    0.00000E+00  1304   0.362E+00 0.000E+00
CGA:   2    -0.202689149761E+04   -0.10528E+00   -0.10528E+00  1304   0.101E+00 0.294E-04
CGA:   3    -0.202692022551E+04   -0.28728E-01   -0.28728E-01  1304   0.170E-01-0.233E-04
CGA:   4    -0.202692429141E+04   -0.40659E-02   -0.40669E-02  1304   0.370E-02 0.190E-04
CGA:   5    -0.202692528745E+04   -0.99604E-03   -0.99589E-03  1304   0.907E-03-0.863E-05
CGA:   6    -0.202692554971E+04   -0.26226E-03   -0.26221E-03  1304   0.388E-03 0.104E-04
CGA:   7    -0.202692565835E+04   -0.10864E-03   -0.10857E-03  1304   0.158E-03-0.810E-05
CGA:   8    -0.202692570582E+04   -0.47480E-04   -0.47358E-04  1304   0.402E-04 0.578E-05
CGA:   9    -0.202692572002E+04   -0.14192E-04   -0.14279E-04  1304   0.126E-04-0.155E-05
CGA:  10    -0.202692572282E+04   -0.28015E-05   -0.28634E-05  1304   0.367E-05 0.118E-05
CGA:  11    -0.202692572416E+04   -0.13453E-05   -0.13910E-05  1304   0.187E-05-0.759E-06
CGA:  12    -0.202692572445E+04   -0.28240E-06   -0.31001E-06  1304   0.632E-06 0.347E-06
CGA:  13    -0.202692572463E+04   -0.18726E-06   -0.18964E-06  1304   0.238E-06 0.756E-07
CGA:  14    -0.202692572247E+04    0.21650E-05    0.25337E+03  1304   0.139E-04-0.169E-05
CGA:  15    -0.202692572408E+04   -0.16167E-05   -0.19530E-05  1304   0.151E-05 0.893E-06
CGA:  16    -0.202692572462E+04   -0.53854E-06   -0.52299E-06  1304   0.344E-06-0.897E-07
CGA:  17    -0.202692572476E+04   -0.13803E-06   -0.12789E-06  1304   0.291E-06-0.108E-06
CGA:  18    -0.202692572477E+04   -0.53624E-08   -0.30398E-07  1304   0.123E-06 0.750E-07
  28 F= -.20483696E+04 E0= -.20483696E+04  d E =-.238917E-02
       N       E                     dE             d eps       ncg     rms          ort
SDA:   1    -0.202571110257E+04    0.12146E+01    0.00000E+00  1304   0.315E+01 0.000E+00
CGA:   2    -0.202662797403E+04   -0.91687E+00   -0.91676E+00  1304   0.882E+00 0.199E-03
CGA:   3    -0.202687796344E+04   -0.24999E+00   -0.25001E+00  1304   0.148E+00-0.291E-04
CGA:   4    -0.202691338392E+04   -0.35420E-01   -0.35429E-01  1304   0.320E-01 0.405E-04
CGA:   5    -0.202692202141E+04   -0.86375E-02   -0.86354E-02  1304   0.778E-02-0.144E-04
CGA:   6    -0.202692432057E+04   -0.22992E-02   -0.23016E-02  1304   0.340E-02 0.212E-04
CGA:   7    -0.202692524017E+04   -0.91960E-03   -0.91743E-03  1304   0.134E-02-0.157E-04
CGA:   8    -0.202692566126E+04   -0.42109E-03   -0.42219E-03  1304   0.361E-03 0.126E-04
CGA:   9    -0.202692578121E+04   -0.11994E-03   -0.11970E-03  1304   0.102E-03-0.348E-05
CGA:  10    -0.202692580704E+04   -0.25837E-04   -0.26202E-04  1304   0.345E-04 0.265E-05
CGA:  11    -0.202692581732E+04   -0.10275E-04   -0.10083E-04  1304   0.127E-04-0.183E-05
CGA:  12    -0.202692582054E+04   -0.32222E-05   -0.33201E-05  1304   0.415E-05 0.910E-06
CGA:  13    -0.202692582225E+04   -0.17093E-05   -0.17128E-05  1304   0.189E-05-0.584E-06
CGA:  14    -0.202692582265E+04   -0.40201E-06   -0.43066E-06  1304   0.571E-06 0.251E-06
CGA:  15    -0.202692582291E+04   -0.25345E-06   -0.25772E-06  1304   0.321E-06-0.174E-06
CGA:  16    -0.202692582294E+04   -0.33222E-07   -0.44362E-07  1304   0.140E-06 0.625E-07
  29 F= -.20483713E+04 E0= -.20483713E+04  d E =-.411009E-02
       N       E                     dE             d eps       ncg     rms          ort
SDA:   1    -0.202683283419E+04    0.92989E-01    0.00000E+00  1304   0.243E+00 0.000E+00
CGA:   2    -0.202690359198E+04   -0.70758E-01   -0.70757E-01  1304   0.681E-01-0.247E-04
CGA:   3    -0.202692288854E+04   -0.19297E-01   -0.19298E-01  1304   0.115E-01 0.180E-04
CGA:   4    -0.202692563192E+04   -0.27434E-02   -0.27420E-02  1304   0.252E-02-0.122E-04
CGA:   5    -0.202692630046E+04   -0.66854E-03   -0.66909E-03  1304   0.616E-03 0.707E-05
CGA:   6    -0.202692648190E+04   -0.18145E-03   -0.18109E-03  1304   0.279E-03-0.741E-05
CGA:   7    -0.202692655307E+04   -0.71165E-04   -0.71614E-04  1304   0.983E-04 0.572E-05
CGA:   8    -0.202692658808E+04   -0.35010E-04   -0.35063E-04  1304   0.296E-04-0.364E-05
CGA:   9    -0.202692659688E+04   -0.87975E-05   -0.88270E-05  1304   0.719E-05 0.112E-05
CGA:  10    -0.202692659923E+04   -0.23499E-05   -0.23289E-05  1304   0.355E-05-0.950E-06
CGA:  11    -0.202692659975E+04   -0.51937E-06   -0.59250E-06  1304   0.891E-06 0.519E-06
CGA:  12    -0.202692660002E+04   -0.27731E-06   -0.28132E-06  1304   0.429E-06 0.801E-07
CGA:  13    -0.202692660016E+04   -0.14011E-06   -0.24080E-06  1304   0.132E-05-0.526E-06
CGA:  14    -0.202692660023E+04   -0.61635E-07   -0.14007E-06  1304   0.165E-06 0.346E-06
  30 F= -.20483716E+04 E0= -.20483716E+04  d E =-.443026E-02
       N       E                     dE             d eps       ncg     rms          ort
SDA:   1    -0.202679735463E+04    0.12925E+00    0.00000E+00  1304   0.341E+00 0.000E+00
CGA:   2    -0.202689626555E+04   -0.98911E-01   -0.98911E-01  1304   0.949E-01 0.273E-04
CGA:   3    -0.202692343032E+04   -0.27165E-01   -0.27165E-01  1304   0.156E-01-0.999E-05
CGA:   4    -0.202692721648E+04   -0.37862E-02   -0.37873E-02  1304   0.337E-02 0.166E-04
CGA:   5    -0.202692813942E+04   -0.92293E-03   -0.92276E-03  1304   0.794E-03-0.552E-05
CGA:   6    -0.202692838745E+04   -0.24803E-03   -0.24797E-03  1304   0.331E-03 0.753E-05
CGA:   7    -0.202692848137E+04   -0.93925E-04   -0.93769E-04  1304   0.150E-03-0.665E-05
CGA:   8    -0.202692852256E+04   -0.41190E-04   -0.41313E-04  1304   0.382E-04 0.552E-05
CGA:   9    -0.202692853597E+04   -0.13403E-04   -0.13450E-04  1304   0.106E-04-0.124E-05
CGA:  10    -0.202692853876E+04   -0.27962E-05   -0.28192E-05  1304   0.291E-05 0.799E-06
CGA:  11    -0.202692853986E+04   -0.10993E-05   -0.11377E-05  1304   0.178E-05-0.636E-06
CGA:  12    -0.202692854007E+04   -0.21121E-06   -0.25413E-06  1304   0.610E-06 0.349E-06
CGA:  13    -0.202692854021E+04   -0.13677E-06   -0.14959E-06  1304   0.269E-06 0.137E-06
CGA:  14    -0.202692854024E+04   -0.33142E-07   -0.19684E-06  1304   0.127E-05-0.540E-06
CGA:  15    -0.202692854033E+04   -0.86788E-07   -0.15242E-06  1304   0.188E-06 0.345E-06
  31 F= -.20483741E+04 E0= -.20483741E+04  d E =-.245476E-02
       N       E                     dE             d eps       ncg     rms          ort
SDA:   1    -0.202575006019E+04    0.11785E+01    0.00000E+00  1304   0.307E+01 0.000E+00
CGA:   2    -0.202664036264E+04   -0.89030E+00   -0.89030E+00  1304   0.854E+00-0.264E-03
CGA:   3    -0.202688466522E+04   -0.24430E+00   -0.24430E+00  1304   0.141E+00 0.686E-04
CGA:   4    -0.202691876085E+04   -0.34096E-01   -0.34099E-01  1304   0.302E-01 0.582E-04
CGA:   5    -0.202692703735E+04   -0.82765E-02   -0.82763E-02  1304   0.706E-02-0.138E-04
CGA:   6    -0.202692928446E+04   -0.22471E-02   -0.22464E-02  1304   0.295E-02 0.234E-04
CGA:   7    -0.202693010682E+04   -0.82237E-03   -0.82213E-03  1304   0.131E-02-0.191E-04
CGA:   8    -0.202693048185E+04   -0.37502E-03   -0.37506E-03  1304   0.354E-03 0.182E-04
CGA:   9    -0.202693059914E+04   -0.11729E-03   -0.11746E-03  1304   0.929E-04-0.455E-05
CGA:  10    -0.202693062527E+04   -0.26129E-04   -0.26147E-04  1304   0.291E-04 0.289E-05
CGA:  11    -0.202693063428E+04   -0.90110E-05   -0.90319E-05  1304   0.131E-04-0.221E-05
CGA:  12    -0.202693063718E+04   -0.28990E-05   -0.29584E-05  1304   0.402E-05 0.128E-05
CGA:  13    -0.202693063880E+04   -0.16182E-05   -0.16539E-05  1304   0.167E-05-0.418E-06
CGA:  14    -0.202693063934E+04   -0.54005E-06   -0.54783E-06  1304   0.644E-06-0.106E-06
CGA:  15    -0.202693063947E+04   -0.13025E-06   -0.13906E-06  1304   0.180E-06 0.132E-06
CGA:  16    -0.202693063955E+04   -0.79322E-07   -0.11577E-06  1304   0.293E-06-0.151E-06
  32 F= -.20483777E+04 E0= -.20483777E+04  d E =-.613953E-02
       N       E                     dE             d eps       ncg     rms          ort
SDA:   1    -0.202676800911E+04    0.16263E+00    0.00000E+00  1304   0.438E+00 0.000E+00
CGA:   2    -0.202689330593E+04   -0.12530E+00   -0.12530E+00  1304   0.120E+00 0.935E-05
CGA:   3    -0.202692784216E+04   -0.34536E-01   -0.34536E-01  1304   0.200E-01 0.168E-04
CGA:   4    -0.202693273787E+04   -0.48957E-02   -0.48956E-02  1304   0.421E-02-0.202E-05
CGA:   5    -0.202693392215E+04   -0.11843E-02   -0.11844E-02  1304   0.907E-03 0.661E-05
CGA:   6    -0.202693424854E+04   -0.32639E-03   -0.32657E-03  1304   0.314E-03-0.279E-05
CGA:   7    -0.202693436181E+04   -0.11326E-03   -0.11301E-03  1304   0.117E-03 0.392E-05
CGA:   8    -0.202693440016E+04   -0.38354E-04   -0.38388E-04  1304   0.402E-04-0.144E-05
CGA:   9    -0.202693441040E+04   -0.10240E-04   -0.10300E-04  1304   0.117E-04 0.142E-05
CGA:  10    -0.202693441399E+04   -0.35851E-05   -0.35814E-05  1304   0.428E-05-0.108E-05
CGA:  11    -0.202693441497E+04   -0.98293E-06   -0.10017E-05  1304   0.116E-05 0.460E-06
CGA:  12    -0.202693441547E+04   -0.49912E-06   -0.51588E-06  1304   0.567E-06-0.161E-06
CGA:  13    -0.202693441564E+04   -0.16990E-06   -0.16840E-06  1304   0.183E-06 0.295E-07
CGA:  14    -0.202693441571E+04   -0.73531E-07   -0.78034E-07  1304   0.891E-07-0.466E-07
  33 F= -.20483810E+04 E0= -.20483810E+04  d E =-.323404E-02
       N       E                     dE             d eps       ncg     rms          ort
SDA:   1    -0.202601144512E+04    0.92297E+00    0.00000E+00  1304   0.244E+01 0.000E+00
CGA:   2    -0.202670927131E+04   -0.69783E+00   -0.69782E+00  1304   0.666E+00-0.131E-03
CGA:   3    -0.202690154897E+04   -0.19228E+00   -0.19228E+00  1304   0.112E+00 0.803E-04
CGA:   4    -0.202692881845E+04   -0.27269E-01   -0.27270E-01  1304   0.234E-01 0.123E-05
CGA:   5    -0.202693541206E+04   -0.65936E-02   -0.65939E-02  1304   0.506E-02 0.172E-04
CGA:   6    -0.202693722628E+04   -0.18142E-02   -0.18146E-02  1304   0.175E-02-0.654E-05
CGA:   7    -0.202693785961E+04   -0.63333E-03   -0.63269E-03  1304   0.672E-03 0.110E-04
CGA:   8    -0.202693807238E+04   -0.21277E-03   -0.21281E-03  1304   0.232E-03-0.419E-05
CGA:   9    -0.202693813215E+04   -0.59775E-04   -0.59954E-04  1304   0.687E-04 0.392E-05
CGA:  10    -0.202693815189E+04   -0.19736E-04   -0.19676E-04  1304   0.215E-04-0.269E-05
CGA:  11    -0.202693815797E+04   -0.60771E-05   -0.60854E-05  1304   0.650E-05 0.107E-05
CGA:  12    -0.202693816056E+04   -0.25940E-05   -0.26587E-05  1304   0.340E-05-0.741E-06
CGA:  13    -0.202693816131E+04   -0.74694E-06   -0.76589E-06  1304   0.118E-05 0.360E-06
CGA:  14    -0.202693816176E+04   -0.45009E-06   -0.46101E-06  1304   0.519E-06-0.218E-06
CGA:  15    -0.202693816188E+04   -0.11624E-06   -0.11779E-06  1304   0.171E-06 0.532E-07
CGA:  16    -0.202693816193E+04   -0.54926E-07   -0.55217E-07  1304   0.476E-07 0.154E-07
  34 F= -.20483835E+04 E0= -.20483835E+04  d E =-.573893E-02
       N       E                     dE             d eps       ncg     rms          ort
SDA:   1    -0.202685917462E+04    0.78987E-01    0.00000E+00  1304   0.213E+00 0.000E+00
CGA:   2    -0.202692013351E+04   -0.60959E-01   -0.60959E-01  1304   0.582E-01 0.107E-04
CGA:   3    -0.202693697172E+04   -0.16838E-01   -0.16838E-01  1304   0.953E-02 0.453E-05
CGA:   4    -0.202693930607E+04   -0.23344E-02   -0.23344E-02  1304   0.202E-02 0.261E-06
CGA:   5    -0.202693987047E+04   -0.56440E-03   -0.56449E-03  1304   0.437E-03 0.350E-05
CGA:   6    -0.202694002758E+04   -0.15711E-03   -0.15717E-03  1304   0.150E-03-0.109E-05
CGA:   7    -0.202694008253E+04   -0.54952E-04   -0.54899E-04  1304   0.558E-04 0.874E-06
CGA:   8    -0.202694010051E+04   -0.17976E-04   -0.17968E-04  1304   0.175E-04 0.750E-06
CGA:   9    -0.202694010567E+04   -0.51581E-05   -0.51500E-05  1304   0.584E-05-0.424E-06
CGA:  10    -0.202694010708E+04   -0.14158E-05   -0.14232E-05  1304   0.170E-05 0.126E-06
CGA:  11    -0.202694010764E+04   -0.56146E-06   -0.56251E-06  1304   0.591E-06-0.517E-07
CGA:  12    -0.202694010784E+04   -0.19897E-06   -0.19839E-06  1304   0.213E-06 0.146E-07
CGA:  13    -0.202694010793E+04   -0.90033E-07   -0.10598E-06  1304   0.205E-06-0.901E-07
  35 F= -.20483851E+04 E0= -.20483851E+04  d E =-.166175E-02
       N       E                     dE             d eps       ncg     rms          ort
SDA:   1    -0.202621640455E+04    0.72370E+00    0.00000E+00  1304   0.192E+01 0.000E+00
CGA:   2    -0.202676500035E+04   -0.54860E+00   -0.54859E+00  1304   0.523E+00-0.146E-03
CGA:   3    -0.202691645564E+04   -0.15146E+00   -0.15146E+00  1304   0.857E-01 0.502E-04
CGA:   4    -0.202693746362E+04   -0.21008E-01   -0.21009E-01  1304   0.181E-01 0.573E-05
CGA:   5    -0.202694253976E+04   -0.50761E-02   -0.50764E-02  1304   0.394E-02 0.127E-04
CGA:   6    -0.202694395141E+04   -0.14117E-02   -0.14119E-02  1304   0.135E-02-0.369E-05
CGA:   7    -0.202694444752E+04   -0.49611E-03   -0.49581E-03  1304   0.504E-03 0.481E-05
CGA:   8    -0.202694461167E+04   -0.16415E-03   -0.16414E-03  1304   0.160E-03 0.811E-06
CGA:   9    -0.202694465672E+04   -0.45054E-04   -0.45060E-04  1304   0.500E-04 0.199E-06
CGA:  10    -0.202694466998E+04   -0.13260E-04   -0.13230E-04  1304   0.162E-04-0.698E-06
CGA:  11    -0.202694467470E+04   -0.47170E-05   -0.47200E-05  1304   0.511E-05 0.320E-06
CGA:  12    -0.202694467664E+04   -0.19429E-05   -0.19658E-05  1304   0.224E-05-0.318E-06
CGA:  13    -0.202694467726E+04   -0.62073E-06   -0.62244E-06  1304   0.819E-06 0.133E-06
CGA:  14    -0.202694467756E+04   -0.29930E-06   -0.30883E-06  1304   0.524E-06-0.200E-06
CGA:  15    -0.202694467762E+04   -0.60172E-07   -0.71106E-07  1304   0.162E-06 0.831E-07
  36 F= -.20483889E+04 E0= -.20483889E+04  d E =-.540713E-02
       N       E                     dE             d eps       ncg     rms          ort
SDA:   1    -0.202403638780E+04    0.29083E+01    0.00000E+00  1304   0.767E+01 0.000E+00
CGA:   2    -0.202623000359E+04   -0.21936E+01   -0.21936E+01  1304   0.209E+01-0.175E-02
CGA:   3    -0.202683515509E+04   -0.60515E+00   -0.60516E+00  1304   0.342E+00 0.490E-03
CGA:   4    -0.202691920187E+04   -0.84047E-01   -0.84051E-01  1304   0.724E-01 0.384E-04
CGA:   5    -0.202693947498E+04   -0.20273E-01   -0.20274E-01  1304   0.158E-01 0.312E-04
CGA:   6    -0.202694512090E+04   -0.56459E-02   -0.56464E-02  1304   0.539E-02-0.829E-05
CGA:   7    -0.202694710769E+04   -0.19868E-02   -0.19856E-02  1304   0.202E-02 0.164E-04
CGA:   8    -0.202694776311E+04   -0.65542E-03   -0.65548E-03  1304   0.654E-03-0.268E-05
CGA:   9    -0.202694794195E+04   -0.17884E-03   -0.17896E-03  1304   0.204E-03 0.447E-05
CGA:  10    -0.202694799681E+04   -0.54862E-04   -0.54728E-04  1304   0.649E-04-0.405E-05
CGA:  11    -0.202694801576E+04   -0.18954E-04   -0.18955E-04  1304   0.203E-04 0.167E-05
CGA:  12    -0.202694802353E+04   -0.77722E-05   -0.78757E-05  1304   0.913E-05-0.131E-05
CGA:  13    -0.202694802598E+04   -0.24483E-05   -0.24576E-05  1304   0.337E-05 0.631E-06
CGA:  14    -0.202694802719E+04   -0.12132E-05   -0.12410E-05  1304   0.185E-05-0.656E-06
CGA:  15    -0.202694802747E+04   -0.27631E-06   -0.30460E-06  1304   0.555E-06 0.285E-06
CGA:  16    -0.202694802762E+04   -0.15117E-06   -0.15698E-06  1304   0.226E-06 0.108E-06
CGA:  17    -0.202694802771E+04   -0.86889E-07   -0.11402E-06  1304   0.447E-06-0.214E-06
  37 F= -.20483907E+04 E0= -.20483907E+04  d E =-.723941E-02
       N       E                     dE             d eps       ncg     rms          ort
SDA:   1    -0.202651901367E+04    0.42901E+00    0.00000E+00  1304   0.114E+01 0.000E+00
CGA:   2    -0.202684470709E+04   -0.32569E+00   -0.32569E+00  1304   0.311E+00-0.596E-04
CGA:   3    -0.202693467510E+04   -0.89968E-01   -0.89968E-01  1304   0.512E-01-0.185E-04
CGA:   4    -0.202694715701E+04   -0.12482E-01   -0.12483E-01  1304   0.110E-01 0.223E-04
CGA:   5    -0.202695017479E+04   -0.30178E-02   -0.30177E-02  1304   0.251E-02-0.505E-05
CGA:   6    -0.202695099071E+04   -0.81592E-03   -0.81552E-03  1304   0.101E-02 0.111E-04
CGA:   7    -0.202695128267E+04   -0.29196E-03   -0.29193E-03  1304   0.473E-03-0.126E-04
CGA:   8    -0.202695141031E+04   -0.12764E-03   -0.12782E-03  1304   0.126E-03 0.105E-04
CGA:   9    -0.202695145277E+04   -0.42467E-04   -0.42569E-04  1304   0.326E-04-0.256E-05
CGA:  10    -0.202695146214E+04   -0.93693E-05   -0.93676E-05  1304   0.942E-05 0.135E-05
CGA:  11    -0.202695146536E+04   -0.32125E-05   -0.32610E-05  1304   0.479E-05-0.119E-05
CGA:  12    -0.202695146622E+04   -0.86301E-06   -0.91627E-06  1304   0.145E-05 0.710E-06
CGA:  13    -0.202695146676E+04   -0.54323E-06   -0.54573E-06  1304   0.665E-06-0.663E-07
CGA:  14    -0.202695146696E+04   -0.19699E-06   -0.33333E-06  1304   0.140E-05-0.585E-06
CGA:  15    -0.202695146705E+04   -0.90069E-07   -0.15999E-06  1304   0.185E-06 0.369E-06
  38 F= -.20483961E+04 E0= -.20483961E+04  d E =-.536617E-02
       N       E                     dE             d eps       ncg     rms          ort
SDA:   1    -0.202333055072E+04    0.36209E+01    0.00000E+00  1304   0.952E+01 0.000E+00
CGA:   2    -0.202605685932E+04   -0.27263E+01   -0.27263E+01  1304   0.261E+01-0.341E-02
CGA:   3    -0.202680934200E+04   -0.75248E+00   -0.75248E+00  1304   0.428E+00 0.713E-03
CGA:   4    -0.202691400306E+04   -0.10466E+00   -0.10467E+00  1304   0.915E-01 0.105E-03
CGA:   5    -0.202693921033E+04   -0.25207E-01   -0.25207E-01  1304   0.207E-01-0.481E-05
CGA:   6    -0.202694609572E+04   -0.68854E-02   -0.68839E-02  1304   0.819E-02 0.316E-04
CGA:   7    -0.202694849941E+04   -0.24037E-02   -0.24039E-02  1304   0.384E-02-0.306E-04
CGA:   8    -0.202694954387E+04   -0.10445E-02   -0.10449E-02  1304   0.109E-02 0.331E-04
CGA:   9    -0.202694989144E+04   -0.34758E-03   -0.34785E-03  1304   0.269E-03-0.868E-05
CGA:  10    -0.202694997198E+04   -0.80536E-04   -0.80478E-04  1304   0.830E-04 0.411E-05
CGA:  11    -0.202694999713E+04   -0.25153E-04   -0.25194E-04  1304   0.352E-04-0.367E-05
CGA:  12    -0.202695000600E+04   -0.88711E-05   -0.89214E-05  1304   0.119E-04 0.215E-05
CGA:  13    -0.202695001047E+04   -0.44681E-05   -0.45770E-05  1304   0.547E-05-0.143E-05
CGA:  14    -0.202695001184E+04   -0.13685E-05   -0.13708E-05  1304   0.156E-05 0.386E-06
CGA:  15    -0.202695001245E+04   -0.60696E-06   -0.61602E-06  1304   0.531E-06-0.112E-06
CGA:  16    -0.202695001261E+04   -0.16076E-06   -0.15946E-06  1304   0.209E-06 0.453E-07
CGA:  17    -0.202695001268E+04   -0.70824E-07   -0.70642E-07  1304   0.752E-07-0.231E-08
  39 F= -.20484004E+04 E0= -.20484004E+04  d E =-.964244E-02
       N       E                     dE             d eps       ncg     rms          ort
SDA:   1    -0.202674289579E+04    0.20712E+00    0.00000E+00  1304   0.550E+00 0.000E+00
CGA:   2    -0.202690030366E+04   -0.15741E+00   -0.15741E+00  1304   0.151E+00-0.639E-05
CGA:   3    -0.202694377950E+04   -0.43476E-01   -0.43476E-01  1304   0.248E-01 0.249E-04
CGA:   4    -0.202694981799E+04   -0.60385E-02   -0.60378E-02  1304   0.536E-02-0.117E-04
CGA:   5    -0.202695127988E+04   -0.14619E-02   -0.14620E-02  1304   0.122E-02 0.615E-05
CGA:   6    -0.202695167773E+04   -0.39784E-03   -0.39810E-03  1304   0.515E-03-0.785E-05
CGA:   7    -0.202695181617E+04   -0.13845E-03   -0.13866E-03  1304   0.218E-03 0.950E-05
CGA:   8    -0.202695188369E+04   -0.67517E-04   -0.67604E-04  1304   0.664E-04-0.677E-05
CGA:   9    -0.202695190308E+04   -0.19391E-04   -0.19374E-04  1304   0.155E-04 0.217E-05
CGA:  10    -0.202695190814E+04   -0.50586E-05   -0.50932E-05  1304   0.658E-05-0.138E-05
CGA:  11    -0.202695190935E+04   -0.12058E-05   -0.12735E-05  1304   0.179E-05 0.827E-06
CGA:  12    -0.202695191006E+04   -0.71619E-06   -0.73071E-06  1304   0.853E-06-0.204E-06
CGA:  13    -0.202695191033E+04   -0.26581E-06   -0.27656E-06  1304   0.494E-06-0.149E-06
CGA:  14    -0.202695191037E+04   -0.41589E-07   -0.63083E-07  1304   0.178E-06 0.151E-06
  40 F= -.20484009E+04 E0= -.20484009E+04  d E =-.101422E-01
       N       E                     dE             d eps       ncg     rms          ort
SDA:   1    -0.202671321797E+04    0.23869E+00    0.00000E+00  1304   0.634E+00 0.000E+00
CGA:   2    -0.202689477376E+04   -0.18156E+00   -0.18156E+00  1304   0.175E+00 0.573E-04
CGA:   3    -0.202694519334E+04   -0.50420E-01   -0.50420E-01  1304   0.296E-01-0.522E-04
CGA:   4    -0.202695219736E+04   -0.70040E-02   -0.70057E-02  1304   0.672E-02 0.361E-04
CGA:   5    -0.202695391758E+04   -0.17202E-02   -0.17197E-02  1304   0.175E-02-0.194E-04
CGA:   6    -0.202695438370E+04   -0.46612E-03   -0.46631E-03  1304   0.706E-03 0.158E-04
CGA:   7    -0.202695458922E+04   -0.20552E-03   -0.20561E-03  1304   0.263E-03-0.956E-05
CGA:   8    -0.202695467447E+04   -0.85255E-04   -0.84899E-04  1304   0.717E-04 0.753E-05
CGA:   9    -0.202695469861E+04   -0.24138E-04   -0.24258E-04  1304   0.256E-04-0.257E-05
CGA:  10    -0.202695470371E+04   -0.50953E-05   -0.52465E-05  1304   0.706E-05 0.209E-05
CGA:  11    -0.202695470618E+04   -0.24724E-05   -0.24958E-05  1304   0.243E-05-0.512E-06
CGA:  12    -0.202695470690E+04   -0.71494E-06   -0.70842E-06  1304   0.788E-06 0.207E-06
CGA:  13    -0.202695470721E+04   -0.31489E-06   -0.32247E-06  1304   0.347E-06-0.824E-07
CGA:  14    -0.202695470731E+04   -0.96057E-07   -0.95604E-07  1304   0.133E-06 0.193E-07
  41 F= -.20484059E+04 E0= -.20484059E+04  d E =-.504589E-02
       N       E                     dE             d eps       ncg     rms          ort
SDA:   1    -0.202596955891E+04    0.98515E+00    0.00000E+00  1304   0.258E+01 0.000E+00
CGA:   2    -0.202670880549E+04   -0.73925E+00   -0.73924E+00  1304   0.711E+00-0.119E-03
CGA:   3    -0.202691398723E+04   -0.20518E+00   -0.20518E+00  1304   0.120E+00-0.330E-04
CGA:   4    -0.202694252639E+04   -0.28539E-01   -0.28543E-01  1304   0.273E-01 0.719E-04
CGA:   5    -0.202694950585E+04   -0.69795E-02   -0.69783E-02  1304   0.707E-02-0.352E-04
CGA:   6    -0.202695140989E+04   -0.19040E-02   -0.19046E-02  1304   0.290E-02 0.313E-04
CGA:   7    -0.202695223817E+04   -0.82828E-03   -0.82824E-03  1304   0.106E-02-0.181E-04
CGA:   8    -0.202695258971E+04   -0.35154E-03   -0.35082E-03  1304   0.297E-03 0.153E-04
CGA:   9    -0.202695268632E+04   -0.96603E-04   -0.96767E-04  1304   0.100E-03-0.510E-05
CGA:  10    -0.202695270823E+04   -0.21915E-04   -0.22189E-04  1304   0.302E-04 0.420E-05
CGA:  11    -0.202695271790E+04   -0.96650E-05   -0.96954E-05  1304   0.998E-05-0.145E-05
CGA:  12    -0.202695272076E+04   -0.28646E-05   -0.28553E-05  1304   0.344E-05 0.762E-06
CGA:  13    -0.202695272211E+04   -0.13518E-05   -0.14061E-05  1304   0.195E-05-0.596E-06
CGA:  14    -0.202695272243E+04   -0.31856E-06   -0.34116E-06  1304   0.641E-06 0.275E-06
CGA:  15    -0.202695272264E+04   -0.21051E-06   -0.21039E-06  1304   0.234E-06 0.165E-07
CGA:  16    -0.202695272262E+04    0.22017E-07   -0.17618E-06  1304   0.153E-05-0.445E-06
CGA:  17    -0.202695272274E+04   -0.11531E-06   -0.17491E-06  1304   0.150E-06 0.301E-06
CGA:  18    -0.202695272275E+04   -0.18590E-07   -0.27064E-07  1304   0.588E-07 0.573E-07
  42 F= -.20484085E+04 E0= -.20484085E+04  d E =-.762210E-02
       N       E                     dE             d eps       ncg     rms          ort
SDA:   1    -0.202689632226E+04    0.56400E-01    0.00000E+00  1304   0.152E+00 0.000E+00
CGA:   2    -0.202693979849E+04   -0.43476E-01   -0.43476E-01  1304   0.418E-01-0.396E-04
CGA:   3    -0.202695185607E+04   -0.12058E-01   -0.12058E-01  1304   0.708E-02 0.280E-04
CGA:   4    -0.202695353878E+04   -0.16827E-02   -0.16817E-02  1304   0.163E-02-0.158E-04
CGA:   5    -0.202695394767E+04   -0.40888E-03   -0.40933E-03  1304   0.414E-03 0.988E-05
CGA:   6    -0.202695406286E+04   -0.11520E-03   -0.11506E-03  1304   0.178E-03-0.731E-05
CGA:   7    -0.202695411021E+04   -0.47344E-04   -0.47450E-04  1304   0.589E-04 0.466E-05
CGA:   8    -0.202695413227E+04   -0.22060E-04   -0.22307E-04  1304   0.194E-04-0.323E-05
CGA:   9    -0.202695413761E+04   -0.53474E-05   -0.53516E-05  1304   0.494E-05 0.109E-05
CGA:  10    -0.202695413923E+04   -0.16179E-05   -0.16360E-05  1304   0.283E-05-0.106E-05
CGA:  11    -0.202695413959E+04   -0.35411E-06   -0.40025E-06  1304   0.763E-06 0.396E-06
CGA:  12    -0.202695413975E+04   -0.15882E-06   -0.17377E-06  1304   0.368E-06 0.163E-06
CGA:  13    -0.202695413987E+04   -0.12598E-06   -0.20000E-06  1304   0.845E-06-0.458E-06
CGA:  14    -0.202695413992E+04   -0.49309E-07   -0.96994E-07  1304   0.147E-06 0.266E-06
  43 F= -.20484088E+04 E0= -.20484088E+04  d E =-.793057E-02
       N       E                     dE             d eps       ncg     rms          ort
SDA:   1    -0.202673390271E+04    0.22024E+00    0.00000E+00  1304   0.585E+00 0.000E+00
CGA:   2    -0.202690112516E+04   -0.16722E+00   -0.16722E+00  1304   0.162E+00 0.555E-04
CGA:   3    -0.202694815857E+04   -0.47033E-01   -0.47034E-01  1304   0.273E-01-0.354E-04
CGA:   4    -0.202695463061E+04   -0.64720E-02   -0.64738E-02  1304   0.621E-02 0.428E-04
CGA:   5    -0.202695623228E+04   -0.16017E-02   -0.16013E-02  1304   0.164E-02-0.194E-04
CGA:   6    -0.202695667025E+04   -0.43797E-03   -0.43809E-03  1304   0.667E-03 0.152E-04
CGA:   7    -0.202695686531E+04   -0.19506E-03   -0.19519E-03  1304   0.248E-03-0.890E-05
CGA:   8    -0.202695694507E+04   -0.79760E-04   -0.79400E-04  1304   0.676E-04 0.749E-05
CGA:   9    -0.202695696769E+04   -0.22617E-04   -0.22746E-04  1304   0.245E-04-0.269E-05
CGA:  10    -0.202695697257E+04   -0.48848E-05   -0.50159E-05  1304   0.667E-05 0.195E-05
CGA:  11    -0.202695697490E+04   -0.23247E-05   -0.23505E-05  1304   0.238E-05-0.530E-06
CGA:  12    -0.202695697557E+04   -0.67378E-06   -0.66878E-06  1304   0.780E-06 0.196E-06
CGA:  13    -0.202695697587E+04   -0.30183E-06   -0.30537E-06  1304   0.309E-06-0.481E-07
CGA:  14    -0.202695697597E+04   -0.98007E-07   -0.97930E-07  1304   0.136E-06 0.116E-08
  44 F= -.20484128E+04 E0= -.20484128E+04  d E =-.399281E-02
       N       E                     dE             d eps       ncg     rms          ort
SDA:   1    -0.202675865951E+04    0.19832E+00    0.00000E+00  1304   0.520E+00 0.000E+00
CGA:   2    -0.202690728950E+04   -0.14863E+00   -0.14863E+00  1304   0.144E+00 0.558E-04
CGA:   3    -0.202694909236E+04   -0.41803E-01   -0.41803E-01  1304   0.243E-01-0.338E-04
CGA:   4    -0.202695484293E+04   -0.57506E-02   -0.57525E-02  1304   0.552E-02 0.394E-04
CGA:   5    -0.202695626766E+04   -0.14247E-02   -0.14243E-02  1304   0.146E-02-0.180E-04
CGA:   6    -0.202695665696E+04   -0.38930E-03   -0.38951E-03  1304   0.593E-03 0.140E-04
CGA:   7    -0.202695683053E+04   -0.17357E-03   -0.17364E-03  1304   0.221E-03-0.821E-05
CGA:   8    -0.202695690135E+04   -0.70820E-04   -0.70532E-04  1304   0.601E-04 0.689E-05
CGA:   9    -0.202695692152E+04   -0.20175E-04   -0.20281E-04  1304   0.219E-04-0.248E-05
CGA:  10    -0.202695692585E+04   -0.43316E-05   -0.44643E-05  1304   0.595E-05 0.180E-05
CGA:  11    -0.202695692794E+04   -0.20851E-05   -0.21059E-05  1304   0.212E-05-0.469E-06
CGA:  12    -0.202695692855E+04   -0.61045E-06   -0.60629E-06  1304   0.702E-06 0.159E-06
CGA:  13    -0.202695692881E+04   -0.26394E-06   -0.26525E-06  1304   0.262E-06-0.216E-07
CGA:  14    -0.202695692891E+04   -0.94806E-07   -0.97124E-07  1304   0.142E-06-0.265E-07
  45 F= -.20484138E+04 E0= -.20484138E+04  d E =-.504319E-02
       N       E                     dE             d eps       ncg     rms          ort
SDA:   1    -0.202668755784E+04    0.26937E+00    0.00000E+00  1304   0.723E+00 0.000E+00
CGA:   2    -0.202689224187E+04   -0.20468E+00   -0.20468E+00  1304   0.197E+00 0.133E-04
CGA:   3    -0.202695029309E+04   -0.58051E-01   -0.58051E-01  1304   0.337E-01-0.704E-05
CGA:   4    -0.202695839662E+04   -0.81035E-02   -0.81047E-02  1304   0.721E-02 0.224E-04
CGA:   5    -0.202696038471E+04   -0.19881E-02   -0.19880E-02  1304   0.170E-02-0.692E-05
CGA:   6    -0.202696090946E+04   -0.52476E-03   -0.52448E-03  1304   0.715E-03 0.121E-04
CGA:   7    -0.202696111005E+04   -0.20059E-03   -0.20049E-03  1304   0.310E-03-0.109E-04
CGA:   8    -0.202696119870E+04   -0.88647E-04   -0.88622E-04  1304   0.799E-04 0.832E-05
CGA:   9    -0.202696122646E+04   -0.27762E-04   -0.27891E-04  1304   0.225E-04-0.245E-05
CGA:  10    -0.202696123239E+04   -0.59313E-05   -0.59512E-05  1304   0.680E-05 0.118E-05
CGA:  11    -0.202696123471E+04   -0.23221E-05   -0.23777E-05  1304   0.374E-05-0.128E-05
CGA:  12    -0.202696123530E+04   -0.58667E-06   -0.63108E-06  1304   0.113E-05 0.533E-06
CGA:  13    -0.202696123565E+04   -0.35459E-06   -0.35566E-06  1304   0.517E-06 0.948E-07
CGA:  14    -0.202696123574E+04   -0.86773E-07   -0.31406E-06  1304   0.233E-05-0.831E-06
CGA:  15    -0.202696123589E+04   -0.14801E-06   -0.24901E-06  1304   0.241E-06 0.523E-06
CGA:  16    -0.202696123590E+04   -0.15192E-07   -0.35169E-07  1304   0.985E-07 0.117E-06
  46 F= -.20484174E+04 E0= -.20484174E+04  d E =-.356814E-02
       N       E                     dE             d eps       ncg     rms          ort
SDA:   1    -0.202686905850E+04    0.92177E-01    0.00000E+00  1304   0.246E+00 0.000E+00
CGA:   2    -0.202693869154E+04   -0.69633E-01   -0.69633E-01  1304   0.671E-01 0.255E-04
CGA:   3    -0.202695844386E+04   -0.19752E-01   -0.19752E-01  1304   0.115E-01-0.809E-05
CGA:   4    -0.202696119901E+04   -0.27551E-02   -0.27557E-02  1304   0.245E-02 0.126E-04
CGA:   5    -0.202696187670E+04   -0.67769E-03   -0.67768E-03  1304   0.579E-03-0.441E-05
CGA:   6    -0.202696205449E+04   -0.17779E-03   -0.17758E-03  1304   0.241E-03 0.715E-05
CGA:   7    -0.202696212355E+04   -0.69066E-04   -0.69089E-04  1304   0.108E-03-0.670E-05
CGA:   8    -0.202696215307E+04   -0.29514E-04   -0.29512E-04  1304   0.267E-04 0.490E-05
CGA:   9    -0.202696216272E+04   -0.96493E-05   -0.97378E-05  1304   0.778E-05-0.127E-05
CGA:  10    -0.202696216475E+04   -0.20331E-05   -0.20377E-05  1304   0.214E-05 0.546E-06
CGA:  11    -0.202696216557E+04   -0.81793E-06   -0.89524E-06  1304   0.157E-05-0.712E-06
CGA:  12    -0.202696216571E+04   -0.14120E-06   -0.17380E-06  1304   0.631E-06 0.265E-06
CGA:  13    -0.202696216581E+04   -0.98866E-07   -0.11926E-06  1304   0.277E-06 0.168E-06
CGA:  14    -0.202696216591E+04   -0.10552E-06   -0.13283E-06  1304   0.338E-06-0.265E-06
CGA:  15    -0.202696216595E+04   -0.35754E-07   -0.51246E-07  1304   0.614E-07 0.119E-06
  47 F= -.20484179E+04 E0= -.20484179E+04  d E =-.407333E-02
       N       E                     dE             d eps       ncg     rms          ort
SDA:   1    -0.202682725612E+04    0.13491E+00    0.00000E+00  1304   0.371E+00 0.000E+00
CGA:   2    -0.202693292704E+04   -0.10567E+00   -0.10567E+00  1304   0.100E+00-0.130E-04
CGA:   3    -0.202696271268E+04   -0.29786E-01   -0.29785E-01  1304   0.161E-01 0.346E-04
CGA:   4    -0.202696665718E+04   -0.39445E-02   -0.39440E-02  1304   0.354E-02-0.174E-04
CGA:   5    -0.202696761424E+04   -0.95705E-03   -0.95708E-03  1304   0.818E-03 0.163E-04
CGA:   6    -0.202696788065E+04   -0.26642E-03   -0.26693E-03  1304   0.344E-03-0.987E-05
CGA:   7    -0.202696797357E+04   -0.92913E-04   -0.92923E-04  1304   0.145E-03 0.827E-05
CGA:   8    -0.202696801833E+04   -0.44763E-04   -0.44860E-04  1304   0.449E-04-0.365E-05
CGA:   9    -0.202696803166E+04   -0.13336E-04   -0.13291E-04  1304   0.106E-04 0.163E-05
CGA:  10    -0.202696803529E+04   -0.36249E-05   -0.37195E-05  1304   0.512E-05-0.158E-05
CGA:  11    -0.202696803609E+04   -0.79793E-06   -0.85663E-06  1304   0.140E-05 0.701E-06
CGA:  12    -0.202696803654E+04   -0.45079E-06   -0.45016E-06  1304   0.629E-06 0.949E-07
CGA:  13    -0.202696803671E+04   -0.16933E-06   -0.34137E-06  1304   0.196E-05-0.742E-06
CGA:  14    -0.202696803683E+04   -0.12395E-06   -0.20886E-06  1304   0.220E-06 0.467E-06
CGA:  15    -0.202696803685E+04   -0.16800E-07   -0.33407E-07  1304   0.921E-07 0.106E-06
  48 F= -.20484205E+04 E0= -.20484205E+04  d E =-.254755E-02
       N       E                     dE             d eps       ncg     rms          ort
SDA:   1    -0.202695507110E+04    0.12966E-01    0.00000E+00  1304   0.374E-01 0.000E+00
CGA:   2    -0.202696572002E+04   -0.10649E-01   -0.10649E-01  1304   0.101E-01-0.380E-05
CGA:   3    -0.202696872043E+04   -0.30004E-02   -0.30001E-02  1304   0.162E-02 0.111E-04
CGA:   4    -0.202696911928E+04   -0.39885E-03   -0.39868E-03  1304   0.359E-03-0.593E-05
CGA:   5    -0.202696921483E+04   -0.95557E-04   -0.95580E-04  1304   0.810E-04 0.505E-05
CGA:   6    -0.202696924225E+04   -0.27414E-04   -0.27617E-04  1304   0.364E-04-0.317E-05
CGA:   7    -0.202696925112E+04   -0.88785E-05   -0.89281E-05  1304   0.137E-04 0.249E-05
CGA:   8    -0.202696925585E+04   -0.47238E-05   -0.47751E-05  1304   0.483E-05-0.980E-06
CGA:   9    -0.202696925716E+04   -0.13071E-05   -0.13021E-05  1304   0.103E-05 0.384E-06
CGA:  10    -0.202696925757E+04   -0.41114E-06   -0.47167E-06  1304   0.707E-06-0.412E-06
CGA:  11    -0.202696925762E+04   -0.49549E-07   -0.66560E-07  1304   0.327E-06 0.132E-06
  49 F= -.20484206E+04 E0= -.20484206E+04  d E =-.271448E-02
       N       E                     dE             d eps       ncg     rms          ort
SDA:   1    -0.202688668071E+04    0.82577E-01    0.00000E+00  1304   0.230E+00 0.000E+00
CGA:   2    -0.202695143904E+04   -0.64758E-01   -0.64758E-01  1304   0.629E-01-0.237E-04
CGA:   3    -0.202696992814E+04   -0.18489E-01   -0.18489E-01  1304   0.106E-01 0.269E-04
CGA:   4    -0.202697244960E+04   -0.25215E-02   -0.25206E-02  1304   0.238E-02-0.256E-04
CGA:   5    -0.202697307104E+04   -0.62144E-03   -0.62161E-03  1304   0.577E-03 0.176E-04
CGA:   6    -0.202697323994E+04   -0.16890E-03   -0.16910E-03  1304   0.262E-03-0.101E-04
CGA:   7    -0.202697330778E+04   -0.67846E-04   -0.67892E-04  1304   0.905E-04 0.572E-05
CGA:   8    -0.202697333978E+04   -0.31996E-04   -0.32164E-04  1304   0.267E-04-0.221E-05
CGA:   9    -0.202697334802E+04   -0.82413E-05   -0.81958E-05  1304   0.649E-05 0.116E-05
CGA:  10    -0.202697335023E+04   -0.22055E-05   -0.22883E-05  1304   0.392E-05-0.138E-05
CGA:  11    -0.202697335070E+04   -0.46898E-06   -0.53416E-06  1304   0.106E-05 0.605E-06
CGA:  12    -0.202697335089E+04   -0.19686E-06   -0.22314E-06  1304   0.517E-06 0.283E-06
CGA:  13    -0.202697335110E+04   -0.20379E-06   -0.24212E-06  1304   0.613E-06-0.385E-06
CGA:  14    -0.202697335116E+04   -0.58833E-07   -0.85006E-07  1304   0.115E-06 0.191E-06
  50 F= -.20484227E+04 E0= -.20484227E+04  d E =-.211614E-02
       N       E                     dE             d eps       ncg     rms          ort
SDA:   1    -0.202695155327E+04    0.21798E-01    0.00000E+00  1304   0.613E-01 0.000E+00
CGA:   2    -0.202696881538E+04   -0.17262E-01   -0.17262E-01  1304   0.168E-01-0.145E-04
CGA:   3    -0.202697374232E+04   -0.49269E-02   -0.49266E-02  1304   0.281E-02 0.144E-04
CGA:   4    -0.202697441556E+04   -0.67325E-03   -0.67284E-03  1304   0.637E-03-0.137E-04
CGA:   5    -0.202697457996E+04   -0.16440E-03   -0.16447E-03  1304   0.152E-03 0.915E-05
CGA:   6    -0.202697462567E+04   -0.45708E-04   -0.45873E-04  1304   0.721E-04-0.532E-05
CGA:   7    -0.202697464334E+04   -0.17670E-04   -0.17711E-04  1304   0.236E-04 0.295E-05
CGA:   8    -0.202697465203E+04   -0.86869E-05   -0.87766E-05  1304   0.728E-05-0.997E-06
CGA:   9    -0.202697465429E+04   -0.22588E-05   -0.22415E-05  1304   0.153E-05 0.352E-06
CGA:  10    -0.202697465489E+04   -0.60095E-06   -0.66523E-06  1304   0.953E-06-0.462E-06
CGA:  11    -0.202697465497E+04   -0.82007E-07   -0.10727E-06  1304   0.361E-06 0.208E-06
  51 F= -.20484230E+04 E0= -.20484230E+04  d E =-.239987E-02
       N       E                     dE             d eps       ncg     rms          ort
SDA:   1    -0.202688739103E+04    0.87264E-01    0.00000E+00  1304   0.234E+00 0.000E+00
CGA:   2    -0.202695464637E+04   -0.67255E-01   -0.67255E-01  1304   0.640E-01 0.949E-05
CGA:   3    -0.202697339225E+04   -0.18746E-01   -0.18746E-01  1304   0.980E-02-0.890E-05
CGA:   4    -0.202697584659E+04   -0.24543E-02   -0.24544E-02  1304   0.209E-02 0.130E-05
CGA:   5    -0.202697642443E+04   -0.57784E-03   -0.57782E-03  1304   0.461E-03 0.369E-05
CGA:   6    -0.202697658923E+04   -0.16480E-03   -0.16503E-03  1304   0.157E-03-0.259E-05
CGA:   7    -0.202697664788E+04   -0.58650E-04   -0.58553E-04  1304   0.554E-04 0.968E-06
CGA:   8    -0.202697666728E+04   -0.19398E-04   -0.19356E-04  1304   0.152E-04 0.622E-06
CGA:   9    -0.202697667254E+04   -0.52639E-05   -0.52843E-05  1304   0.388E-05-0.345E-06
CGA:  10    -0.202697667382E+04   -0.12730E-05   -0.12614E-05  1304   0.100E-05 0.253E-06
CGA:  11    -0.202697667429E+04   -0.47284E-06   -0.52422E-06  1304   0.687E-06-0.254E-06
CGA:  12    -0.202697667438E+04   -0.86540E-07   -0.10294E-06  1304   0.269E-06 0.164E-06
  52 F= -.20484251E+04 E0= -.20484251E+04  d E =-.208121E-02
       N       E                     dE             d eps       ncg     rms          ort
SDA:   1    -0.202690454757E+04    0.72127E-01    0.00000E+00  1304   0.191E+00 0.000E+00
CGA:   2    -0.202695925523E+04   -0.54708E-01   -0.54708E-01  1304   0.521E-01 0.900E-05
CGA:   3    -0.202697450493E+04   -0.15250E-01   -0.15250E-01  1304   0.797E-02-0.795E-05
CGA:   4    -0.202697650132E+04   -0.19964E-02   -0.19964E-02  1304   0.170E-02 0.105E-05
CGA:   5    -0.202697697168E+04   -0.47036E-03   -0.47040E-03  1304   0.375E-03 0.310E-05
CGA:   6    -0.202697710577E+04   -0.13410E-03   -0.13425E-03  1304   0.128E-03-0.220E-05
CGA:   7    -0.202697715345E+04   -0.47676E-04   -0.47611E-04  1304   0.453E-04 0.791E-06
CGA:   8    -0.202697716924E+04   -0.15794E-04   -0.15766E-04  1304   0.125E-04 0.547E-06
CGA:   9    -0.202697717356E+04   -0.43130E-05   -0.43268E-05  1304   0.323E-05-0.305E-06
CGA:  10    -0.202697717459E+04   -0.10317E-05   -0.10261E-05  1304   0.864E-06 0.218E-06
CGA:  11    -0.202697717498E+04   -0.38616E-06   -0.41439E-06  1304   0.609E-06-0.191E-06
CGA:  12    -0.202697717506E+04   -0.82364E-07   -0.95174E-07  1304   0.220E-06 0.116E-06
  53 F= -.20484257E+04 E0= -.20484257E+04  d E =-.263997E-02
       N       E                     dE             d eps       ncg     rms          ort
SDA:   1    -0.202686010568E+04    0.11707E+00    0.00000E+00  1304   0.308E+00 0.000E+00
CGA:   2    -0.202694723496E+04   -0.87129E-01   -0.87130E-01  1304   0.832E-01 0.442E-04
CGA:   3    -0.202697171159E+04   -0.24477E-01   -0.24477E-01  1304   0.135E-01-0.251E-04
CGA:   4    -0.202697497474E+04   -0.32631E-02   -0.32647E-02  1304   0.306E-02 0.282E-04
CGA:   5    -0.202697575984E+04   -0.78510E-03   -0.78450E-03  1304   0.804E-03-0.152E-04
CGA:   6    -0.202697597359E+04   -0.21375E-03   -0.21399E-03  1304   0.322E-03 0.907E-05
CGA:   7    -0.202697606826E+04   -0.94676E-04   -0.94664E-04  1304   0.124E-03-0.572E-05
CGA:   8    -0.202697610715E+04   -0.38889E-04   -0.38762E-04  1304   0.333E-04 0.509E-05
CGA:   9    -0.202697611881E+04   -0.11661E-04   -0.11743E-04  1304   0.123E-04-0.183E-05
CGA:  10    -0.202697612111E+04   -0.22929E-05   -0.24057E-05  1304   0.333E-05 0.127E-05
CGA:  11    -0.202697612228E+04   -0.11775E-05   -0.11850E-05  1304   0.115E-05-0.248E-06
CGA:  12    -0.202697612267E+04   -0.38527E-06   -0.38628E-06  1304   0.451E-06-0.144E-07
CGA:  13    -0.202697612279E+04   -0.11811E-06   -0.12001E-06  1304   0.135E-06 0.733E-07
CGA:  14    -0.202697612278E+04    0.12595E-07   -0.14399E-06  1304   0.715E-06-0.252E-06
CGA:  15    -0.202697612285E+04   -0.73407E-07   -0.10590E-06  1304   0.109E-06 0.182E-06
  54 F= -.20484276E+04 E0= -.20484276E+04  d E =-.188775E-02
       N       E                     dE             d eps       ncg     rms          ort
SDA:   1    -0.202695890044E+04    0.17222E-01    0.00000E+00  1304   0.431E-01 0.000E+00
CGA:   2    -0.202697109899E+04   -0.12199E-01   -0.12199E-01  1304   0.116E-01 0.193E-04
CGA:   3    -0.202697452848E+04   -0.34295E-02   -0.34293E-02  1304   0.190E-02-0.105E-04
CGA:   4    -0.202697498339E+04   -0.45491E-03   -0.45561E-03  1304   0.426E-03 0.100E-04
CGA:   5    -0.202697509452E+04   -0.11113E-03   -0.11085E-03  1304   0.115E-03-0.561E-05
CGA:   6    -0.202697512384E+04   -0.29327E-04   -0.29472E-04  1304   0.437E-04 0.325E-05
CGA:   7    -0.202697513753E+04   -0.13684E-04   -0.13685E-04  1304   0.183E-04-0.209E-05
CGA:   8    -0.202697514259E+04   -0.50598E-05   -0.50808E-05  1304   0.445E-05 0.174E-05
CGA:   9    -0.202697514434E+04   -0.17561E-05   -0.17880E-05  1304   0.179E-05-0.494E-06
CGA:  10    -0.202697514461E+04   -0.27007E-06   -0.30980E-06  1304   0.495E-06 0.355E-06
CGA:  11    -0.202697514477E+04   -0.15715E-06   -0.15796E-06  1304   0.167E-06 0.205E-07
CGA:  12    -0.202697514458E+04    0.19345E-06   -0.19306E-06  1304   0.205E-05-0.475E-06
CGA:  13    -0.202697514476E+04   -0.18613E-06   -0.26949E-06  1304   0.256E-06 0.402E-06
CGA:  14    -0.202697514483E+04   -0.65171E-07   -0.68448E-07  1304   0.854E-07 0.320E-07
CGA:  15    -0.202697514489E+04   -0.66386E-07    0.22967E-06  1304   0.754E-07-0.464E-07
  55 F= -.20484277E+04 E0= -.20484277E+04  d E =-.201091E-02
       N       E                     dE             d eps       ncg     rms          ort
SDA:   1    -0.202686605472E+04    0.10909E+00    0.00000E+00  1304   0.291E+00 0.000E+00
CGA:   2    -0.202694818076E+04   -0.82126E-01   -0.82127E-01  1304   0.796E-01 0.498E-04
CGA:   3    -0.202697144409E+04   -0.23263E-01   -0.23263E-01  1304   0.135E-01-0.183E-04
CGA:   4    -0.202697463812E+04   -0.31940E-02   -0.31958E-02  1304   0.310E-02 0.258E-04
CGA:   5    -0.202697542979E+04   -0.79167E-03   -0.79094E-03  1304   0.826E-03-0.147E-04
CGA:   6    -0.202697564565E+04   -0.21586E-03   -0.21625E-03  1304   0.324E-03 0.100E-04
CGA:   7    -0.202697574323E+04   -0.97582E-04   -0.97566E-04  1304   0.121E-03-0.493E-05
CGA:   8    -0.202697578183E+04   -0.38605E-04   -0.38493E-04  1304   0.328E-04 0.490E-05
CGA:   9    -0.202697579303E+04   -0.11191E-04   -0.11244E-04  1304   0.131E-04-0.190E-05
CGA:  10    -0.202697579539E+04   -0.23637E-05   -0.24870E-05  1304   0.333E-05 0.122E-05
CGA:  11    -0.202697579655E+04   -0.11597E-05   -0.11623E-05  1304   0.108E-05-0.125E-06
CGA:  12    -0.202697579696E+04   -0.41495E-06   -0.44297E-06  1304   0.674E-06-0.224E-06
CGA:  13    -0.202697579704E+04   -0.75750E-07   -0.95999E-07  1304   0.234E-06 0.162E-06
  56 F= -.20484295E+04 E0= -.20484295E+04  d E =-.184790E-02
