Zn6 H96 C144 N24 O24
1.0
   0.0000000000000000    0.0000000000000000  -11.5172699999999999
  -9.5348750000000013  -16.5148879438182981   -0.0000000000000023
  -9.5348749999999978   16.5148879438182981    0.0000000000000012
Zn H C N O
6 96 144 24 24
direct
   0.8099494000000000    0.3647673000000000    0.3296233000000000 Zn
   0.8099494000000000    0.9648560000000000    0.6352327000000001 Zn
   0.8099494000000000    0.6703767000000000    0.0351440000000000 Zn
   0.6915949000000000    0.6976570000000000    0.6960765000000000 Zn
   0.6915949000000000    0.9984195000000000    0.3023430000000000 Zn
   0.6915949000000000    0.3039235000000000    0.0015804999999999 Zn
   0.0976695000000000    0.8139471000000000    0.4829190999999999 H
   0.0976695000000000    0.6689719999999999    0.1860529000000000 H
   0.0976695000000001    0.5170809000000001    0.3310280000000002 H
   0.0130365000000001    0.7287120000000000    0.6467780000000000 H
   0.0130365000000000    0.9180659999999999    0.2712880000000000 H
   0.0130365000000000    0.3532220000000000    0.0819340000000001 H
   0.1660399999999999    0.6222645000000000    0.5835966000000000 H
   0.1660400000000000    0.9613321000000000    0.3777355000000000 H
   0.1660399999999999    0.4164034000000000    0.0386678999999999 H
   0.2499897000000000    0.7091709000000002    0.4197909000000001 H
   0.2499896999999999    0.7106200000000000    0.2908291000000001 H
   0.2499897000000000    0.5802091000000000    0.2893800000000000 H
   0.4289548000000000    0.6727406000000000    0.4425139000000000 H
   0.4289548000000000    0.7697733000000000    0.3272594000000000 H
   0.4289548000000000    0.5574861000000000    0.2302267000000000 H
   0.2122118000000000    0.5033913999999999    0.4689176000000000 H
   0.2122118000000000    0.9655262000000000    0.4966086000000001 H
   0.2122118000000001    0.5310824000000001    0.0344738000000001 H
   0.3761840000000000    0.4039945000000000    0.4214787000000000 H
   0.3761840000000000    0.0174842000000001    0.5960055000000000 H
   0.3761840000000000    0.5785213000000000    0.9825158000000001 H
   0.5886439000000000    0.5712316000000000    0.3910919000000000 H
   0.5886439000000000    0.8198603000000001    0.4287684000000001 H
   0.5886439000000000    0.6089081000000001    0.1801397000000000 H
   0.8365751000000000    0.2173431000000000    0.1495197000000001 H
   0.8365751000000000    0.9321766000000000    0.7826569000000000 H
   0.8365751000000000    0.8504803000000000    0.0678234000000000 H
   0.6381770000000000    0.2414836000000000    0.3457787000000001 H
   0.6381770000000000    0.1042951000000001    0.7585164000000001 H
   0.6381770000000000    0.6542213000000000    0.8957049000000000 H
   0.6024172999999999    0.0858378999999999    0.2137627999999999 H
   0.6024172999999999    0.1279249000000000    0.9141621000000000 H
   0.6024172999999999    0.7862372000000000    0.8720751000000000 H
   0.7220394999999999    0.1411437000000001    0.0236328000000001 H
   0.7220394999999999    0.8824890999999999    0.8588563000000000 H
   0.7220394999999999    0.9763672000000000    0.1175109000000000 H
   0.7500860000000000    0.3414040000000000    0.4857547000000000 H
   0.7500860000000000    0.1443506999999999    0.6585960000000001 H
   0.7500860000000000    0.5142453000000000    0.8556492999999999 H
   0.0498350000000000    0.4238011000000000    0.4233469000000000 H
   0.0498350000000000    0.9995458000000000    0.5761989000000000 H
   0.0498350000000000    0.5766530999999999    0.0004542000000000 H
   0.0954637000000002    0.4174897000000000    0.5650588999999999 H
   0.0954637000000000    0.1475692000000000    0.5825102999999999 H
   0.0954637000000002    0.4349411000000000    0.8524308000000000 H
   0.9102347000000000    0.4796290999999998    0.7044532999999998 H
   0.9102347000000000    0.2248242000000000    0.5203709000000001 H
   0.9102347000000000    0.2955467000000001    0.7751758000000000 H
   0.0130302000000000    0.1541047000000000    0.7646984000000000 H
   0.0130302000000001    0.6105936999999999    0.8458953000000000 H
   0.0130302000000000    0.2353016000000000    0.3894063000000000 H
   0.9707200000000000    0.1508504999999999    0.9863559999999999 H
   0.9707200000000000    0.8355055000000000    0.8491495000000000 H
   0.9707200000000000    0.0136440000000000    0.1644945000000000 H
   0.1240490000000000    0.0452800999999999    0.9437259999999998 H
   0.1240490000000000    0.8984458999999999    0.9547199000000000 H
   0.1240490000000000    0.0562739999999998    0.1015540999999999 H
   0.1635369000000001    0.0462157000000000    0.7194750000000000 H
   0.1635369000000000    0.6732593000000000    0.9537843000000000 H
   0.1635369000000000    0.2805250000000000    0.3267407000000001 H
   0.1841983000000000    0.9143925000000001    0.6754604000000000 H
   0.1841983000000000    0.7610678999999999    0.0856074999999999 H
   0.1841983000000000    0.3245396000000002    0.2389321000000001 H
   0.3247060000000001    0.0174312000000000    0.9166162000000000 H
   0.3247060000000001    0.8991850000000000    0.9825688000000000 H
   0.3247060000000001    0.0833837999999998    0.1008149999999999 H
   0.4779031000000000    0.9108704000000000    0.8642651000000001 H
   0.4779031000000000    0.9533947000000000    0.0891296000000000 H
   0.4779031000000000    0.1357349000000001    0.0466053000000001 H
   0.3390659000000000    0.8097718000000000    0.6240064000000000 H
   0.3390659000000000    0.8142345999999999    0.1902282000000000 H
   0.3390659000000000    0.3759936000000000    0.1857654000000000 H
   0.6884771000000001    0.7392856000000000    0.5497212000000000 H
   0.6884771000000001    0.8104356000000000    0.2607144000000000 H
   0.6884771000000001    0.4502788000000000    0.1895643999999999 H
   0.8604547000000000    0.5580208000000000    0.5751381000000000 H
   0.8604547000000000    0.0171173000000000    0.4419792000000000 H
   0.8604547000000000    0.4248619000000001    0.9828827000000001 H
   0.9119966000000000    0.5365893000000000    0.4220628000000001 H
   0.9119966000000000    0.8854734999999999    0.4634107000000001 H
   0.9119966000000000    0.5779372000000000    0.1145265000000001 H
   0.8029808000000001    0.7862400000000000    0.4730648000000000 H
   0.8029807999999999    0.6868247999999999    0.2137600000000001 H
   0.8029808000000001    0.5269352000000000    0.3131752000000000 H
   0.4781774000000000    0.5970785000000001    0.5909933000000001 H
   0.4781774000000000    0.9939148000000001    0.4029215000000000 H
   0.4781774000000000    0.4090066999999999    0.0060851999999999 H
   0.4293509000000000    0.4413872000000000    0.5627126000000000 H
   0.4293509000000000    0.1213254000000000    0.5586127999999999 H
   0.4293509000000000    0.4372874000000000    0.8786746000000000 H
   0.6994597000000000    0.5483532000000000    0.7371734999999999 H
   0.6994597000000000    0.1888203000000001    0.4516468000000000 H
   0.6994597000000000    0.2628265000000001    0.8111797000000001 H
   0.5619810000000001    0.4688821000000001    0.7924782000000001 H
   0.5619810000000001    0.3235961000000001    0.5311178999999999 H
   0.5619810000000000    0.2075218000000000    0.6764038999999999 H
   0.9542378000000000    0.8405628000000001    0.6082748000000000 C
   0.9542378000000000    0.7677120000000000    0.1594372000000000 C
   0.9542378000000000    0.3917252000000000    0.2322880000000000 C
   0.0456128000000001    0.7772215000000000    0.5685473000000000 C
   0.0456128000000000    0.7913258000000000    0.2227785000000000 C
   0.0456127999999999    0.4314527000000001    0.2086742000000001 C
   0.1127208000000000    0.7715818000000001    0.5045630000000000 C
   0.1127208000000000    0.7329812000000000    0.2284182000000000 C
   0.1127208000000001    0.4954370000000000    0.2670188000000001 C
   0.0649716000000000    0.7226744000000001    0.5962704000000000 C
   0.0649715999999999    0.8735959999999999    0.2773255999999999 C
   0.0649716000000000    0.4037296000000000    0.1264040000000000 C
   0.1495326000000000    0.6631815000000000    0.5602721000000001 C
   0.1495326000000000    0.8970906000000001    0.3368185000000000 C
   0.1495326000000000    0.4397278999999999    0.1029093999999999 C
   0.1980596999999999    0.7125091000000001    0.4691807000000000 C
   0.1980596999999999    0.7566716000000000    0.2874909000000000 C
   0.1980596999999999    0.5308193000000000    0.2433284000000000 C
   0.2176147999999999    0.6570598000000001    0.4961899000000000 C
   0.2176148000000000    0.8391301000000001    0.3429402000000000 C
   0.2176147999999999    0.5038101000000000    0.1608699000000000 C
   0.3097400000000000    0.5955311000000001    0.4605167000000001 C
   0.3097400000000000    0.8649856000000000    0.4044689000000000 C
   0.3097400000000000    0.5394832999999999    0.1350144000000000 C
   0.4155385000000000    0.6130733000000000    0.4358662999999999 C
   0.4155385000000000    0.8227929999999999    0.3869267000000000 C
   0.4155385000000000    0.5641337000000000    0.1772070000000000 C
   0.2956083000000000    0.5187217000000000    0.4529814000000000 C
   0.2956082999999999    0.9342597000000000    0.4812783000000000 C
   0.2956083000000000    0.5470185999999999    0.0657402999999999 C
   0.3862409999999999    0.4632179000000001    0.4264886000000002 C
   0.3862409999999999    0.9632707000000000    0.5367821000000000 C
   0.3862409999999999    0.5735114000000000    0.0367293000000000 C
   0.5056407000000001    0.5570615000000000    0.4083674000000000 C
   0.5056407000000001    0.8513059000000001    0.4429385000000001 C
   0.5056407000000001    0.5916326000000001    0.1486941000000000 C
   0.4933888000000000    0.4828522000000000    0.4060944000000000 C
   0.4933888000000000    0.9232422000000000    0.5171478000000000 C
   0.4933888000000000    0.5939056000000000    0.0767578000000000 C
   0.5959582999999999    0.4284848999999999    0.3885370000000000 C
   0.5959582999999999    0.9600521000000000    0.5715151000000001 C
   0.5959582999999999    0.6114630000000000    0.0399479000000000 C
   0.7792368000000001    0.2024863000000000    0.1853195000000001 C
   0.7792368000000001    0.9828332000000001    0.7975137000000001 C
   0.7792368000000001    0.8146804999999999    0.0171668000000000 C
   0.6762131000000000    0.2114806000000000    0.2859323000000000 C
   0.6762131000000000    0.0744517000000000    0.7885194000000000 C
   0.6762131000000000    0.7140677000000000    0.9255483000000000 C
   0.6557710000000000    0.1360724999999999    0.2213963000000000 C
   0.6557710000000000    0.0853237999999999    0.8639275000000000 C
   0.6557710000000000    0.7786037000000000    0.9146762000000001 C
   0.7256046000000000    0.0648890000000000    0.0781244999999999 C
   0.7256046000000000    0.0132355000000001    0.9351109999999999 C
   0.7256046000000000    0.9218755000000000    0.9867645000000000 C
   0.7257349000000000    0.0796430000000000    0.0134685000000000 C
   0.7257349000000000    0.9338255000000000    0.9203570000000001 C
   0.7257349000000000    0.9865315000000000    0.0661745000000000 C
   0.8383066000000000    0.3615535999999999    0.4868482000000000 C
   0.8383066000000000    0.1252946000000000    0.6384464000000001 C
   0.8383066000000000    0.5131517999999999    0.8747054000000000 C
   0.9954549000000000    0.4063312000000000    0.4584323000000000 C
   0.9954549000000000    0.0521010999999999    0.5936687999999999 C
   0.9954549000000000    0.5415677000000001    0.9478989000000000 C
   0.0188805000000000    0.4033777000000000    0.5274058000000000 C
   0.0188805000000000    0.1240281000000001    0.5966223000000000 C
   0.0188805000000000    0.4725942000000000    0.8759719000000000 C
   0.9083734000000000    0.3539973000000000    0.6068189000000000 C
   0.9083734000000000    0.2528216000000001    0.6460027000000000 C
   0.9083734000000000    0.3931811000000000    0.7471783999999999 C
   0.9081336000000000    0.4156021000000000    0.6877043000000000 C
   0.9081336000000000    0.2721022000000000    0.5843978999999999 C
   0.9081336000000000    0.3122957000000001    0.7278978000000000 C
   0.8873435000000000    0.2203459999999999    0.9013087000000000 C
   0.8873435000000000    0.6809627000000000    0.7796540000000001 C
   0.8873435000000000    0.0986913000000000    0.3190373000000000 C
   0.9821334000000000    0.1587168000000000    0.8778108999999999 C
   0.9821334000000000    0.7190941000000000    0.8412832000000000 C
   0.9821334000000000    0.1221891000000001    0.2809059000000000 C
   0.0375833000000001    0.1292226000000001    0.8030015000000001 C
   0.0375833000000000    0.6737789000000001    0.8707774000000000 C
   0.0375833000000000    0.1969985000000000    0.3262211000000000 C
   0.0142816000000000    0.1278981999999999    0.9281947999999999 C
   0.0142816000000000    0.8002966000000000    0.8721018000000000 C
   0.0142816000000000    0.0718052000000000    0.1997034000000000 C
   0.1000998000000000    0.0688031000000000    0.9039677000000000 C
   0.1000998000000000    0.8351646000000000    0.9311969000000000 C
   0.1000998000000001    0.0960323000000000    0.1648354000000000 C
   0.1212247000000000    0.0690157000000000    0.7780628000000001 C
   0.1212247000000000    0.7090471000000000    0.9309843000000000 C
   0.1212247000000000    0.2219371999999998    0.2909528999999998 C
   0.1542838000000000    0.0375628999999998    0.8279811999999999 C
   0.1542838000000000    0.7904183000000000    0.9624371000000000 C
   0.1542838000000001    0.1720188000000000    0.2095817000000000 C
   0.2437868999999999    0.9737992000000001    0.7995782000000000 C
   0.2437869000000000    0.8257790000000000    0.0262008000000000 C
   0.2437869000000000    0.2004218000000001    0.1742210000000000 C
   0.2494889000000000    0.9147345000000000    0.7169927000000000 C
   0.2494888999999999    0.8022582000000000    0.0852655000000000 C
   0.2494889000000000    0.2830073000000000    0.1977418000000000 C
   0.3264054000000000    0.9711276000000000    0.8525782000000001 C
   0.3264054000000000    0.8814506000000000    0.0288724000000000 C
   0.3264054000000000    0.1474218000000002    0.1185494000000002 C
   0.4128452000000000    0.9121148000000000    0.8233733000000000 C
   0.4128452000000000    0.9112585000000000    0.0878852000000000 C
   0.4128452000000000    0.1766267000000000    0.0887415000000000 C
   0.3352481000000000    0.8557139000000000    0.6879056000000000 C
   0.3352481000000000    0.8321917000000000    0.1442861000000000 C
   0.3352481000000000    0.3120944000000000    0.1678083000000001 C
   0.4183875000000000    0.8540559000000000    0.7407134000000001 C
   0.4183875000000000    0.8866575000000000    0.1459441000000000 C
   0.4183875000000000    0.2592866000000000    0.1133425000000001 C
   0.5099458000000001    0.7899816000000000    0.7069594000000000 C
   0.5099458000000001    0.9169778000000001    0.2100184000000001 C
   0.5099458000000000    0.2930406000000000    0.0830221999999999 C
   0.7436560000000000    0.6883007000000000    0.5373658000000000 C
   0.7436560000000000    0.8490651000000000    0.3116993000000000 C
   0.7436560000000000    0.4626342000000001    0.1509349000000000 C
   0.8324723000000001    0.5917479000000001    0.5462842000000000 C
   0.8324723000000001    0.9545363000000000    0.4082521000000000 C
   0.8324723000000001    0.4537158000000001    0.0454637000000001 C
   0.8594537000000000    0.5809347000000000    0.4716559000000001 C
   0.8594537000000000    0.8907212000000000    0.4190653000000000 C
   0.8594537000000000    0.5283441000000000    0.1092788000000000 C
   0.8040690000000000    0.6551453000000000    0.3994812000000000 C
   0.8040690000000000    0.7443359000000001    0.3448547000000000 C
   0.8040690000000000    0.6005188000000000    0.2556641000000001 C
   0.8041140000000000    0.7338626000000000    0.4122485000000000 C
   0.8041140000000000    0.6783859000000000    0.2661374000000000 C
   0.8041140000000000    0.5877515000000000    0.3216141000000001 C
   0.5144342000000001    0.5632412000000000    0.6176221000000000 C
   0.5144342000000001    0.0543809000000000    0.4367588000000000 C
   0.5144342000000000    0.3823778999999999    0.9456191000000000 C
   0.4893104000000000    0.4872221000000000    0.6037224999999999 C
   0.4893104000000000    0.1165004000000001    0.5127779000000000 C
   0.4893104000000000    0.3962774999999999    0.8834995999999999 C
   0.6285107000000000    0.5421007000000000    0.6969885999999998 C
   0.6285107000000000    0.1548879000000001    0.4578993000000001 C
   0.6285107000000000    0.3030114000000000    0.8451121000000000 C
   0.5649316000000000    0.4033081000000001    0.6610554000000001 C
   0.5649316000000000    0.2577472999999999    0.5966918999999999 C
   0.5649316000000000    0.3389446000000000    0.7422527000000001 C
   0.5648950000000000    0.4098027999999999    0.7373969999999999 C
   0.5648950000000000    0.3275941999999998    0.5901971999999999 C
   0.5648949999999999    0.2626030000000001    0.6724058000000002 C
   0.7535864999999999    0.2518283000000000    0.2627149000000000 N
   0.7535864999999999    0.0108866000000000    0.7481717000000000 N
   0.7535864999999999    0.7372851000000000    0.9891134000000000 N
   0.7215080000000000    0.1313688000000000    0.1581515999999999 N
   0.7215080000000000    0.0267828000000001    0.8686312000000000 N
   0.7215080000000000    0.8418483999999999    0.9732172000000000 N
   0.8829239000000000    0.3805297999999999    0.4344366000000000 N
   0.8829239000000000    0.0539068000000000    0.6194702000000001 N
   0.8829239000000000    0.5655634000000000    0.9460932000000000 N
   0.9183185000000000    0.3746138000000000    0.5446637000000000 N
   0.9183185000000000    0.1700499000000000    0.6253862000000000 N
   0.9183185000000000    0.4553363000000000    0.8299501000000000 N
   0.7601087000000000    0.6582653999999999    0.5859547000000001 N
   0.7601087000000000    0.9276893000000000    0.3417346000000000 N
   0.7601087000000000    0.4140452999999999    0.0723107000000000 N
   0.8031955000000000    0.6428569000000000    0.4668955000000000 N
   0.8031955000000000    0.8240386000000001    0.3571431000000000 N
   0.8031955000000000    0.5331045000000001    0.1759614000000000 N
   0.6017178000000001    0.5960749999999999    0.6751522999999999 N
   0.6017178000000001    0.0790773000000000    0.4039250000000000 N
   0.6017178000000001    0.3248477000000000    0.9209227000000000 N
   0.5614385000000000    0.4743657000000000    0.6548185000000000 N
   0.5614385000000000    0.1804528000000000    0.5256343000000001 N
   0.5614385000000001    0.3451815000000000    0.8195472000000000 N
   0.6789277000000000    0.4383892000000000    0.3481996000000001 O
   0.6789277000000000    0.9098104000000000    0.5616108000000000 O
   0.6789277000000000    0.6518003999999999    0.0901896000000000 O
   0.5988888000000001    0.3797907000000000    0.4148545000000001 O
   0.5988888000000000    0.0350638000000000    0.6202093000000000 O
   0.5988888000000000    0.5851455000000000    0.9649362000000000 O
   0.9450698000000000    0.8921683000000000    0.5823935000000001 O
   0.9450698000000000    0.6902252000000000    0.1078317000000000 O
   0.9450698000000000    0.4176065000000000    0.3097748000000000 O
   0.8905230000000000    0.8421662000000000    0.6620621000000001 O
   0.8905230000000000    0.8198959000000000    0.1578338000000000 O
   0.8905230000000000    0.3379378999999999    0.1801041000000000 O
   0.5089579000000000    0.7365124000000000    0.6336306000000000 O
   0.5089579000000000    0.8971182000000001    0.2634876000000000 O
   0.5089579000000000    0.3663694000000000    0.1028817999999999 O
   0.5891138000000000    0.7929764000000000    0.7575591000000000 O
   0.5891138000000000    0.9645827000000000    0.2070236000000000 O
   0.5891138000000000    0.2424409000000000    0.0354173000000000 O
   0.8258818000000000    0.2308220000000000    0.9625019000000000 O
   0.8258818000000000    0.7316799000000000    0.7691780000000000 O
   0.8258818000000000    0.0374981000000001    0.2683201000000001 O
   0.8714226000000000    0.2561559000000000    0.8616030000000000 O
   0.8714226000000000    0.6054471000000000    0.7438441000000000 O
   0.8714226000000000    0.1383969999999999    0.3945528999999999 O
