submit directory /gpfs/home3/srinidhi/BEC_work/highthroughput/mof_calcs/02-02-2022_Zn/HOPDIB_FSR
 running on  128 total cores
 distrk:  each k-point on   32 cores,    4 groups
 distr:  one band on   16 cores,    2 groups
 using from now: INCAR     
 vasp.5.4.4.18Apr17-6-g9f103f2a35 (build Oct 14 2021 09:59:43) complex           
 POSCAR found type information on POSCAR  Zn H  C  N  O 
 POSCAR found :  5 types and     294 ions
 scaLAPACK will be used

 ----------------------------------------------------------------------------- 
|                                                                             |
|           W    W    AA    RRRRR   N    N  II  N    N   GGGG   !!!           |
|           W    W   A  A   R    R  NN   N  II  NN   N  G    G  !!!           |
|           W    W  A    A  R    R  N N  N  II  N N  N  G       !!!           |
|           W WW W  AAAAAA  RRRRR   N  N N  II  N  N N  G  GGG   !            |
|           WW  WW  A    A  R   R   N   NN  II  N   NN  G    G                |
|           W    W  A    A  R    R  N    N  II  N    N   GGGG   !!!           |
|                                                                             |
|      You have enabled k-point parallelism (KPAR>1).                         |
|      This developmental code was originally  written by Paul Kent at ORNL,  |
|      and carefully double checked in Vienna.                                |
|      GW as well as linear response parallelism added by Martijn Marsman     |
|      and Georg Kresse.                                                      |
|      Carefully verify results versus KPAR=1.                                |
|      Report problems to Paul Kent and Vienna.                               |
|                                                                             |
 ----------------------------------------------------------------------------- 


 ----------------------------------------------------------------------------- 
|                                                                             |
|  ADVICE TO THIS USER RUNNING 'VASP/VAMP'   (HEAR YOUR MASTER'S VOICE ...):  |
|                                                                             |
|      You have a (more or less) 'large supercell' and for larger cells       |
|      it might be more efficient to use real space projection opertators     |
|      So try LREAL= Auto  in the INCAR   file.                               |
|      Mind:          For very  accurate calculation you might also keep the  |
|      reciprocal projection scheme          (i.e. LREAL=.FALSE.)             |
|                                                                             |
 ----------------------------------------------------------------------------- 

 LDA part: xc-table for Pade appr. of Perdew
 POSCAR, INCAR and KPOINTS ok, starting setup
 FFT: planning ...
 WAVECAR not read
 entering main loop
       N       E                     dE             d eps       ncg     rms          ort
DAV:   1     0.694700408460E+04    0.69470E+04   -0.50202E+05  1304   0.144E+03
DAV:   2    -0.114905455283E+04   -0.80961E+04   -0.77238E+04  1304   0.330E+02
DAV:   3    -0.215449557347E+04   -0.10054E+04   -0.99286E+03  1304   0.129E+02
DAV:   4    -0.219392402794E+04   -0.39428E+02   -0.39157E+02  1304   0.302E+01
DAV:   5    -0.219551394633E+04   -0.15899E+01   -0.15876E+01  1304   0.561E+00
 gam= 0.000 g(H,U,f)=  0.685E+03 0.622E+02 0.683E-50 ort(H,U,f) = 0.000E+00 0.000E+00 0.000E+00
SDA:   6    -0.187516922974E+04    0.32034E+03   -0.15876E+01  1304   0.748E+03 0.000E+00
 gam= 0.000 trial= 0.400  step= 0.348 mean= 0.400
 gam= 0.076 g(H,U,f)=  0.492E+02 0.760E+01 0.332E-21 ort(H,U,f) =-0.266E+02 0.203E+02 0.785E-21
CGA:   7    -0.200563507758E+04   -0.13047E+03   -0.12991E+03  1304   0.568E+02-0.629E+01
 gam= 0.076 trial= 0.397  step= 0.487 mean= 0.397
 gam= 0.298 g(H,U,f)=  0.136E+02 0.336E+01 0.645E-33 ort(H,U,f) =-0.551E+01 0.551E+01 0.119E-32
CGA:   8    -0.201933118989E+04   -0.13696E+02   -0.13694E+02  1304   0.169E+02 0.474E-02
 gam= 0.298 trial= 0.402  step= 0.575 mean= 0.402
 gam= 0.346 g(H,U,f)=  0.467E+01 0.119E+01 0.119E-26 ort(H,U,f) =-0.288E+01 0.286E+01 0.271E-26
CGA:   9    -0.202419772723E+04   -0.48665E+01   -0.48667E+01  1304   0.585E+01-0.239E-01
 gam= 0.346 trial= 0.411  step= 0.589 mean= 0.411
 gam= 0.399 g(H,U,f)=  0.195E+01 0.383E+00 0.647E-40 ort(H,U,f) =-0.121E+01 0.113E+01 0.218E-39
CGA:  10    -0.202590979268E+04   -0.17121E+01   -0.17207E+01  1304   0.233E+01-0.823E-01
 gam= 0.399 trial= 0.419  step= 0.587 mean= 0.419
 gam= 0.302 g(H,U,f)=  0.643E+00 0.630E-01 0.457E-23 ort(H,U,f) =-0.309E+00 0.296E+00 0.217E-22
CGA:  11    -0.202658424976E+04   -0.67446E+00   -0.67579E+00  1304   0.706E+00-0.126E-01
 gam= 0.302 trial= 0.428  step= 0.611 mean= 0.428
 gam= 0.303 g(H,U,f)=  0.202E+00 0.121E-01 0.178E-17 ort(H,U,f) =-0.581E-01 0.549E-01 0.895E-17
CGA:  12    -0.202679838173E+04   -0.21413E+00   -0.21448E+00  1304   0.214E+00-0.318E-02
 gam= 0.303 trial= 0.437  step= 0.543 mean= 0.437
 gam= 0.294 g(H,U,f)=  0.607E-01 0.232E-02 0.558E-20 ort(H,U,f) =-0.536E-02 0.495E-02 0.253E-19
CGA:  13    -0.202685618390E+04   -0.57802E-01   -0.57830E-01  1304   0.630E-01-0.411E-03
 gam= 0.294 trial= 0.442  step= 0.547 mean= 0.442
 gam= 0.265 g(H,U,f)=  0.161E-01 0.542E-03 0.158E-14 ort(H,U,f) =-0.501E-03 0.786E-03 0.530E-14
CGA:  14    -0.202687338764E+04   -0.17204E-01   -0.17190E-01  1304   0.167E-01 0.285E-03
 gam= 0.265 trial= 0.447  step= 0.588 mean= 0.447
 gam= 0.270 g(H,U,f)=  0.417E-02 0.332E-03 0.164E-24 ort(H,U,f) =-0.651E-04 0.150E-03 0.431E-24
CGA:  15    -0.202687832234E+04   -0.49347E-02   -0.49287E-02  1304   0.450E-02 0.850E-04
 gam= 0.270 trial= 0.455  step= 0.606 mean= 0.455
 gam= 0.334 g(H,U,f)=  0.140E-02 0.102E-03 0.147E-31 ort(H,U,f) =-0.384E-04 0.123E-03 0.345E-31
CGA:  16    -0.202687969948E+04   -0.13771E-02   -0.13707E-02  1304   0.150E-02 0.847E-04
 gam= 0.334 trial= 0.462  step= 0.608 mean= 0.462
 gam= 0.352 g(H,U,f)=  0.488E-03 0.413E-04 0.817E-33 ort(H,U,f) =-0.664E-04 0.740E-04 0.199E-32
CGA:  17    -0.202688016625E+04   -0.46676E-03   -0.46622E-03  1304   0.529E-03 0.757E-05
 gam= 0.352 trial= 0.469  step= 0.601 mean= 0.469
 gam= 0.345 g(H,U,f)=  0.173E-03 0.924E-05 0.597E-30 ort(H,U,f) = 0.268E-05 0.236E-04 0.163E-29
CGA:  18    -0.202688032766E+04   -0.16141E-03   -0.15969E-03  1304   0.183E-03 0.263E-04
 gam= 0.345 trial= 0.476  step= 0.671 mean= 0.476
 gam= 0.336 g(H,U,f)=  0.581E-04 0.335E-05 0.188E-25 ort(H,U,f) =-0.884E-05 0.776E-05 0.589E-25
CGA:  19    -0.202688039186E+04   -0.64197E-04   -0.64306E-04  1304   0.614E-04-0.108E-05
 gam= 0.336 trial= 0.486  step= 0.681 mean= 0.486
 gam= 0.377 g(H,U,f)=  0.226E-04 0.607E-06 0.327E-21 ort(H,U,f) = 0.660E-06 0.499E-07 0.114E-20
CGA:  20    -0.202688041273E+04   -0.20874E-04   -0.20805E-04  1304   0.232E-04 0.710E-06
 gam= 0.377 trial= 0.495  step= 0.696 mean= 0.495
 gam= 0.532 g(H,U,f)=  0.120E-04 0.372E-06 0.136E-17 ort(H,U,f) =-0.324E-05-0.244E-06 0.628E-17
CGA:  21    -0.202688042055E+04   -0.78152E-05   -0.81647E-05  1304   0.123E-04-0.348E-05
 gam= 0.532 trial= 0.506  step= 0.498 mean= 0.506
 gam= 0.282 g(H,U,f)=  0.331E-05 0.168E-06 0.206E-15 ort(H,U,f) = 0.103E-05-0.284E-07 0.160E-14
CGA:  22    -0.202688042315E+04   -0.26086E-05   -0.26122E-05  1304   0.348E-05 0.100E-05
 gam= 0.282 trial= 0.505  step= 0.695 mean= 0.505
 gam= 0.451 g(H,U,f)=  0.146E-05 0.112E-06 0.194E-19 ort(H,U,f) = 0.223E-06 0.772E-07 0.447E-19
CGA:  23    -0.202688042449E+04   -0.13362E-05   -0.13078E-05  1304   0.157E-05 0.301E-06
 gam= 0.451 trial= 0.515  step= 0.723 mean= 0.515
 gam= 0.000 g(H,U,f)=  0.212E-05 0.572E-07 0.280E-18 ort(H,U,f) =-0.918E-06 0.290E-07 0.100E-17
CGA:  24    -0.202688042501E+04   -0.52352E-06   -0.61640E-06  1304   0.218E-05-0.889E-06
 gam= 0.000 trial= 0.525  step= 0.235 mean= 0.525
 gam= 0.125 g(H,U,f)=  0.248E-06 0.247E-07 0.636E-18 ort(H,U,f) = 0.450E-06 0.264E-07 0.475E-18
CGA:  25    -0.202688042520E+04   -0.18755E-06   -0.25644E-06  1304   0.273E-06 0.477E-06
 gam= 0.125 trial= 0.511  step= 0.412 mean= 0.511
 gam= 0.666 g(H,U,f)=  0.165E-06 0.174E-07 0.192E-27 ort(H,U,f) = 0.722E-07 0.195E-07 0.253E-27
CGA:  26    -0.202688042527E+04   -0.64043E-07   -0.68560E-07  1304   0.182E-06 0.917E-07
 gam= 0.666 trial= 0.506  step=-6.697 mean= 0.506
 BOPT < 0, no correction made
 gam= 0.447 g(H,U,f)=  0.767E-07 0.454E-08 0.249E-26 ort(H,U,f) =-0.247E-08 0.136E-07 0.563E-26
CGA:  27    -0.202688042539E+04   -0.12747E-06    0.81355E-06  1304   0.812E-07 0.111E-07
 gam= 0.447 trial= 0.506  step=-0.516 mean= 0.506
 BOPT < 0, no correction made
 gam= 0.655 g(H,U,f)=  0.519E-07 0.126E-08 0.247E-25 ort(H,U,f) = 0.239E-07 0.421E-08 0.661E-25
CGA:  28    -0.202688042546E+04   -0.64923E-07    0.22226E-07  1304   0.532E-07 0.281E-07
 gam= 0.655 trial= 0.506  step= 0.611 mean= 0.506
 final diagonalization
   1 F= -.20483394E+04 E0= -.20483394E+04  d E =-.204834E+04
 curvature:   0.00 expect dE= 0.000E+00 dE for cont linesearch  0.000E+00
 trial: gam= 0.00000 g(F)=  0.202E-02 g(S)=  0.253E-04 ort = 0.000E+00 (trialstep = 0.100E+01)
 search vector abs. value=  0.204E-02
 bond charge predicted
       N       E                     dE             d eps       ncg     rms          ort
 gam= 0.000 g(H,U,f)=  0.583E-01 0.316E-02 0.170E-21 ort(H,U,f) = 0.000E+00 0.000E+00 0.000E+00
SDA:   1    -0.202685580577E+04    0.24620E-01    0.00000E+00  1304   0.615E-01 0.000E+00
 gam= 0.000 trial= 0.511  step= 0.656 mean= 0.511
 gam= 0.311 g(H,U,f)=  0.183E-01 0.813E-03 0.702E-19 ort(H,U,f) = 0.687E-03-0.716E-03-0.148E-18
CGA:   2    -0.202687597581E+04   -0.20170E-01   -0.20172E-01  1304   0.191E-01-0.296E-04
 gam= 0.311 trial= 0.518  step= 0.538 mean= 0.518
 gam= 0.183 g(H,U,f)=  0.338E-02 0.109E-03 0.476E-17 ort(H,U,f) =-0.526E-04 0.766E-04-0.106E-17
CGA:   3    -0.202688110642E+04   -0.51306E-02   -0.51304E-02  1304   0.349E-02 0.240E-04
 gam= 0.183 trial= 0.519  step= 0.447 mean= 0.519
 gam= 0.230 g(H,U,f)=  0.766E-03 0.359E-04 0.147E-15 ort(H,U,f) =-0.567E-04 0.391E-04 0.271E-15
CGA:   4    -0.202688188813E+04   -0.78172E-03   -0.78109E-03  1304   0.802E-03-0.176E-04
 gam= 0.230 trial= 0.516  step= 0.464 mean= 0.516
 gam= 0.256 g(H,U,f)=  0.187E-03 0.185E-04 0.222E-76 ort(H,U,f) =-0.150E-04 0.272E-04 0.423E-76
CGA:   5    -0.202688207277E+04   -0.18463E-03   -0.18495E-03  1304   0.205E-03 0.123E-04
 gam= 0.256 trial= 0.513  step= 0.564 mean= 0.513
 gam= 0.379 g(H,U,f)=  0.697E-04 0.800E-05 0.603E-68 ort(H,U,f) =-0.196E-04 0.141E-04 0.644E-68
CGA:   6    -0.202688213135E+04   -0.58585E-04   -0.58726E-04  1304   0.777E-04-0.554E-05
 gam= 0.379 trial= 0.515  step= 0.593 mean= 0.515
 gam= 0.350 g(H,U,f)=  0.247E-04 0.248E-05 0.780E-61 ort(H,U,f) =-0.409E-05 0.614E-05 0.336E-60
CGA:   7    -0.202688215385E+04   -0.22502E-04   -0.22422E-04  1304   0.272E-04 0.205E-05
 gam= 0.350 trial= 0.519  step= 0.709 mean= 0.519
 gam= 0.408 g(H,U,f)=  0.106E-04 0.430E-06 0.878E-53 ort(H,U,f) =-0.346E-05 0.148E-05 0.226E-52
CGA:   8    -0.202688216354E+04   -0.96891E-05   -0.98773E-05  1304   0.111E-04-0.199E-05
 gam= 0.408 trial= 0.529  step= 0.461 mean= 0.529
 gam= 0.280 g(H,U,f)=  0.302E-05 0.854E-07 0.571E-50 ort(H,U,f) = 0.739E-06 0.328E-06 0.384E-49
CGA:   9    -0.202688216587E+04   -0.23275E-05   -0.23636E-05  1304   0.310E-05 0.107E-05
 gam= 0.280 trial= 0.525  step= 0.664 mean= 0.525
 gam= 0.461 g(H,U,f)=  0.138E-05 0.478E-07 0.505E-46 ort(H,U,f) =-0.806E-06-0.200E-07-0.385E-45
CGA:  10    -0.202688216694E+04   -0.10728E-05   -0.11302E-05  1304   0.143E-05-0.826E-06
 gam= 0.461 trial= 0.532  step= 0.427 mean= 0.532
 gam= 0.309 g(H,U,f)=  0.433E-06 0.883E-08 0.195E-44 ort(H,U,f) = 0.197E-06-0.714E-08 0.117E-43
CGA:  11    -0.202688216716E+04   -0.21354E-06   -0.22370E-06  1304   0.442E-06 0.190E-06
 gam= 0.309 trial= 0.527  step= 0.457 mean= 0.527
 gam= 0.313 g(H,U,f)=  0.128E-06 0.108E-07 0.239E-41 ort(H,U,f) = 0.588E-07-0.268E-08 0.433E-41
CGA:  12    -0.202688216727E+04   -0.11249E-06   -0.11432E-06  1304   0.138E-06 0.561E-07
 gam= 0.313 trial= 0.524  step= 1.701 mean= 0.524
 gam= 0.000 g(H,U,f)=  0.109E-05 0.405E-07 0.142E-31 ort(H,U,f) =-0.330E-06-0.125E-07-0.466E-32
CGA:  13    -0.202688216720E+04    0.67885E-07   -0.13276E-06  1304   0.113E-05-0.342E-06
 gam= 0.000 trial= 0.582  step= 0.248 mean= 0.582
 gam= 0.142 g(H,U,f)=  0.158E-06 0.262E-08 0.101E-31 ort(H,U,f) = 0.277E-06 0.772E-08 0.308E-31
CGA:  14    -0.202688216729E+04   -0.92354E-07   -0.13997E-06  1304   0.161E-06 0.284E-06
 gam= 0.142 trial= 0.566  step= 0.351 mean= 0.566
 final diagonalization
   2 F= -.20483399E+04 E0= -.20483399E+04  d E =-.556093E-03
 trial-energy change:   -0.000556  1 .order   -0.000552   -0.002044    0.000940
 step:   0.6867(harm=  0.6851)  dis= 0.00075  next Energy= -2048.340083 (dE=-0.703E-03)
 bond charge predicted
       N       E                     dE             d eps       ncg     rms          ort
 gam= 0.000 g(H,U,f)=  0.572E-02 0.308E-03 0.497E-27 ort(H,U,f) = 0.000E+00 0.000E+00 0.000E+00
SDA:   1    -0.202687935552E+04    0.28117E-02    0.00000E+00  1304   0.603E-02 0.000E+00
 gam= 0.000 trial= 0.555  step= 0.656 mean= 0.555
 gam= 0.308 g(H,U,f)=  0.178E-02 0.788E-04 0.235E-26 ort(H,U,f) = 0.792E-04-0.694E-04-0.456E-26
CGA:   2    -0.202688133333E+04   -0.19778E-02   -0.19773E-02  1304   0.186E-02 0.980E-05
 gam= 0.308 trial= 0.560  step= 0.542 mean= 0.560
 gam= 0.183 g(H,U,f)=  0.330E-03 0.105E-04 0.296E-24 ort(H,U,f) =-0.139E-04 0.726E-05-0.179E-24
CGA:   3    -0.202688183844E+04   -0.50511E-03   -0.50505E-03  1304   0.341E-03-0.661E-05
 gam= 0.183 trial= 0.559  step= 0.440 mean= 0.559
 gam= 0.218 g(H,U,f)=  0.710E-04 0.346E-05 0.147E-23 ort(H,U,f) = 0.100E-05 0.397E-05-0.546E-23
CGA:   4    -0.202688191299E+04   -0.74548E-04   -0.74843E-04  1304   0.745E-04 0.497E-05
 gam= 0.218 trial= 0.553  step= 0.505 mean= 0.553
 gam= 0.304 g(H,U,f)=  0.208E-04 0.186E-05 0.151E-22 ort(H,U,f) =-0.616E-05 0.254E-05 0.126E-22
CGA:   5    -0.202688193215E+04   -0.19160E-04   -0.19073E-04  1304   0.227E-04-0.361E-05
 gam= 0.304 trial= 0.551  step= 0.473 mean= 0.551
 gam= 0.289 g(H,U,f)=  0.579E-05 0.774E-06 0.107E-19 ort(H,U,f) = 0.165E-06 0.155E-05-0.522E-20
CGA:   6    -0.202688193718E+04   -0.50300E-05   -0.50972E-05  1304   0.656E-05 0.172E-05
 gam= 0.289 trial= 0.547  step= 0.692 mean= 0.547
 gam= 0.441 g(H,U,f)=  0.264E-05 0.256E-06 0.977E-21 ort(H,U,f) =-0.855E-06 0.521E-06 0.227E-20
CGA:   7    -0.202688193959E+04   -0.24178E-05   -0.24421E-05  1304   0.290E-05-0.335E-06
 gam= 0.441 trial= 0.554  step= 0.607 mean= 0.554
 gam= 0.250 g(H,U,f)=  0.684E-06 0.398E-07 0.918E-30 ort(H,U,f) = 0.141E-06 0.178E-06-0.742E-30
CGA:   8    -0.202688194044E+04   -0.84234E-06   -0.83392E-06  1304   0.724E-06 0.319E-06
 gam= 0.250 trial= 0.557  step= 0.775 mean= 0.557
 gam= 0.418 g(H,U,f)=  0.295E-06 0.733E-08 0.441E-27 ort(H,U,f) =-0.138E-06 0.184E-07-0.935E-27
CGA:   9    -0.202688194073E+04   -0.29826E-06   -0.31130E-06  1304   0.303E-06-0.120E-06
 gam= 0.418 trial= 0.568  step= 0.300 mean= 0.568
 gam= 0.378 g(H,U,f)=  0.113E-06 0.157E-08 0.328E-27 ort(H,U,f) = 0.106E-06 0.528E-08 0.167E-27
CGA:  10    -0.202688194076E+04   -0.22977E-07   -0.37904E-07  1304   0.114E-06 0.112E-06
 gam= 0.378 trial= 0.554  step= 0.279 mean= 0.554
 final diagonalization
   3 F= -.20483401E+04 E0= -.20483401E+04  d E =-.701993E-03
 curvature:  -0.34 expect dE=-0.923E-03 dE for cont linesearch -0.295E-09
 trial: gam= 1.31885 g(F)=  0.268E-02 g(S)=  0.109E-04 ort =-0.133E-05 (trialstep = 0.307E+00)
 search vector abs. value=  0.625E-02
 bond charge predicted
       N       E                     dE             d eps       ncg     rms          ort
 gam= 0.000 g(H,U,f)=  0.153E-01 0.881E-03 0.858E-22 ort(H,U,f) = 0.000E+00 0.000E+00 0.000E+00
SDA:   1    -0.202687657365E+04    0.53671E-02    0.00000E+00  1304   0.162E-01 0.000E+00
 gam= 0.000 trial= 0.540  step= 0.657 mean= 0.540
 gam= 0.300 g(H,U,f)=  0.463E-02 0.226E-03 0.131E-18 ort(H,U,f) = 0.151E-03-0.168E-03-0.399E-19
CGA:   2    -0.202688187991E+04   -0.53063E-02   -0.53072E-02  1304   0.486E-02-0.171E-04
 gam= 0.300 trial= 0.546  step= 0.523 mean= 0.546
 gam= 0.174 g(H,U,f)=  0.818E-03 0.288E-04 0.401E-16 ort(H,U,f) =-0.101E-04 0.213E-04-0.283E-16
CGA:   3    -0.202688314912E+04   -0.12692E-02   -0.12693E-02  1304   0.846E-03 0.112E-04
 gam= 0.174 trial= 0.545  step= 0.472 mean= 0.545
 gam= 0.219 g(H,U,f)=  0.174E-03 0.111E-04 0.324E-20 ort(H,U,f) =-0.181E-04 0.991E-05-0.167E-19
CGA:   4    -0.202688334957E+04   -0.20045E-03   -0.20014E-03  1304   0.185E-03-0.824E-05
 gam= 0.219 trial= 0.541  step= 0.489 mean= 0.541
 gam= 0.260 g(H,U,f)=  0.431E-04 0.497E-05 0.322E-18 ort(H,U,f) =-0.333E-05 0.793E-05-0.738E-19
CGA:   5    -0.202688339430E+04   -0.44729E-04   -0.44849E-04  1304   0.481E-04 0.461E-05
 gam= 0.260 trial= 0.539  step= 0.576 mean= 0.539
 gam= 0.468 g(H,U,f)=  0.204E-04 0.212E-05 0.170E-73 ort(H,U,f) =-0.667E-05 0.382E-05 0.182E-73
CGA:   6    -0.202688340843E+04   -0.14132E-04   -0.14184E-04  1304   0.225E-04-0.284E-05
 gam= 0.468 trial= 0.541  step= 0.512 mean= 0.541
 gam= 0.304 g(H,U,f)=  0.619E-05 0.648E-06 0.198E-70 ort(H,U,f) =-0.657E-06 0.198E-05 0.840E-70
CGA:   7    -0.202688341382E+04   -0.53961E-05   -0.54152E-05  1304   0.684E-05 0.132E-05
 gam= 0.304 trial= 0.539  step= 0.747 mean= 0.539
 gam= 0.356 g(H,U,f)=  0.232E-05 0.108E-06 0.402E-66 ort(H,U,f) =-0.963E-06 0.417E-06 0.325E-65
CGA:   8    -0.202688341647E+04   -0.26461E-05   -0.27028E-05  1304   0.243E-05-0.546E-06
 gam= 0.356 trial= 0.550  step= 0.628 mean= 0.550
 gam= 0.223 g(H,U,f)=  0.528E-06 0.142E-07 0.973E-62 ort(H,U,f) = 0.345E-07 0.296E-07 0.253E-61
CGA:   9    -0.202688341717E+04   -0.70496E-06   -0.70230E-06  1304   0.542E-06 0.641E-07
 gam= 0.223 trial= 0.554  step= 0.807 mean= 0.554
 gam= 0.672 g(H,U,f)=  0.349E-06 0.155E-07 0.725E-59 ort(H,U,f) =-0.187E-06-0.109E-07-0.833E-58
CGA:  10    -0.202688341737E+04   -0.19932E-06   -0.22464E-06  1304   0.364E-06-0.198E-06
 gam= 0.672 trial= 0.566  step= 0.302 mean= 0.566
 gam= 0.411 g(H,U,f)=  0.144E-06 0.524E-08 0.238E-58 ort(H,U,f) = 0.631E-07 0.245E-09-0.490E-57
CGA:  11    -0.202688341740E+04   -0.26586E-07   -0.34844E-07  1304   0.150E-06 0.633E-07
 gam= 0.411 trial= 0.553  step= 0.276 mean= 0.553
 final diagonalization
   4 F= -.20483407E+04 E0= -.20483407E+04  d E =-.592494E-03
 trial-energy change:   -0.000592  1 .order   -0.000588   -0.000826   -0.000350
 step:   0.5123(harm=  0.5319)  dis= 0.00101  next Energy= -2048.340793 (dE=-0.711E-03)
 bond charge predicted
       N       E                     dE             d eps       ncg     rms          ort
 gam= 0.000 g(H,U,f)=  0.686E-02 0.395E-03 0.778E-53 ort(H,U,f) = 0.000E+00 0.000E+00 0.000E+00
SDA:   1    -0.202688106489E+04    0.23525E-02    0.00000E+00  1304   0.726E-02 0.000E+00
 gam= 0.000 trial= 0.539  step= 0.657 mean= 0.539
 gam= 0.301 g(H,U,f)=  0.208E-02 0.101E-03 0.560E-49 ort(H,U,f) = 0.646E-04-0.763E-04-0.171E-49
CGA:   2    -0.202688344944E+04   -0.23846E-02   -0.23852E-02  1304   0.218E-02-0.117E-04
 gam= 0.301 trial= 0.545  step= 0.522 mean= 0.545
 gam= 0.174 g(H,U,f)=  0.367E-03 0.128E-04 0.956E-46 ort(H,U,f) =-0.179E-05 0.930E-05-0.680E-46
CGA:   3    -0.202688401826E+04   -0.56881E-03   -0.56890E-03  1304   0.380E-03 0.751E-05
 gam= 0.174 trial= 0.544  step= 0.475 mean= 0.544
 gam= 0.221 g(H,U,f)=  0.789E-04 0.497E-05 0.130E-46 ort(H,U,f) =-0.984E-05 0.428E-05 0.393E-45
CGA:   4    -0.202688410883E+04   -0.90571E-04   -0.90378E-04  1304   0.839E-04-0.557E-05
 gam= 0.221 trial= 0.540  step= 0.479 mean= 0.540
 gam= 0.252 g(H,U,f)=  0.189E-04 0.220E-05 0.875E-43 ort(H,U,f) =-0.468E-06 0.353E-05 0.137E-42
CGA:   5    -0.202688412854E+04   -0.19711E-04   -0.19805E-04  1304   0.211E-04 0.306E-05
 gam= 0.252 trial= 0.537  step= 0.597 mean= 0.537
 gam= 0.504 g(H,U,f)=  0.969E-05 0.948E-06 0.132E-39 ort(H,U,f) =-0.352E-05 0.164E-05 0.135E-39
CGA:   6    -0.202688413501E+04   -0.64732E-05   -0.65287E-05  1304   0.106E-04-0.188E-05
 gam= 0.504 trial= 0.540  step= 0.488 mean= 0.540
 gam= 0.291 g(H,U,f)=  0.282E-05 0.277E-06 0.256E-38 ort(H,U,f) =-0.617E-07 0.908E-06 0.106E-37
CGA:   7    -0.202688413736E+04   -0.23451E-05   -0.23670E-05  1304   0.309E-05 0.846E-06
 gam= 0.291 trial= 0.538  step= 0.729 mean= 0.538
 gam= 0.374 g(H,U,f)=  0.110E-05 0.566E-07 0.762E-37 ort(H,U,f) =-0.420E-06 0.194E-06 0.972E-36
CGA:   8    -0.202688413856E+04   -0.11960E-05   -0.12176E-05  1304   0.116E-05-0.226E-06
 gam= 0.374 trial= 0.547  step= 0.759 mean= 0.547
 gam= 0.393 g(H,U,f)=  0.437E-06 0.180E-07 0.410E-33 ort(H,U,f) =-0.206E-06-0.148E-07 0.770E-33
CGA:   9    -0.202688413894E+04   -0.38411E-06   -0.40724E-06  1304   0.455E-06-0.220E-06
 gam= 0.393 trial= 0.558  step= 0.314 mean= 0.558
 gam= 0.313 g(H,U,f)=  0.139E-06 0.298E-08 0.713E-33 ort(H,U,f) = 0.115E-06-0.257E-08 0.295E-32
CGA:  10    -0.202688413898E+04   -0.44143E-07   -0.57727E-07  1304   0.142E-06 0.112E-06
 gam= 0.313 trial= 0.546  step= 0.409 mean= 0.546
 final diagonalization
   5 F= -.20483408E+04 E0= -.20483408E+04  d E =-.721322E-03
 curvature:  -0.61 expect dE=-0.131E-02 dE for cont linesearch -0.107E-05
 trial: gam= 0.75319 g(F)=  0.214E-02 g(S)=  0.101E-05 ort = 0.104E-03 (trialstep = 0.348E+00)
 search vector abs. value=  0.584E-02
 bond charge predicted
       N       E                     dE             d eps       ncg     rms          ort
 gam= 0.000 g(H,U,f)=  0.185E-01 0.145E-02 0.208E-27 ort(H,U,f) = 0.000E+00 0.000E+00 0.000E+00
SDA:   1    -0.202687708505E+04    0.70539E-02    0.00000E+00  1304   0.199E-01 0.000E+00
 gam= 0.000 trial= 0.539  step= 0.626 mean= 0.539
 gam= 0.290 g(H,U,f)=  0.544E-02 0.340E-03 0.281E-25 ort(H,U,f) = 0.270E-03-0.273E-03-0.662E-25
CGA:   2    -0.202688331704E+04   -0.62320E-02   -0.62321E-02  1304   0.578E-02-0.268E-05
 gam= 0.290 trial= 0.543  step= 0.538 mean= 0.543
 gam= 0.167 g(H,U,f)=  0.929E-03 0.376E-04 0.149E-24 ort(H,U,f) =-0.401E-04 0.429E-04-0.103E-24
CGA:   3    -0.202688487257E+04   -0.15555E-02   -0.15555E-02  1304   0.966E-03 0.274E-05
 gam= 0.167 trial= 0.543  step= 0.488 mean= 0.543
 gam= 0.206 g(H,U,f)=  0.183E-03 0.165E-04 0.114E-23 ort(H,U,f) =-0.132E-04 0.134E-04-0.231E-23
CGA:   4    -0.202688510856E+04   -0.23599E-03   -0.23599E-03  1304   0.199E-03 0.123E-06
 gam= 0.206 trial= 0.540  step= 0.554 mean= 0.540
 gam= 0.224 g(H,U,f)=  0.386E-04 0.605E-05 0.314E-22 ort(H,U,f) =-0.908E-05 0.101E-04-0.226E-22
CGA:   5    -0.202688516374E+04   -0.55176E-04   -0.55169E-04  1304   0.447E-04 0.107E-05
 gam= 0.224 trial= 0.541  step= 0.716 mean= 0.541
 gam= 0.396 g(H,U,f)=  0.158E-04 0.184E-05 0.606E-21 ort(H,U,f) =-0.553E-05 0.429E-05-0.119E-20
CGA:   6    -0.202688517970E+04   -0.15961E-04   -0.16069E-04  1304   0.177E-04-0.124E-05
 gam= 0.396 trial= 0.550  step= 0.594 mean= 0.550
 gam= 0.401 g(H,U,f)=  0.647E-05 0.620E-06 0.100E-20 ort(H,U,f) =-0.692E-06 0.178E-05 0.943E-21
CGA:   7    -0.202688518483E+04   -0.51280E-05   -0.51041E-05  1304   0.709E-05 0.108E-05
 gam= 0.401 trial= 0.552  step= 0.607 mean= 0.552
 gam= 0.433 g(H,U,f)=  0.297E-05 0.102E-06 0.192E-18 ort(H,U,f) =-0.101E-05 0.389E-06-0.886E-19
CGA:   8    -0.202688518709E+04   -0.22674E-05   -0.22845E-05  1304   0.307E-05-0.620E-06
 gam= 0.433 trial= 0.555  step= 0.457 mean= 0.555
 gam= 0.215 g(H,U,f)=  0.650E-06 0.113E-07 0.784E-22 ort(H,U,f) = 0.249E-06 0.601E-07-0.143E-21
CGA:   9    -0.202688518772E+04   -0.62530E-06   -0.64026E-06  1304   0.661E-06 0.309E-06
 gam= 0.215 trial= 0.550  step= 0.740 mean= 0.550
 gam= 0.425 g(H,U,f)=  0.268E-06 0.127E-07 0.149E-20 ort(H,U,f) =-0.161E-06-0.778E-08-0.239E-21
CGA:  10    -0.202688518797E+04   -0.25303E-06   -0.26936E-06  1304   0.281E-06-0.168E-06
 gam= 0.425 trial= 0.559  step= 0.659 mean= 0.559
 gam= 0.358 g(H,U,f)=  0.956E-07 0.491E-08 0.320E-31 ort(H,U,f) =-0.902E-08-0.642E-08-0.114E-31
CGA:  11    -0.202688518804E+04   -0.68336E-07   -0.68993E-07  1304   0.100E-06-0.154E-07
 gam= 0.358 trial= 0.564  step= 0.375 mean= 0.564
 final diagonalization
   6 F= -.20483414E+04 E0= -.20483414E+04  d E =-.607264E-03
 trial-energy change:   -0.000607  1 .order   -0.000609   -0.000773   -0.000446
 step:   0.8677(harm=  0.8216)  dis= 0.00204  next Energy= -2048.341737 (dE=-0.934E-03)
 bond charge predicted
       N       E                     dE             d eps       ncg     rms          ort
 gam= 0.000 g(H,U,f)=  0.412E-01 0.324E-02 0.522E-25 ort(H,U,f) = 0.000E+00 0.000E+00 0.000E+00
SDA:   1    -0.202686804862E+04    0.17139E-01    0.00000E+00  1304   0.445E-01 0.000E+00
 gam= 0.000 trial= 0.555  step= 0.626 mean= 0.555
 gam= 0.290 g(H,U,f)=  0.121E-01 0.761E-03 0.673E-23 ort(H,U,f) = 0.607E-03-0.611E-03-0.161E-22
CGA:   2    -0.202688197171E+04   -0.13923E-01   -0.13923E-01  1304   0.129E-01-0.368E-05
 gam= 0.290 trial= 0.558  step= 0.538 mean= 0.558
 gam= 0.168 g(H,U,f)=  0.208E-02 0.844E-04 0.100E-22 ort(H,U,f) =-0.914E-04 0.953E-04-0.656E-23
CGA:   3    -0.202688544498E+04   -0.34733E-02   -0.34733E-02  1304   0.216E-02 0.385E-05
 gam= 0.168 trial= 0.557  step= 0.488 mean= 0.557
 gam= 0.206 g(H,U,f)=  0.409E-03 0.368E-04 0.315E-22 ort(H,U,f) =-0.293E-04 0.298E-04-0.670E-22
CGA:   4    -0.202688597309E+04   -0.52811E-03   -0.52812E-03  1304   0.446E-03 0.439E-06
 gam= 0.206 trial= 0.554  step= 0.555 mean= 0.554
 gam= 0.224 g(H,U,f)=  0.865E-04 0.135E-04 0.375E-21 ort(H,U,f) =-0.212E-04 0.226E-04-0.248E-21
CGA:   5    -0.202688609695E+04   -0.12386E-03   -0.12386E-03  1304   0.100E-03 0.139E-05
 gam= 0.224 trial= 0.554  step= 0.708 mean= 0.554
 gam= 0.384 g(H,U,f)=  0.342E-04 0.414E-05 0.228E-20 ort(H,U,f) =-0.112E-04 0.963E-05-0.483E-20
CGA:   6    -0.202688613237E+04   -0.35414E-04   -0.35538E-04  1304   0.384E-04-0.160E-05
 gam= 0.384 trial= 0.562  step= 0.621 mean= 0.562
 gam= 0.423 g(H,U,f)=  0.149E-04 0.137E-05 0.925E-21 ort(H,U,f) =-0.238E-05 0.382E-05 0.111E-20
CGA:   7    -0.202688614414E+04   -0.11773E-04   -0.11730E-04  1304   0.162E-04 0.144E-05
 gam= 0.423 trial= 0.565  step= 0.576 mean= 0.565
 gam= 0.395 g(H,U,f)=  0.620E-05 0.217E-06 0.161E-18 ort(H,U,f) =-0.171E-05 0.898E-06-0.576E-19
CGA:   8    -0.202688614898E+04   -0.48424E-05   -0.48471E-05  1304   0.641E-05-0.814E-06
 gam= 0.395 trial= 0.565  step= 0.489 mean= 0.565
 gam= 0.221 g(H,U,f)=  0.139E-05 0.256E-07 0.940E-22 ort(H,U,f) = 0.287E-06 0.119E-06-0.138E-21
CGA:   9    -0.202688615045E+04   -0.14743E-05   -0.14897E-05  1304   0.141E-05 0.406E-06
 gam= 0.221 trial= 0.561  step= 0.748 mean= 0.561
 gam= 0.422 g(H,U,f)=  0.569E-06 0.278E-07 0.962E-21 ort(H,U,f) =-0.312E-06-0.161E-07 0.214E-22
CGA:  10    -0.202688615099E+04   -0.53206E-06   -0.56287E-06  1304   0.597E-06-0.328E-06
 gam= 0.422 trial= 0.571  step= 0.450 mean= 0.571
 gam= 0.305 g(H,U,f)=  0.176E-06 0.632E-08 0.304E-20 ort(H,U,f) = 0.109E-06-0.305E-08-0.741E-21
CGA:  11    -0.202688615108E+04   -0.96887E-07   -0.10317E-06  1304   0.182E-06 0.106E-06
 gam= 0.305 trial= 0.565  step= 0.542 mean= 0.565
 final diagonalization
   7 F= -.20483417E+04 E0= -.20483417E+04  d E =-.909399E-03
 curvature:  -1.07 expect dE=-0.492E-02 dE for cont linesearch -0.251E-05
 trial: gam= 2.28053 g(F)=  0.457E-02 g(S)=  0.233E-04 ort =-0.117E-03 (trialstep = 0.766E-01)
 search vector abs. value=  0.345E-01
 bond charge predicted
       N       E                     dE             d eps       ncg     rms          ort
 gam= 0.000 g(H,U,f)=  0.536E-02 0.449E-03 0.613E-17 ort(H,U,f) = 0.000E+00 0.000E+00 0.000E+00
SDA:   1    -0.202688434569E+04    0.18053E-02    0.00000E+00  1304   0.581E-02 0.000E+00
 gam= 0.000 trial= 0.564  step= 0.613 mean= 0.564
 gam= 0.289 g(H,U,f)=  0.158E-02 0.102E-03 0.263E-75 ort(H,U,f) = 0.879E-04-0.875E-04 0.159E-75
CGA:   2    -0.202688612871E+04   -0.17830E-02   -0.17830E-02  1304   0.168E-02 0.405E-06
 gam= 0.289 trial= 0.566  step= 0.542 mean= 0.566
 gam= 0.163 g(H,U,f)=  0.265E-03 0.951E-05 0.209E-73 ort(H,U,f) =-0.128E-04 0.126E-04-0.253E-73
CGA:   3    -0.202688658477E+04   -0.45605E-03   -0.45605E-03  1304   0.275E-03-0.228E-06
 gam= 0.163 trial= 0.565  step= 0.482 mean= 0.565
 gam= 0.210 g(H,U,f)=  0.530E-04 0.475E-05 0.170E-73 ort(H,U,f) =-0.297E-05 0.354E-05-0.952E-73
CGA:   4    -0.202688665096E+04   -0.66193E-04   -0.66216E-04  1304   0.577E-04 0.573E-06
 gam= 0.210 trial= 0.561  step= 0.558 mean= 0.561
 gam= 0.237 g(H,U,f)=  0.120E-04 0.168E-05 0.805E-72 ort(H,U,f) =-0.364E-05 0.283E-05-0.212E-72
CGA:   5    -0.202688666711E+04   -0.16157E-04   -0.16156E-04  1304   0.137E-04-0.802E-06
 gam= 0.237 trial= 0.561  step= 0.604 mean= 0.561
 gam= 0.360 g(H,U,f)=  0.431E-05 0.626E-06 0.218E-69 ort(H,U,f) =-0.527E-06 0.136E-05-0.140E-69
CGA:   6    -0.202688667122E+04   -0.41016E-05   -0.40835E-05  1304   0.494E-05 0.829E-06
 gam= 0.360 trial= 0.563  step= 0.691 mean= 0.563
 gam= 0.720 g(H,U,f)=  0.333E-05 0.225E-06 0.241E-70 ort(H,U,f) =-0.133E-05 0.478E-06-0.529E-69
CGA:   7    -0.202688667297E+04   -0.17561E-05   -0.18109E-05  1304   0.355E-05-0.852E-06
 gam= 0.720 trial= 0.569  step= 0.382 mean= 0.569
 gam= 0.254 g(H,U,f)=  0.867E-06 0.352E-07 0.228E-67 ort(H,U,f) = 0.331E-06 0.223E-06-0.590E-67
CGA:   8    -0.202688667348E+04   -0.50981E-06   -0.56163E-06  1304   0.902E-06 0.554E-06
 gam= 0.254 trial= 0.560  step= 0.387 mean= 0.560
 gam= 0.416 g(H,U,f)=  0.365E-06 0.100E-07 0.529E-67 ort(H,U,f) = 0.167E-06 0.295E-07-0.426E-67
CGA:   9    -0.202688667367E+04   -0.18506E-06   -0.20201E-06  1304   0.375E-06 0.197E-06
 gam= 0.416 trial= 0.551  step= 0.833 mean= 0.551
 gam= 0.000 g(H,U,f)=  0.644E-06 0.868E-08 0.919E-64 ort(H,U,f) =-0.411E-06-0.932E-08 0.193E-64
CGA:  10    -0.202688667380E+04   -0.13110E-06   -0.19027E-06  1304   0.653E-06-0.420E-06
 gam= 0.000 trial= 0.565  step= 0.225 mean= 0.565
 gam= 0.173 g(H,U,f)=  0.112E-06 0.978E-09 0.603E-64 ort(H,U,f) = 0.210E-06 0.170E-08 0.136E-63
CGA:  11    -0.202688667384E+04   -0.37311E-07   -0.73354E-07  1304   0.113E-06 0.212E-06
 gam= 0.173 trial= 0.548  step= 0.244 mean= 0.548
 final diagonalization
   8 F= -.20483420E+04 E0= -.20483420E+04  d E =-.317737E-03
 ZBRENT: can't locate minimum, use default step
 trial-energy change:   -0.000318  1 .order   -0.000317   -0.000331   -0.000303
 step:   0.3066(harm=  0.8830)  dis= 0.00191  next Energy= -2048.342997 (dE=-0.128E-02)
 bond charge predicted
       N       E                     dE             d eps       ncg     rms          ort
 gam= 0.000 g(H,U,f)=  0.483E-01 0.404E-02 0.229E-59 ort(H,U,f) = 0.000E+00 0.000E+00 0.000E+00
SDA:   1    -0.202686711222E+04    0.19562E-01    0.00000E+00  1304   0.523E-01 0.000E+00
 gam= 0.000 trial= 0.533  step= 0.613 mean= 0.533
 gam= 0.289 g(H,U,f)=  0.142E-01 0.917E-03 0.330E-57 ort(H,U,f) = 0.785E-03-0.783E-03 0.207E-57
CGA:   2    -0.202688316362E+04   -0.16051E-01   -0.16051E-01  1304   0.151E-01 0.159E-05
 gam= 0.289 trial= 0.537  step= 0.543 mean= 0.537
 gam= 0.163 g(H,U,f)=  0.238E-02 0.855E-04 0.163E-55 ort(H,U,f) =-0.117E-03 0.116E-03-0.192E-55
CGA:   3    -0.202688727010E+04   -0.41065E-02   -0.41065E-02  1304   0.246E-02-0.629E-06
 gam= 0.163 trial= 0.537  step= 0.484 mean= 0.537
 gam= 0.211 g(H,U,f)=  0.476E-03 0.433E-04 0.313E-56 ort(H,U,f) =-0.309E-04 0.328E-04-0.189E-55
CGA:   4    -0.202688786620E+04   -0.59611E-03   -0.59616E-03  1304   0.519E-03 0.189E-05
 gam= 0.211 trial= 0.535  step= 0.553 mean= 0.535
 gam= 0.234 g(H,U,f)=  0.106E-03 0.153E-04 0.467E-55 ort(H,U,f) =-0.285E-04 0.260E-04-0.187E-55
CGA:   5    -0.202688800999E+04   -0.14378E-03   -0.14380E-03  1304   0.121E-03-0.244E-05
 gam= 0.234 trial= 0.536  step= 0.637 mean= 0.536
 gam= 0.387 g(H,U,f)=  0.415E-04 0.548E-05 0.715E-53 ort(H,U,f) =-0.930E-05 0.120E-04-0.369E-53
CGA:   6    -0.202688804860E+04   -0.38614E-04   -0.38478E-04  1304   0.470E-04 0.268E-05
 gam= 0.387 trial= 0.541  step= 0.610 mean= 0.541
 gam= 0.535 g(H,U,f)=  0.232E-04 0.194E-05 0.111E-53 ort(H,U,f) =-0.735E-05 0.482E-05 0.117E-52
CGA:   7    -0.202688806315E+04   -0.14551E-04   -0.14638E-04  1304   0.252E-04-0.253E-05
 gam= 0.535 trial= 0.544  step= 0.482 mean= 0.544
 gam= 0.243 g(H,U,f)=  0.582E-05 0.283E-06 0.731E-52 ort(H,U,f) = 0.252E-06 0.170E-05-0.206E-51
CGA:   8    -0.202688806883E+04   -0.56751E-05   -0.57357E-05  1304   0.610E-05 0.195E-05
 gam= 0.243 trial= 0.541  step= 0.668 mean= 0.541
 gam= 0.292 g(H,U,f)=  0.173E-05 0.549E-07 0.396E-50 ort(H,U,f) =-0.398E-06 0.114E-06-0.878E-51
CGA:   9    -0.202688807101E+04   -0.21791E-05   -0.21972E-05  1304   0.178E-05-0.283E-06
 gam= 0.292 trial= 0.547  step= 0.706 mean= 0.547
 gam= 0.381 g(H,U,f)=  0.637E-06 0.413E-07 0.389E-50 ort(H,U,f) =-0.256E-06-0.249E-07-0.170E-49
CGA:  10    -0.202688807158E+04   -0.57791E-06   -0.60020E-06  1304   0.678E-06-0.281E-06
 gam= 0.381 trial= 0.555  step= 0.335 mean= 0.555
 gam= 0.320 g(H,U,f)=  0.206E-06 0.116E-07 0.378E-51 ort(H,U,f) = 0.192E-06 0.631E-08-0.154E-50
CGA:  11    -0.202688807166E+04   -0.73625E-07   -0.95607E-07  1304   0.217E-06 0.198E-06
 gam= 0.320 trial= 0.544  step= 0.384 mean= 0.544
 final diagonalization
   9 F= -.20483428E+04 E0= -.20483428E+04  d E =-.110078E-02
 curvature:  -1.72 expect dE=-0.573E-02 dE for cont linesearch -0.410E-03
 ZBRENT: increasing intervall
 opt :   0.7664  next Energy= -2048.343632 (dE=-0.192E-02)
 bond charge predicted
       N       E                     dE             d eps       ncg     rms          ort
 gam= 0.000 g(H,U,f)=  0.193E+00 0.162E-01 0.114E-44 ort(H,U,f) = 0.000E+00 0.000E+00 0.000E+00
SDA:   1    -0.202680627745E+04    0.81794E-01    0.00000E+00  1304   0.209E+00 0.000E+00
 gam= 0.000 trial= 0.536  step= 0.613 mean= 0.536
 gam= 0.289 g(H,U,f)=  0.569E-01 0.367E-02 0.128E-42 ort(H,U,f) = 0.314E-02-0.313E-02 0.854E-43
CGA:   2    -0.202687047902E+04   -0.64202E-01   -0.64201E-01  1304   0.606E-01 0.296E-05
 gam= 0.289 trial= 0.540  step= 0.542 mean= 0.540
 gam= 0.162 g(H,U,f)=  0.950E-02 0.342E-03 0.431E-41 ort(H,U,f) =-0.465E-03 0.465E-03-0.510E-41
CGA:   3    -0.202688690412E+04   -0.16425E-01   -0.16425E-01  1304   0.984E-02-0.680E-06
 gam= 0.162 trial= 0.540  step= 0.485 mean= 0.540
 gam= 0.211 g(H,U,f)=  0.191E-02 0.173E-03 0.235E-42 ort(H,U,f) =-0.127E-03 0.131E-03-0.143E-41
CGA:   4    -0.202688928782E+04   -0.23837E-02   -0.23838E-02  1304   0.208E-02 0.410E-05
 gam= 0.211 trial= 0.538  step= 0.552 mean= 0.538
 gam= 0.232 g(H,U,f)=  0.422E-03 0.612E-04 0.136E-41 ort(H,U,f) =-0.109E-03 0.104E-03-0.568E-42
CGA:   5    -0.202688986154E+04   -0.57371E-03   -0.57375E-03  1304   0.483E-03-0.468E-05
 gam= 0.232 trial= 0.538  step= 0.645 mean= 0.538
 gam= 0.398 g(H,U,f)=  0.170E-03 0.218E-04 0.877E-40 ort(H,U,f) =-0.421E-04 0.474E-04-0.439E-40
CGA:   6    -0.202689001730E+04   -0.15576E-03   -0.15548E-03  1304   0.192E-03 0.534E-05
 gam= 0.398 trial= 0.544  step= 0.587 mean= 0.544
 gam= 0.496 g(H,U,f)=  0.875E-04 0.772E-05 0.108E-40 ort(H,U,f) =-0.247E-04 0.199E-04 0.743E-40
CGA:   7    -0.202689007414E+04   -0.56838E-04   -0.56942E-04  1304   0.953E-04-0.482E-05
 gam= 0.496 trial= 0.546  step= 0.518 mean= 0.546
 gam= 0.263 g(H,U,f)=  0.239E-04 0.112E-05 0.193E-39 ort(H,U,f) =-0.245E-05 0.638E-05-0.514E-39
CGA:   8    -0.202689009815E+04   -0.24009E-04   -0.24063E-04  1304   0.250E-04 0.393E-05
 gam= 0.263 trial= 0.544  step= 0.661 mean= 0.544
 gam= 0.273 g(H,U,f)=  0.666E-05 0.176E-06 0.326E-38 ort(H,U,f) =-0.155E-05 0.456E-06-0.784E-39
CGA:   9    -0.202689010669E+04   -0.85410E-05   -0.86050E-05  1304   0.683E-05-0.110E-05
 gam= 0.273 trial= 0.550  step= 0.584 mean= 0.550
 gam= 0.259 g(H,U,f)=  0.169E-05 0.730E-07 0.415E-41 ort(H,U,f) = 0.281E-06-0.172E-07 0.270E-39
CGA:  10    -0.202689010860E+04   -0.19120E-05   -0.19074E-05  1304   0.177E-05 0.264E-06
 gam= 0.259 trial= 0.552  step= 0.675 mean= 0.552
 gam= 0.495 g(H,U,f)=  0.841E-06 0.330E-07 0.131E-38 ort(H,U,f) =-0.195E-06-0.218E-07 0.352E-38
CGA:  11    -0.202689010921E+04   -0.60622E-06   -0.61960E-06  1304   0.874E-06-0.217E-06
 gam= 0.495 trial= 0.558  step= 0.410 mean= 0.558
 gam= 0.329 g(H,U,f)=  0.276E-06 0.124E-07 0.183E-38 ort(H,U,f) = 0.146E-06 0.337E-08 0.616E-38
CGA:  12    -0.202689010935E+04   -0.14623E-06   -0.15726E-06  1304   0.288E-06 0.150E-06
 gam= 0.329 trial= 0.551  step= 0.664 mean= 0.551
 gam= 0.524 g(H,U,f)=  0.141E-06 0.102E-07 0.457E-39 ort(H,U,f) =-0.369E-07-0.789E-09-0.430E-38
CGA:  13    -0.202689010946E+04   -0.10979E-06   -0.11194E-06  1304   0.151E-06-0.377E-07
 gam= 0.524 trial= 0.556  step= 1.073 mean= 0.556
 gam= 0.000 g(H,U,f)=  0.400E-06 0.141E-07 0.815E-37 ort(H,U,f) =-0.158E-06-0.420E-08 0.761E-37
CGA:  14    -0.202689010949E+04   -0.28755E-07   -0.70405E-07  1304   0.414E-06-0.162E-06
 gam= 0.000 trial= 0.582  step= 0.212 mean= 0.582
 final diagonalization
  10 F= -.20483436E+04 E0= -.20483436E+04  d E =-.191055E-02
 curvature:  -3.44 expect dE=-0.173E-01 dE for cont linesearch -0.423E-04
 trial: gam= 0.69811 g(F)=  0.488E-02 g(S)=  0.154E-03 ort = 0.651E-03 (trialstep = 0.215E+00)
 search vector abs. value=  0.227E-01
 bond charge predicted
       N       E                     dE             d eps       ncg     rms          ort
 gam= 0.000 g(H,U,f)=  0.289E-01 0.225E-02 0.156E-31 ort(H,U,f) = 0.000E+00 0.000E+00 0.000E+00
SDA:   1    -0.202687892184E+04    0.11188E-01    0.00000E+00  1304   0.312E-01 0.000E+00
 gam= 0.000 trial= 0.564  step= 0.618 mean= 0.564
 gam= 0.288 g(H,U,f)=  0.848E-02 0.477E-03 0.471E-32 ort(H,U,f) = 0.358E-03-0.353E-03-0.652E-32
CGA:   2    -0.202688854607E+04   -0.96242E-02   -0.96241E-02  1304   0.896E-02 0.551E-05
 gam= 0.288 trial= 0.566  step= 0.542 mean= 0.566
 gam= 0.162 g(H,U,f)=  0.140E-02 0.490E-04 0.254E-31 ort(H,U,f) =-0.621E-04 0.610E-04-0.174E-31
CGA:   3    -0.202689097320E+04   -0.24271E-02   -0.24271E-02  1304   0.145E-02-0.111E-05
 gam= 0.162 trial= 0.565  step= 0.489 mean= 0.565
 gam= 0.209 g(H,U,f)=  0.277E-03 0.250E-04 0.352E-32 ort(H,U,f) =-0.194E-04 0.193E-04-0.126E-31
CGA:   4    -0.202689132674E+04   -0.35354E-03   -0.35354E-03  1304   0.302E-03-0.886E-07
 gam= 0.209 trial= 0.561  step= 0.551 mean= 0.561
 gam= 0.222 g(H,U,f)=  0.583E-04 0.882E-05 0.936E-33 ort(H,U,f) =-0.142E-04 0.148E-04 0.104E-32
CGA:   5    -0.202689140995E+04   -0.83208E-04   -0.83211E-04  1304   0.671E-04 0.620E-06
 gam= 0.222 trial= 0.561  step= 0.687 mean= 0.561
 gam= 0.352 g(H,U,f)=  0.207E-04 0.292E-05 0.107E-31 ort(H,U,f) =-0.585E-05 0.659E-05-0.111E-31
CGA:   6    -0.202689143309E+04   -0.23137E-04   -0.23090E-04  1304   0.236E-04 0.736E-06
 gam= 0.352 trial= 0.567  step= 0.719 mean= 0.567
 gam= 0.515 g(H,U,f)=  0.113E-04 0.826E-06 0.823E-31 ort(H,U,f) =-0.348E-05 0.228E-05-0.500E-31
CGA:   7    -0.202689144157E+04   -0.84832E-05   -0.85733E-05  1304   0.122E-04-0.119E-05
 gam= 0.515 trial= 0.575  step= 0.459 mean= 0.575
 gam= 0.282 g(H,U,f)=  0.331E-05 0.127E-06 0.103E-30 ort(H,U,f) = 0.524E-06 0.718E-06 0.116E-30
CGA:   8    -0.202689144414E+04   -0.25764E-05   -0.26484E-05  1304   0.343E-05 0.124E-05
 gam= 0.282 trial= 0.569  step= 0.642 mean= 0.569
 gam= 0.320 g(H,U,f)=  0.108E-05 0.185E-07 0.902E-31 ort(H,U,f) =-0.380E-06 0.466E-07-0.287E-30
CGA:   9    -0.202689144535E+04   -0.12023E-05   -0.12145E-05  1304   0.110E-05-0.333E-06
 gam= 0.320 trial= 0.573  step= 0.624 mean= 0.573
 gam= 0.245 g(H,U,f)=  0.258E-06 0.110E-07 0.917E-31 ort(H,U,f) = 0.239E-08-0.117E-07 0.352E-32
CGA:  10    -0.202689144566E+04   -0.30931E-06   -0.30952E-06  1304   0.269E-06-0.935E-08
 gam= 0.245 trial= 0.575  step= 0.477 mean= 0.575
 gam= 0.296 g(H,U,f)=  0.754E-07 0.437E-08 0.161E-32 ort(H,U,f) = 0.681E-07-0.960E-09 0.200E-31
CGA:  11    -0.202689144572E+04   -0.60536E-07   -0.63777E-07  1304   0.798E-07 0.671E-07
 gam= 0.296 trial= 0.570  step= 1.231 mean= 0.570
 final diagonalization
  11 F= -.20483446E+04 E0= -.20483446E+04  d E =-.100610E-02
 trial-energy change:   -0.001006  1 .order   -0.001008   -0.001178   -0.000837
 step:   0.7428(harm=  0.7428)  dis= 0.00407  next Energy= -2048.345661 (dE=-0.204E-02)
 bond charge predicted
       N       E                     dE             d eps       ncg     rms          ort
 gam= 0.000 g(H,U,f)=  0.175E+00 0.136E-01 0.473E-24 ort(H,U,f) = 0.000E+00 0.000E+00 0.000E+00
SDA:   1    -0.202681740301E+04    0.74043E-01    0.00000E+00  1304   0.189E+00 0.000E+00
 gam= 0.000 trial= 0.603  step= 0.618 mean= 0.603
 gam= 0.288 g(H,U,f)=  0.514E-01 0.288E-02 0.207E-25 ort(H,U,f) = 0.214E-02-0.213E-02-0.285E-25
CGA:   2    -0.202687570915E+04   -0.58306E-01   -0.58306E-01  1304   0.543E-01 0.998E-05
 gam= 0.288 trial= 0.604  step= 0.542 mean= 0.604
 gam= 0.161 g(H,U,f)=  0.845E-02 0.296E-03 0.198E-24 ort(H,U,f) =-0.371E-03 0.369E-03-0.135E-24
CGA:   3    -0.202689040166E+04   -0.14693E-01   -0.14692E-01  1304   0.875E-02-0.224E-05
 gam= 0.161 trial= 0.601  step= 0.489 mean= 0.601
 gam= 0.209 g(H,U,f)=  0.168E-02 0.152E-03 0.115E-25 ort(H,U,f) =-0.117E-03 0.117E-03-0.416E-25
CGA:   4    -0.202689253912E+04   -0.21375E-02   -0.21375E-02  1304   0.183E-02 0.339E-06
 gam= 0.209 trial= 0.595  step= 0.552 mean= 0.595
 gam= 0.222 g(H,U,f)=  0.353E-03 0.534E-04 0.227E-26 ort(H,U,f) =-0.881E-04 0.896E-04 0.253E-26
CGA:   5    -0.202689304333E+04   -0.50420E-03   -0.50423E-03  1304   0.406E-03 0.145E-05
 gam= 0.222 trial= 0.593  step= 0.692 mean= 0.593
 gam= 0.356 g(H,U,f)=  0.127E-03 0.176E-04 0.244E-25 ort(H,U,f) =-0.378E-04 0.396E-04-0.232E-25
CGA:   6    -0.202689318405E+04   -0.14073E-03   -0.14063E-03  1304   0.144E-03 0.184E-05
 gam= 0.356 trial= 0.598  step= 0.693 mean= 0.598
 gam= 0.483 g(H,U,f)=  0.648E-04 0.507E-05 0.938E-25 ort(H,U,f) =-0.170E-04 0.143E-04-0.657E-25
CGA:   7    -0.202689323422E+04   -0.50173E-04   -0.50304E-04  1304   0.699E-04-0.275E-05
 gam= 0.483 trial= 0.603  step= 0.501 mean= 0.603
 gam= 0.317 g(H,U,f)=  0.213E-04 0.794E-06 0.103E-24 ort(H,U,f) =-0.873E-06 0.403E-05 0.113E-24
CGA:   8    -0.202689325124E+04   -0.17016E-04   -0.17176E-04  1304   0.221E-04 0.315E-05
 gam= 0.317 trial= 0.598  step= 0.601 mean= 0.598
 gam= 0.281 g(H,U,f)=  0.611E-05 0.101E-06 0.315E-25 ort(H,U,f) =-0.156E-05 0.315E-06-0.146E-24
CGA:   9    -0.202689325819E+04   -0.69471E-05   -0.69491E-05  1304   0.621E-05-0.124E-05
 gam= 0.281 trial= 0.598  step= 0.560 mean= 0.598
 gam= 0.242 g(H,U,f)=  0.145E-05 0.482E-07 0.226E-25 ort(H,U,f) = 0.424E-06-0.329E-07 0.132E-25
CGA:  10    -0.202689325982E+04   -0.16348E-05   -0.16424E-05  1304   0.150E-05 0.392E-06
 gam= 0.242 trial= 0.596  step= 0.721 mean= 0.596
 gam= 0.533 g(H,U,f)=  0.764E-06 0.358E-07 0.887E-27 ort(H,U,f) =-0.222E-06-0.207E-07-0.916E-26
CGA:  11    -0.202689326038E+04   -0.55999E-06   -0.57531E-06  1304   0.800E-06-0.242E-06
 gam= 0.533 trial= 0.602  step= 0.408 mean= 0.602
 gam= 0.345 g(H,U,f)=  0.264E-06 0.126E-07 0.289E-25 ort(H,U,f) = 0.148E-06 0.863E-08-0.317E-25
CGA:  12    -0.202689326050E+04   -0.12155E-06   -0.13675E-06  1304   0.276E-06 0.157E-06
 gam= 0.345 trial= 0.593  step= 0.569 mean= 0.593
 gam= 0.450 g(H,U,f)=  0.116E-06 0.877E-08 0.448E-25 ort(H,U,f) =-0.200E-08 0.373E-08 0.329E-25
CGA:  13    -0.202689326060E+04   -0.94224E-07   -0.94118E-07  1304   0.124E-06 0.173E-08
 gam= 0.450 trial= 0.591  step= 1.710 mean= 0.591
 gam= 0.000 g(H,U,f)=  0.118E-05 0.439E-07 0.574E-24 ort(H,U,f) =-0.303E-06-0.971E-08 0.607E-24
CGA:  14    -0.202689326053E+04    0.67266E-07   -0.10700E-06  1304   0.123E-05-0.312E-06
 gam= 0.000 trial= 0.647  step= 0.228 mean= 0.647
 gam= 0.102 g(H,U,f)=  0.123E-06 0.251E-08 0.127E-24 ort(H,U,f) = 0.228E-06 0.806E-08 0.298E-24
CGA:  15    -0.202689326062E+04   -0.90171E-07   -0.13978E-06  1304   0.126E-06 0.236E-06
 gam= 0.102 trial= 0.626  step= 0.327 mean= 0.626
 final diagonalization
  12 F= -.20483456E+04 E0= -.20483456E+04  d E =-.200893E-02
 curvature:  -1.54 expect dE=-0.130E-01 dE for cont linesearch -0.498E-06
 trial: gam= 1.88050 g(F)=  0.839E-02 g(S)=  0.774E-04 ort =-0.858E-04 (trialstep = 0.822E-01)
 search vector abs. value=  0.885E-01
 bond charge predicted
       N       E                     dE             d eps       ncg     rms          ort
 gam= 0.000 g(H,U,f)=  0.159E-01 0.127E-02 0.590E-20 ort(H,U,f) = 0.000E+00 0.000E+00 0.000E+00
SDA:   1    -0.202688721819E+04    0.60423E-02    0.00000E+00  1304   0.172E-01 0.000E+00
 gam= 0.000 trial= 0.611  step= 0.607 mean= 0.611
 gam= 0.284 g(H,U,f)=  0.463E-02 0.257E-03 0.844E-22 ort(H,U,f) = 0.200E-03-0.192E-03-0.648E-21
CGA:   2    -0.202689242926E+04   -0.52111E-02   -0.52111E-02  1304   0.489E-02 0.785E-05
 gam= 0.284 trial= 0.611  step= 0.545 mean= 0.611
 gam= 0.160 g(H,U,f)=  0.754E-03 0.255E-04 0.290E-21 ort(H,U,f) =-0.381E-04 0.359E-04 0.263E-21
CGA:   3    -0.202689376144E+04   -0.13322E-02   -0.13321E-02  1304   0.780E-03-0.228E-05
 gam= 0.160 trial= 0.608  step= 0.489 mean= 0.608
 gam= 0.210 g(H,U,f)=  0.150E-03 0.136E-04 0.698E-21 ort(H,U,f) =-0.990E-05 0.115E-04-0.716E-21
CGA:   4    -0.202689395193E+04   -0.19049E-03   -0.19059E-03  1304   0.164E-03 0.162E-05
 gam= 0.210 trial= 0.602  step= 0.551 mean= 0.602
 gam= 0.223 g(H,U,f)=  0.316E-04 0.481E-05 0.243E-20 ort(H,U,f) =-0.802E-05 0.823E-05 0.159E-20
CGA:   5    -0.202689399704E+04   -0.45108E-04   -0.45113E-04  1304   0.364E-04 0.210E-06
 gam= 0.223 trial= 0.599  step= 0.686 mean= 0.599
 gam= 0.348 g(H,U,f)=  0.111E-04 0.160E-05 0.733E-22 ort(H,U,f) =-0.328E-05 0.362E-05-0.860E-21
CGA:   6    -0.202689400955E+04   -0.12518E-04   -0.12503E-04  1304   0.127E-04 0.343E-06
 gam= 0.348 trial= 0.604  step= 0.736 mean= 0.604
 gam= 0.491 g(H,U,f)=  0.580E-05 0.421E-06 0.361E-20 ort(H,U,f) =-0.196E-05 0.121E-05 0.292E-20
CGA:   7    -0.202689401421E+04   -0.46541E-05   -0.47034E-05  1304   0.622E-05-0.745E-06
 gam= 0.491 trial= 0.610  step= 0.451 mean= 0.610
 gam= 0.275 g(H,U,f)=  0.164E-05 0.695E-07 0.350E-20 ort(H,U,f) = 0.486E-06 0.383E-06 0.700E-20
CGA:   8    -0.202689401546E+04   -0.12511E-05   -0.13201E-05  1304   0.171E-05 0.868E-06
 gam= 0.275 trial= 0.602  step= 0.660 mean= 0.602
 gam= 0.378 g(H,U,f)=  0.633E-06 0.126E-07 0.135E-21 ort(H,U,f) =-0.289E-06 0.287E-07-0.171E-20
CGA:   9    -0.202689401609E+04   -0.63448E-06   -0.64193E-06  1304   0.645E-06-0.260E-06
 gam= 0.378 trial= 0.605  step= 0.580 mean= 0.605
 gam= 0.252 g(H,U,f)=  0.158E-06 0.420E-08 0.492E-22 ort(H,U,f) = 0.153E-07-0.605E-08 0.448E-21
CGA:  10    -0.202689401625E+04   -0.15858E-06   -0.15879E-06  1304   0.163E-06 0.921E-08
 gam= 0.252 trial= 0.604  step= 0.403 mean= 0.604
 gam= 0.322 g(H,U,f)=  0.501E-07 0.233E-08 0.153E-21 ort(H,U,f) = 0.518E-07-0.333E-09 0.363E-21
CGA:  11    -0.202689401628E+04   -0.28020E-07   -0.33207E-07  1304   0.524E-07 0.514E-07
 gam= 0.322 trial= 0.594  step= 0.853 mean= 0.594
 final diagonalization
  13 F= -.20483463E+04 E0= -.20483463E+04  d E =-.645944E-03
 ZBRENT: can't locate minimum, use default step
 trial-energy change:   -0.000646  1 .order   -0.000649   -0.000683   -0.000615
 step:   0.3289(harm=  0.8229)  dis= 0.00370  next Energy= -2048.349051 (dE=-0.342E-02)
 bond charge predicted
       N       E                     dE             d eps       ncg     rms          ort
 gam= 0.000 g(H,U,f)=  0.143E+00 0.114E-01 0.212E-15 ort(H,U,f) = 0.000E+00 0.000E+00 0.000E+00
SDA:   1    -0.202683467815E+04    0.59338E-01    0.00000E+00  1304   0.155E+00 0.000E+00
 gam= 0.000 trial= 0.607  step= 0.607 mean= 0.607
 gam= 0.285 g(H,U,f)=  0.417E-01 0.231E-02 0.775E-18 ort(H,U,f) = 0.176E-02-0.174E-02-0.702E-17
CGA:   2    -0.202688158423E+04   -0.46906E-01   -0.46906E-01  1304   0.440E-01 0.188E-04
 gam= 0.285 trial= 0.607  step= 0.544 mean= 0.607
 gam= 0.159 g(H,U,f)=  0.678E-02 0.229E-03 0.432E-17 ort(H,U,f) =-0.327E-03 0.320E-03 0.406E-17
CGA:   3    -0.202689356791E+04   -0.11984E-01   -0.11984E-01  1304   0.701E-02-0.643E-05
 gam= 0.159 trial= 0.604  step= 0.489 mean= 0.604
 gam= 0.211 g(H,U,f)=  0.135E-02 0.123E-03 0.925E-17 ort(H,U,f) =-0.972E-04 0.103E-03-0.956E-17
CGA:   4    -0.202689528366E+04   -0.17157E-02   -0.17161E-02  1304   0.148E-02 0.563E-05
 gam= 0.211 trial= 0.598  step= 0.550 mean= 0.598
 gam= 0.223 g(H,U,f)=  0.286E-03 0.431E-04 0.173E-19 ort(H,U,f) =-0.735E-04 0.739E-04 0.629E-19
CGA:   5    -0.202689569002E+04   -0.40637E-03   -0.40637E-03  1304   0.329E-03 0.378E-06
 gam= 0.223 trial= 0.596  step= 0.686 mean= 0.596
 gam= 0.357 g(H,U,f)=  0.103E-03 0.145E-04 0.267E-19 ort(H,U,f) =-0.311E-04 0.325E-04 0.735E-19
CGA:   6    -0.202689580282E+04   -0.11280E-03   -0.11273E-03  1304   0.117E-03 0.143E-05
 gam= 0.357 trial= 0.600  step= 0.688 mean= 0.600
 gam= 0.472 g(H,U,f)=  0.513E-04 0.414E-05 0.338E-19 ort(H,U,f) =-0.143E-04 0.118E-04 0.954E-19
CGA:   7    -0.202689584329E+04   -0.40468E-04   -0.40578E-04  1304   0.554E-04-0.249E-05
 gam= 0.472 trial= 0.604  step= 0.501 mean= 0.604
 gam= 0.309 g(H,U,f)=  0.165E-04 0.671E-06 0.151E-19 ort(H,U,f) =-0.360E-06 0.336E-05 0.705E-19
CGA:   8    -0.202689585673E+04   -0.13444E-04   -0.13598E-04  1304   0.171E-04 0.300E-05
 gam= 0.309 trial= 0.599  step= 0.608 mean= 0.599
 gam= 0.296 g(H,U,f)=  0.498E-05 0.975E-07 0.304E-20 ort(H,U,f) =-0.154E-05 0.307E-06 0.100E-19
CGA:   9    -0.202689586222E+04   -0.54898E-05   -0.54954E-05  1304   0.508E-05-0.123E-05
 gam= 0.296 trial= 0.600  step= 0.535 mean= 0.600
 gam= 0.230 g(H,U,f)=  0.114E-05 0.321E-07 0.379E-20 ort(H,U,f) = 0.434E-06-0.115E-07-0.743E-20
CGA:  10    -0.202689586347E+04   -0.12461E-05   -0.12600E-05  1304   0.117E-05 0.423E-06
 gam= 0.230 trial= 0.597  step= 0.739 mean= 0.597
 gam= 0.503 g(H,U,f)=  0.563E-06 0.234E-07 0.602E-20 ort(H,U,f) =-0.191E-06-0.132E-07-0.428E-20
CGA:  11    -0.202689586392E+04   -0.45252E-06   -0.46721E-06  1304   0.587E-06-0.204E-06
 gam= 0.503 trial= 0.604  step= 0.444 mean= 0.604
 gam= 0.363 g(H,U,f)=  0.205E-06 0.771E-08 0.731E-20 ort(H,U,f) = 0.109E-06 0.424E-08-0.579E-20
CGA:  12    -0.202689586402E+04   -0.98473E-07   -0.10746E-06  1304   0.213E-06 0.113E-06
 gam= 0.363 trial= 0.596  step= 0.605 mean= 0.596
 final diagonalization
  14 F= -.20483478E+04 E0= -.20483478E+04  d E =-.216595E-02
 curvature:  -2.43 expect dE=-0.151E-01 dE for cont linesearch -0.663E-03
 ZBRENT: increasing intervall
 opt :   0.8223  next Energy= -2048.348954 (dE=-0.332E-02)
 bond charge predicted
       N       E                     dE             d eps       ncg     rms          ort
 gam= 0.000 g(H,U,f)=  0.573E+00 0.456E-01 0.541E-26 ort(H,U,f) = 0.000E+00 0.000E+00 0.000E+00
SDA:   1    -0.202665290586E+04    0.24296E+00    0.00000E+00  1304   0.618E+00 0.000E+00
 gam= 0.000 trial= 0.596  step= 0.607 mean= 0.596
 gam= 0.285 g(H,U,f)=  0.167E+00 0.924E-02 0.601E-16 ort(H,U,f) = 0.695E-02-0.695E-02-0.155E-15
CGA:   2    -0.202684054624E+04   -0.18764E+00   -0.18764E+00  1304   0.176E+00-0.120E-05
 gam= 0.285 trial= 0.597  step= 0.544 mean= 0.597
 gam= 0.159 g(H,U,f)=  0.271E-01 0.915E-03 0.456E-17 ort(H,U,f) =-0.129E-02 0.128E-02 0.418E-17
CGA:   3    -0.202688846011E+04   -0.47914E-01   -0.47914E-01  1304   0.280E-01-0.654E-05
 gam= 0.159 trial= 0.594  step= 0.490 mean= 0.594
 gam= 0.210 g(H,U,f)=  0.541E-02 0.491E-03 0.888E-16 ort(H,U,f) =-0.400E-03 0.413E-03 0.286E-16
CGA:   4    -0.202689532817E+04   -0.68681E-02   -0.68687E-02  1304   0.590E-02 0.124E-04
 gam= 0.210 trial= 0.589  step= 0.550 mean= 0.589
 gam= 0.222 g(H,U,f)=  0.114E-02 0.172E-03 0.205E-16 ort(H,U,f) =-0.294E-03 0.295E-03 0.690E-16
CGA:   5    -0.202689695114E+04   -0.16230E-02   -0.16230E-02  1304   0.131E-02 0.127E-05
 gam= 0.222 trial= 0.587  step= 0.689 mean= 0.587
 gam= 0.356 g(H,U,f)=  0.410E-03 0.576E-04 0.978E-29 ort(H,U,f) =-0.127E-03 0.129E-03-0.104E-27
CGA:   6    -0.202689740335E+04   -0.45221E-03   -0.45207E-03  1304   0.467E-03 0.271E-05
 gam= 0.356 trial= 0.592  step= 0.687 mean= 0.592
 gam= 0.453 g(H,U,f)=  0.196E-03 0.162E-04 0.399E-27 ort(H,U,f) =-0.514E-04 0.469E-04 0.362E-27
CGA:   7    -0.202689756399E+04   -0.16064E-03   -0.16086E-03  1304   0.212E-03-0.451E-05
 gam= 0.453 trial= 0.597  step= 0.526 mean= 0.597
 gam= 0.332 g(H,U,f)=  0.678E-04 0.264E-05 0.740E-27 ort(H,U,f) =-0.622E-05 0.124E-04 0.132E-26
CGA:   8    -0.202689761900E+04   -0.55005E-04   -0.55221E-04  1304   0.704E-04 0.616E-05
 gam= 0.332 trial= 0.593  step= 0.570 mean= 0.593
 gam= 0.277 g(H,U,f)=  0.192E-04 0.367E-06 0.983E-29 ort(H,U,f) =-0.412E-05 0.131E-05 0.238E-27
CGA:   9    -0.202689763967E+04   -0.20674E-04   -0.20641E-04  1304   0.195E-04-0.281E-05
 gam= 0.277 trial= 0.592  step= 0.551 mean= 0.592
 gam= 0.245 g(H,U,f)=  0.463E-05 0.145E-06 0.178E-28 ort(H,U,f) = 0.105E-05-0.421E-07 0.158E-27
CGA:  10    -0.202689764481E+04   -0.51400E-05   -0.51609E-05  1304   0.477E-05 0.101E-05
 gam= 0.245 trial= 0.590  step= 0.700 mean= 0.590
 gam= 0.480 g(H,U,f)=  0.220E-05 0.898E-07 0.145E-27 ort(H,U,f) =-0.517E-06-0.555E-07 0.261E-27
CGA:  11    -0.202689764654E+04   -0.17244E-05   -0.17559E-05  1304   0.229E-05-0.573E-06
 gam= 0.480 trial= 0.595  step= 0.452 mean= 0.595
 gam= 0.336 g(H,U,f)=  0.741E-06 0.294E-07 0.388E-29 ort(H,U,f) = 0.324E-06 0.133E-07 0.584E-28
CGA:  12    -0.202689764697E+04   -0.43141E-06   -0.45574E-06  1304   0.770E-06 0.338E-06
 gam= 0.336 trial= 0.588  step= 0.689 mean= 0.588
 gam= 0.439 g(H,U,f)=  0.316E-06 0.222E-07 0.218E-27 ort(H,U,f) =-0.107E-06 0.611E-08-0.262E-27
CGA:  13    -0.202689764727E+04   -0.29953E-06   -0.30470E-06  1304   0.338E-06-0.101E-06
 gam= 0.439 trial= 0.593  step= 0.863 mean= 0.593
 gam= 0.731 g(H,U,f)=  0.230E-06 0.168E-07 0.636E-31 ort(H,U,f) =-0.107E-06-0.240E-08 0.173E-31
CGA:  14    -0.202689764738E+04   -0.11202E-06   -0.12684E-06  1304   0.247E-06-0.109E-06
 gam= 0.731 trial= 0.607  step= 0.250 mean= 0.607
 gam= 0.451 g(H,U,f)=  0.105E-06 0.647E-08 0.757E-31 ort(H,U,f) = 0.589E-07 0.824E-08-0.188E-29
CGA:  15    -0.202689764739E+04   -0.87821E-08   -0.20935E-07  1304   0.111E-06 0.671E-07
 gam= 0.451 trial= 0.589  step= 0.223 mean= 0.589
 final diagonalization
  15 F= -.20483489E+04 E0= -.20483489E+04  d E =-.330392E-02
 curvature:  -4.24 expect dE=-0.568E-01 dE for cont linesearch -0.291E-05
 trial: gam= 1.33624 g(F)=  0.131E-01 g(S)=  0.297E-03 ort =-0.246E-03 (trialstep = 0.119E+00)
 search vector abs. value=  0.171E+00
 bond charge predicted
       N       E                     dE             d eps       ncg     rms          ort
 gam= 0.000 g(H,U,f)=  0.654E-01 0.555E-02 0.411E-23 ort(H,U,f) = 0.000E+00 0.000E+00 0.000E+00
SDA:   1    -0.202687077666E+04    0.26871E-01    0.00000E+00  1304   0.710E-01 0.000E+00
 gam= 0.000 trial= 0.571  step= 0.598 mean= 0.571
 gam= 0.283 g(H,U,f)=  0.189E-01 0.118E-02 0.345E-24 ort(H,U,f) = 0.965E-03-0.945E-03-0.609E-24
CGA:   2    -0.202689201251E+04   -0.21236E-01   -0.21236E-01  1304   0.201E-01 0.199E-04
 gam= 0.283 trial= 0.572  step= 0.550 mean= 0.572
 gam= 0.165 g(H,U,f)=  0.320E-02 0.112E-03 0.154E-23 ort(H,U,f) =-0.160E-03 0.147E-03-0.623E-24
CGA:   3    -0.202689753981E+04   -0.55273E-02   -0.55272E-02  1304   0.331E-02-0.131E-04
 gam= 0.165 trial= 0.571  step= 0.481 mean= 0.571
 gam= 0.218 g(H,U,f)=  0.668E-03 0.544E-04 0.998E-25 ort(H,U,f) =-0.395E-04 0.473E-04-0.421E-24
CGA:   4    -0.202689833655E+04   -0.79674E-03   -0.79709E-03  1304   0.722E-03 0.772E-05
 gam= 0.218 trial= 0.567  step= 0.531 mean= 0.567
 gam= 0.250 g(H,U,f)=  0.159E-03 0.212E-04 0.248E-24 ort(H,U,f) =-0.417E-04 0.357E-04 0.163E-25
CGA:   5    -0.202689852871E+04   -0.19216E-03   -0.19205E-03  1304   0.180E-03-0.602E-05
 gam= 0.250 trial= 0.565  step= 0.560 mean= 0.565
 gam= 0.403 g(H,U,f)=  0.641E-04 0.858E-05 0.270E-24 ort(H,U,f) =-0.129E-04 0.176E-04-0.407E-24
CGA:   6    -0.202689857871E+04   -0.50001E-04   -0.50012E-04  1304   0.726E-04 0.463E-05
 gam= 0.403 trial= 0.564  step= 0.581 mean= 0.564
 gam= 0.443 g(H,U,f)=  0.291E-04 0.303E-05 0.265E-25 ort(H,U,f) =-0.109E-04 0.761E-05 0.490E-25
CGA:   7    -0.202689860033E+04   -0.21619E-04   -0.21646E-04  1304   0.322E-04-0.329E-05
 gam= 0.443 trial= 0.565  step= 0.562 mean= 0.565
 gam= 0.246 g(H,U,f)=  0.749E-05 0.433E-06 0.111E-25 ort(H,U,f) = 0.753E-07 0.232E-05-0.431E-25
CGA:   8    -0.202689860895E+04   -0.86174E-05   -0.86218E-05  1304   0.793E-05 0.239E-05
 gam= 0.246 trial= 0.565  step= 0.710 mean= 0.565
 gam= 0.336 g(H,U,f)=  0.259E-05 0.811E-07 0.125E-24 ort(H,U,f) =-0.885E-06 0.208E-06-0.131E-26
CGA:   9    -0.202689861192E+04   -0.29719E-05   -0.30209E-05  1304   0.267E-05-0.677E-06
 gam= 0.336 trial= 0.572  step= 0.459 mean= 0.572
 gam= 0.251 g(H,U,f)=  0.657E-06 0.125E-07 0.108E-24 ort(H,U,f) = 0.408E-06 0.239E-07 0.150E-24
CGA:  10    -0.202689861246E+04   -0.53484E-06   -0.55940E-06  1304   0.669E-06 0.432E-06
 gam= 0.251 trial= 0.567  step= 0.678 mean= 0.567
 gam= 0.460 g(H,U,f)=  0.294E-06 0.138E-07 0.267E-26 ort(H,U,f) =-0.120E-06-0.180E-08 0.327E-25
CGA:  11    -0.202689861271E+04   -0.25684E-06   -0.26365E-06  1304   0.308E-06-0.122E-06
 gam= 0.460 trial= 0.572  step= 0.459 mean= 0.572
 gam= 0.378 g(H,U,f)=  0.113E-06 0.326E-08 0.190E-25 ort(H,U,f) = 0.667E-07 0.125E-08 0.591E-25
CGA:  12    -0.202689861277E+04   -0.53755E-07   -0.57716E-07  1304   0.116E-06 0.679E-07
 gam= 0.378 trial= 0.567  step= 0.535 mean= 0.567
 final diagonalization
  16 F= -.20483503E+04 E0= -.20483503E+04  d E =-.140158E-02
 ZBRENT: can't locate minimum, use default step
 trial-energy change:   -0.001402  1 .order   -0.001410   -0.001557   -0.001264
 step:   0.4774(harm=  0.6334)  dis= 0.00750  next Energy= -2048.353068 (dE=-0.413E-02)
 bond charge predicted
       N       E                     dE             d eps       ncg     rms          ort
 gam= 0.000 g(H,U,f)=  0.589E+00 0.499E-01 0.156E-19 ort(H,U,f) = 0.000E+00 0.000E+00 0.000E+00
SDA:   1    -0.202664919747E+04    0.24942E+00    0.00000E+00  1304   0.639E+00 0.000E+00
 gam= 0.000 trial= 0.565  step= 0.599 mean= 0.565
 gam= 0.283 g(H,U,f)=  0.170E+00 0.106E-01 0.427E-22 ort(H,U,f) = 0.852E-02-0.850E-02-0.787E-22
CGA:   2    -0.202684034886E+04   -0.19115E+00   -0.19115E+00  1304   0.181E+00 0.191E-04
 gam= 0.283 trial= 0.567  step= 0.549 mean= 0.567
 gam= 0.164 g(H,U,f)=  0.288E-01 0.101E-02 0.495E-21 ort(H,U,f) =-0.135E-02 0.132E-02-0.195E-21
CGA:   3    -0.202689004861E+04   -0.49700E-01   -0.49700E-01  1304   0.298E-01-0.289E-04
 gam= 0.164 trial= 0.566  step= 0.483 mean= 0.566
 gam= 0.218 g(H,U,f)=  0.601E-02 0.491E-03 0.159E-22 ort(H,U,f) =-0.402E-03 0.426E-03-0.697E-22
CGA:   4    -0.202689723195E+04   -0.71833E-02   -0.71843E-02  1304   0.650E-02 0.243E-04
 gam= 0.218 trial= 0.562  step= 0.528 mean= 0.562
 gam= 0.246 g(H,U,f)=  0.141E-02 0.191E-03 0.371E-22 ort(H,U,f) =-0.340E-03 0.323E-03 0.141E-23
CGA:   5    -0.202689894874E+04   -0.17168E-02   -0.17165E-02  1304   0.160E-02-0.175E-04
 gam= 0.246 trial= 0.560  step= 0.574 mean= 0.560
 gam= 0.421 g(H,U,f)=  0.597E-03 0.765E-04 0.612E-22 ort(H,U,f) =-0.142E-03 0.156E-03-0.817E-22
CGA:   6    -0.202689940614E+04   -0.45740E-03   -0.45730E-03  1304   0.673E-03 0.142E-04
 gam= 0.421 trial= 0.561  step= 0.555 mean= 0.561
 gam= 0.406 g(H,U,f)=  0.247E-03 0.269E-04 0.720E-23 ort(H,U,f) =-0.807E-04 0.711E-04 0.126E-22
CGA:   7    -0.202689959464E+04   -0.18850E-03   -0.18847E-03  1304   0.273E-03-0.968E-05
 gam= 0.406 trial= 0.560  step= 0.611 mean= 0.560
 gam= 0.270 g(H,U,f)=  0.701E-04 0.377E-05 0.403E-23 ort(H,U,f) =-0.116E-04 0.190E-04-0.125E-22
CGA:   8    -0.202689967713E+04   -0.82497E-04   -0.82310E-04  1304   0.739E-04 0.743E-05
 gam= 0.270 trial= 0.563  step= 0.664 mean= 0.563
 gam= 0.304 g(H,U,f)=  0.219E-04 0.601E-06 0.176E-22 ort(H,U,f) =-0.457E-05 0.196E-05-0.201E-23
CGA:   9    -0.202689970218E+04   -0.25048E-04   -0.25179E-04  1304   0.225E-04-0.260E-05
 gam= 0.304 trial= 0.568  step= 0.480 mean= 0.568
 gam= 0.289 g(H,U,f)=  0.634E-05 0.142E-06 0.196E-22 ort(H,U,f) = 0.164E-05 0.180E-06 0.229E-22
CGA:  10    -0.202689970730E+04   -0.51185E-05   -0.51985E-05  1304   0.648E-05 0.182E-05
 gam= 0.289 trial= 0.563  step= 0.633 mean= 0.563
 gam= 0.441 g(H,U,f)=  0.276E-05 0.103E-06 0.205E-24 ort(H,U,f) =-0.852E-06-0.196E-07 0.358E-23
CGA:  11    -0.202689970949E+04   -0.21869E-05   -0.22170E-05  1304   0.286E-05-0.872E-06
 gam= 0.441 trial= 0.567  step= 0.451 mean= 0.567
 gam= 0.307 g(H,U,f)=  0.850E-06 0.274E-07 0.273E-23 ort(H,U,f) = 0.473E-06 0.671E-08 0.798E-23
CGA:  12    -0.202689971002E+04   -0.52989E-06   -0.55783E-06  1304   0.877E-06 0.480E-06
 gam= 0.307 trial= 0.561  step= 0.677 mean= 0.561
 gam= 0.430 g(H,U,f)=  0.360E-06 0.170E-07 0.679E-23 ort(H,U,f) =-0.622E-07-0.945E-09 0.108E-22
CGA:  13    -0.202689971036E+04   -0.34335E-06   -0.34667E-06  1304   0.377E-06-0.631E-07
 gam= 0.430 trial= 0.567  step= 1.526 mean= 0.567
 gam= 0.000 g(H,U,f)=  0.163E-05 0.538E-07 0.411E-22 ort(H,U,f) =-0.550E-06-0.869E-08-0.493E-22
CGA:  14    -0.202689971036E+04    0.72032E-09   -0.26686E-06  1304   0.168E-05-0.558E-06
 gam= 0.000 trial= 0.615  step= 0.240 mean= 0.615
 gam= 0.122 g(H,U,f)=  0.202E-06 0.367E-08 0.671E-23 ort(H,U,f) = 0.384E-06 0.102E-07 0.179E-22
CGA:  15    -0.202689971049E+04   -0.12826E-06   -0.20207E-06  1304   0.206E-06 0.394E-06
 gam= 0.122 trial= 0.596  step= 0.315 mean= 0.596
 gam= 0.396 g(H,U,f)=  0.788E-07 0.253E-08 0.516E-24 ort(H,U,f) = 0.761E-07-0.751E-09 0.270E-23
CGA:  16    -0.202689971052E+04   -0.29300E-07   -0.39902E-07  1304   0.813E-07 0.754E-07
 gam= 0.396 trial= 0.582  step= 1.617 mean= 0.582
 final diagonalization
  17 F= -.20483527E+04 E0= -.20483527E+04  d E =-.381284E-02
 curvature:  -3.76 expect dE=-0.311E-01 dE for cont linesearch -0.214E-03
 ZBRENT: extrapolating
 opt :   0.6267  next Energy= -2048.352982 (dE=-0.405E-02)
 bond charge predicted
       N       E                     dE             d eps       ncg     rms          ort
 gam= 0.000 g(H,U,f)=  0.102E+00 0.868E-02 0.404E-18 ort(H,U,f) = 0.000E+00 0.000E+00 0.000E+00
SDA:   1    -0.202685579522E+04    0.43915E-01    0.00000E+00  1304   0.111E+00 0.000E+00
 gam= 0.000 trial= 0.634  step= 0.599 mean= 0.634
 gam= 0.284 g(H,U,f)=  0.296E-01 0.185E-02 0.241E-19 ort(H,U,f) = 0.150E-02-0.148E-02-0.427E-19
CGA:   2    -0.202688904311E+04   -0.33248E-01   -0.33248E-01  1304   0.315E-01 0.225E-04
 gam= 0.284 trial= 0.632  step= 0.549 mean= 0.632
 gam= 0.165 g(H,U,f)=  0.502E-02 0.176E-03 0.978E-19 ort(H,U,f) =-0.246E-03 0.230E-03-0.386E-19
CGA:   3    -0.202689768949E+04   -0.86464E-02   -0.86458E-02  1304   0.520E-02-0.155E-04
 gam= 0.165 trial= 0.628  step= 0.480 mean= 0.628
 gam= 0.220 g(H,U,f)=  0.106E-02 0.852E-04 0.470E-20 ort(H,U,f) =-0.649E-04 0.746E-04-0.206E-19
CGA:   4    -0.202689893704E+04   -0.12476E-02   -0.12483E-02  1304   0.114E-02 0.964E-05
 gam= 0.220 trial= 0.620  step= 0.525 mean= 0.620
 gam= 0.251 g(H,U,f)=  0.253E-03 0.337E-04 0.106E-19 ort(H,U,f) =-0.641E-04 0.567E-04 0.239E-21
CGA:   5    -0.202689923813E+04   -0.30109E-03   -0.30074E-03  1304   0.287E-03-0.741E-05
 gam= 0.251 trial= 0.616  step= 0.553 mean= 0.616
 gam= 0.409 g(H,U,f)=  0.104E-03 0.138E-04 0.926E-20 ort(H,U,f) =-0.223E-04 0.279E-04-0.139E-19
CGA:   6    -0.202689931690E+04   -0.78765E-04   -0.78939E-04  1304   0.117E-03 0.559E-05
 gam= 0.409 trial= 0.613  step= 0.574 mean= 0.613
 gam= 0.416 g(H,U,f)=  0.441E-04 0.483E-05 0.995E-21 ort(H,U,f) =-0.161E-04 0.124E-04 0.155E-20
CGA:   7    -0.202689935131E+04   -0.34416E-04   -0.34343E-04  1304   0.489E-04-0.375E-05
 gam= 0.416 trial= 0.611  step= 0.593 mean= 0.611
 gam= 0.256 g(H,U,f)=  0.118E-04 0.678E-06 0.325E-21 ort(H,U,f) =-0.756E-06 0.350E-05-0.120E-20
CGA:   8    -0.202689936532E+04   -0.14008E-04   -0.14033E-04  1304   0.125E-04 0.275E-05
 gam= 0.256 trial= 0.610  step= 0.697 mean= 0.610
 gam= 0.348 g(H,U,f)=  0.423E-05 0.121E-06 0.212E-20 ort(H,U,f) =-0.131E-05 0.337E-06-0.454E-22
CGA:   9    -0.202689936988E+04   -0.45624E-05   -0.46047E-05  1304   0.435E-05-0.975E-06
 gam= 0.348 trial= 0.614  step= 0.427 mean= 0.614
 gam= 0.261 g(H,U,f)=  0.112E-05 0.192E-07 0.222E-20 ort(H,U,f) = 0.607E-06 0.467E-07 0.258E-20
CGA:  10    -0.202689937068E+04   -0.79451E-06   -0.85589E-06  1304   0.114E-05 0.654E-06
 gam= 0.261 trial= 0.605  step= 0.643 mean= 0.605
 gam= 0.393 g(H,U,f)=  0.426E-06 0.215E-07 0.260E-22 ort(H,U,f) =-0.141E-06-0.245E-08 0.403E-21
CGA:  11    -0.202689937109E+04   -0.41784E-06   -0.42065E-06  1304   0.447E-06-0.143E-06
 gam= 0.393 trial= 0.607  step= 0.605 mean= 0.607
 gam= 0.339 g(H,U,f)=  0.147E-06 0.493E-08 0.466E-21 ort(H,U,f) = 0.407E-07-0.256E-08 0.983E-21
CGA:  12    -0.202689937121E+04   -0.11831E-06   -0.11818E-06  1304   0.152E-06 0.381E-07
 gam= 0.339 trial= 0.607  step= 0.632 mean= 0.607
 gam= 0.340 g(H,U,f)=  0.490E-07 0.257E-08 0.300E-21 ort(H,U,f) = 0.403E-08 0.131E-09 0.796E-21
CGA:  13    -0.202689937126E+04   -0.52052E-07   -0.52037E-07  1304   0.516E-07 0.417E-08
 gam= 0.340 trial= 0.608  step=14.894 mean= 0.608
 gam= 0.340 trial= 3.951  step= 3.951 mean= 0.959
 gam= 0.000 g(H,U,f)=  0.141E-05 0.685E-07 0.511E-23 ort(H,U,f) =-0.244E-06-0.691E-08-0.553E-23
CGA:  14    -0.202689937096E+04    0.30368E-06    0.25336E+03  1304   0.148E-05-0.251E-06
 gam= 0.000 trial= 1.109  step= 0.382 mean= 1.109
 gam= 0.143 g(H,U,f)=  0.207E-06 0.472E-08 0.903E-23 ort(H,U,f) = 0.186E-06-0.402E-08 0.706E-23
CGA:  15    -0.202689937118E+04   -0.21588E-06   -0.28180E-06  1304   0.211E-06 0.182E-06
 gam= 0.143 trial= 1.072  step= 0.858 mean= 1.072
 gam= 0.000 g(H,U,f)=  0.186E-06 0.117E-07 0.812E-25 ort(H,U,f) =-0.121E-06-0.140E-08 0.444E-24
CGA:  16    -0.202689937129E+04   -0.11500E-06   -0.10179E-06  1304   0.197E-06-0.123E-06
 gam= 0.000 trial= 1.062  step= 0.247 mean= 1.062
 gam= 0.186 g(H,U,f)=  0.344E-07 0.231E-08 0.667E-24 ort(H,U,f) = 0.636E-07 0.473E-08 0.806E-25
CGA:  17    -0.202689937129E+04    0.37835E-08   -0.24393E-07  1304   0.367E-07 0.684E-07
 gam= 0.186 trial= 1.021  step= 0.261 mean= 1.021
 final diagonalization
  18 F= -.20483530E+04 E0= -.20483530E+04  d E =-.402397E-02
 curvature:  -4.09 expect dE=-0.519E-01 dE for cont linesearch -0.298E-06
 trial: gam= 0.92348 g(F)=  0.127E-01 g(S)=  0.687E-05 ort =-0.111E-03 (trialstep = 0.221E+00)
 search vector abs. value=  0.158E+00
 bond charge predicted
       N       E                     dE             d eps       ncg     rms          ort
 gam= 0.000 g(H,U,f)=  0.213E+00 0.188E-01 0.286E-17 ort(H,U,f) = 0.000E+00 0.000E+00 0.000E+00
SDA:   1    -0.202681016409E+04    0.89207E-01    0.00000E+00  1304   0.232E+00 0.000E+00
 gam= 0.000 trial= 0.983  step= 0.594 mean= 0.983
 gam= 0.282 g(H,U,f)=  0.613E-01 0.401E-02 0.221E-17 ort(H,U,f) = 0.368E-02-0.366E-02-0.423E-17
CGA:   2    -0.202687899481E+04   -0.68831E-01   -0.68831E-01  1304   0.653E-01 0.219E-04
 gam= 0.282 trial= 0.963  step= 0.559 mean= 0.963
 gam= 0.159 g(H,U,f)=  0.101E-01 0.346E-03 0.176E-17 ort(H,U,f) =-0.538E-03 0.521E-03 0.825E-18
CGA:   3    -0.202689725204E+04   -0.18257E-01   -0.18255E-01  1304   0.104E-01-0.170E-04
 gam= 0.159 trial= 0.943  step= 0.484 mean= 0.943
 gam= 0.224 g(H,U,f)=  0.216E-02 0.171E-03 0.266E-17 ort(H,U,f) =-0.141E-03 0.151E-03 0.305E-17
CGA:   4    -0.202689976699E+04   -0.25150E-02   -0.25171E-02  1304   0.233E-02 0.977E-05
 gam= 0.224 trial= 0.920  step= 0.522 mean= 0.920
 gam= 0.248 g(H,U,f)=  0.508E-03 0.685E-04 0.158E-17 ort(H,U,f) =-0.123E-03 0.116E-03 0.332E-17
CGA:   5    -0.202690037712E+04   -0.61013E-03   -0.60877E-03  1304   0.577E-03-0.684E-05
 gam= 0.248 trial= 0.900  step= 0.572 mean= 0.900
 gam= 0.420 g(H,U,f)=  0.215E-03 0.274E-04 0.885E-18 ort(H,U,f) =-0.513E-04 0.565E-04 0.263E-17
CGA:   6    -0.202690054066E+04   -0.16354E-03   -0.16438E-03  1304   0.243E-03 0.515E-05
 gam= 0.420 trial= 0.884  step= 0.554 mean= 0.884
 gam= 0.407 g(H,U,f)=  0.891E-04 0.952E-05 0.795E-18 ort(H,U,f) =-0.291E-04 0.253E-04 0.244E-17
CGA:   7    -0.202690060907E+04   -0.68410E-04   -0.67776E-04  1304   0.987E-04-0.385E-05
 gam= 0.407 trial= 0.867  step= 0.611 mean= 0.867
 gam= 0.273 g(H,U,f)=  0.256E-04 0.134E-05 0.562E-18 ort(H,U,f) =-0.403E-05 0.674E-05 0.174E-17
CGA:   8    -0.202690063836E+04   -0.29296E-04   -0.29644E-04  1304   0.269E-04 0.271E-05
 gam= 0.273 trial= 0.855  step= 0.662 mean= 0.855
 gam= 0.310 g(H,U,f)=  0.812E-05 0.209E-06 0.136E-18 ort(H,U,f) =-0.171E-05 0.729E-06-0.141E-18
CGA:   9    -0.202690064761E+04   -0.92415E-05   -0.91467E-05  1304   0.833E-05-0.985E-06
 gam= 0.310 trial= 0.845  step= 0.469 mean= 0.845
 gam= 0.297 g(H,U,f)=  0.242E-05 0.535E-07 0.171E-18 ort(H,U,f) = 0.636E-06 0.678E-07-0.159E-19
CGA:  10    -0.202690064935E+04   -0.17490E-05   -0.18813E-05  1304   0.247E-05 0.704E-06
 gam= 0.297 trial= 0.826  step= 0.627 mean= 0.826
 gam= 0.427 g(H,U,f)=  0.102E-05 0.388E-07 0.184E-18 ort(H,U,f) =-0.323E-06-0.904E-08 0.687E-20
CGA:  11    -0.202690065023E+04   -0.87378E-06   -0.84053E-06  1304   0.106E-05-0.332E-06
 gam= 0.427 trial= 0.816  step= 0.456 mean= 0.816
 gam= 0.315 g(H,U,f)=  0.323E-06 0.100E-07 0.173E-18 ort(H,U,f) = 0.176E-06 0.265E-08-0.725E-19
CGA:  12    -0.202690065040E+04   -0.17594E-06   -0.20830E-06  1304   0.333E-06 0.179E-06
 gam= 0.315 trial= 0.798  step= 0.659 mean= 0.798
 gam= 0.394 g(H,U,f)=  0.125E-06 0.618E-08 0.451E-78 ort(H,U,f) =-0.176E-07-0.107E-09-0.791E-78
CGA:  13    -0.202690065053E+04   -0.12959E-06   -0.12825E-06  1304   0.131E-06-0.177E-07
 gam= 0.394 trial= 0.791  step= 2.326 mean= 0.791
 gam= 0.000 g(H,U,f)=  0.134E-05 0.496E-07 0.482E-75 ort(H,U,f) =-0.324E-06-0.732E-08-0.216E-76
CGA:  14    -0.202690065042E+04    0.10963E-06   -0.14444E-06  1304   0.139E-05-0.331E-06
 gam= 0.000 trial= 0.868  step= 0.267 mean= 0.868
 gam= 0.128 g(H,U,f)=  0.175E-06 0.287E-08 0.867E-77 ort(H,U,f) = 0.258E-06 0.649E-08 0.742E-76
CGA:  15    -0.202690065053E+04   -0.10639E-06   -0.18561E-06  1304   0.177E-06 0.264E-06
 gam= 0.128 trial= 0.838  step= 0.466 mean= 0.838
 gam= 0.376 g(H,U,f)=  0.615E-07 0.519E-08 0.721E-76 ort(H,U,f) = 0.242E-07-0.226E-08-0.649E-76
CGA:  16    -0.202690065058E+04   -0.45082E-07   -0.49175E-07  1304   0.667E-07 0.219E-07
 gam= 0.376 trial= 0.819  step= 4.126 mean= 0.819
 gam= 0.376 trial= 5.325  step= 5.325 mean= 1.293
 gam= 0.000 g(H,U,f)=  0.849E-05 0.244E-06 0.516E-72 ort(H,U,f) =-0.728E-06-0.232E-07-0.388E-73
CGA:  17    -0.202690064907E+04    0.15032E-05    0.25336E+03  1304   0.874E-05-0.752E-06
 gam= 0.000 trial= 1.494  step= 0.291 mean= 1.494
 gam= 0.129 g(H,U,f)=  0.111E-05 0.163E-07 0.216E-74 ort(H,U,f) = 0.474E-06 0.102E-07 0.383E-73
CGA:  18    -0.202690065005E+04   -0.98137E-06   -0.12726E-05  1304   0.113E-05 0.485E-06
 gam= 0.129 trial= 1.434  step= 0.736 mean= 1.434
 gam= 0.211 g(H,U,f)=  0.223E-06 0.146E-07 0.158E-72 ort(H,U,f) =-0.865E-07-0.726E-08-0.795E-73
CGA:  19    -0.202690065053E+04   -0.47113E-06   -0.43840E-06  1304   0.238E-06-0.937E-07
 gam= 0.211 trial= 1.399  step= 0.568 mean= 1.399
 gam= 0.364 g(H,U,f)=  0.813E-07 0.526E-08 0.655E-73 ort(H,U,f) =-0.261E-07-0.456E-08-0.108E-72
CGA:  20    -0.202690065060E+04   -0.74753E-07   -0.62045E-07  1304   0.866E-07-0.307E-07
 gam= 0.364 trial= 1.358  step= 0.397 mean= 1.358
 final diagonalization
  19 F= -.20483553E+04 E0= -.20483553E+04  d E =-.231947E-02
 trial-energy change:   -0.002319  1 .order   -0.002329   -0.002780   -0.001879
 step:   0.8325(harm=  0.6811)  dis= 0.01276  next Energy= -2048.357672 (dE=-0.471E-02)
 bond charge predicted
       N       E                     dE             d eps       ncg     rms          ort
 gam= 0.000 g(H,U,f)=  0.163E+01 0.144E+00 0.604E-68 ort(H,U,f) = 0.000E+00 0.000E+00 0.000E+00
SDA:   1    -0.202620518116E+04    0.69547E+00    0.00000E+00  1304   0.178E+01 0.000E+00
 gam= 0.000 trial= 1.310  step= 0.594 mean= 1.310
 gam= 0.282 g(H,U,f)=  0.471E+00 0.306E-01 0.102E-66 ort(H,U,f) = 0.283E-01-0.279E-01-0.263E-66
CGA:   2    -0.202673339645E+04   -0.52822E+00   -0.52813E+00  1304   0.501E+00 0.345E-03
 gam= 0.282 trial= 1.274  step= 0.559 mean= 1.274
 gam= 0.159 g(H,U,f)=  0.771E-01 0.265E-02 0.397E-67 ort(H,U,f) =-0.408E-02 0.399E-02-0.796E-68
CGA:   3    -0.202687338093E+04   -0.13998E+00   -0.14001E+00  1304   0.798E-01-0.870E-04
 gam= 0.159 trial= 1.238  step= 0.485 mean= 1.238
 gam= 0.223 g(H,U,f)=  0.165E-01 0.131E-02 0.288E-67 ort(H,U,f) =-0.113E-02 0.116E-02 0.126E-66
CGA:   4    -0.202689270497E+04   -0.19324E-01   -0.19331E-01  1304   0.178E-01 0.273E-04
 gam= 0.223 trial= 1.200  step= 0.523 mean= 1.200
 gam= 0.246 g(H,U,f)=  0.385E-02 0.524E-03 0.563E-65 ort(H,U,f) =-0.902E-03 0.888E-03 0.240E-65
CGA:   5    -0.202689736086E+04   -0.46559E-02   -0.46516E-02  1304   0.438E-02-0.141E-04
 gam= 0.246 trial= 1.167  step= 0.580 mean= 1.167
 gam= 0.427 g(H,U,f)=  0.166E-02 0.208E-03 0.484E-65 ort(H,U,f) =-0.417E-03 0.429E-03 0.520E-64
CGA:   6    -0.202689862588E+04   -0.12650E-02   -0.12681E-02  1304   0.187E-02 0.113E-04
 gam= 0.427 trial= 1.137  step= 0.544 mean= 1.137
 gam= 0.397 g(H,U,f)=  0.671E-03 0.723E-04 0.334E-66 ort(H,U,f) =-0.204E-03 0.196E-03 0.161E-64
CGA:   7    -0.202689913800E+04   -0.51212E-03   -0.50980E-03  1304   0.743E-03-0.807E-05
 gam= 0.397 trial= 1.108  step= 0.626 mean= 1.108
 gam= 0.284 g(H,U,f)=  0.201E-03 0.101E-04 0.301E-62 ort(H,U,f) =-0.438E-04 0.498E-04 0.309E-62
CGA:   8    -0.202689936844E+04   -0.23044E-03   -0.23189E-03  1304   0.211E-03 0.607E-05
 gam= 0.284 trial= 1.084  step= 0.640 mean= 1.084
 gam= 0.287 g(H,U,f)=  0.591E-04 0.149E-05 0.128E-62 ort(H,U,f) =-0.773E-05 0.558E-05-0.853E-62
CGA:   9    -0.202689943710E+04   -0.68658E-04   -0.68181E-04  1304   0.606E-04-0.215E-05
 gam= 0.287 trial= 1.061  step= 0.508 mean= 1.061
 gam= 0.339 g(H,U,f)=  0.200E-04 0.486E-06 0.132E-64 ort(H,U,f) = 0.124E-05 0.346E-06 0.219E-63
CGA:  10    -0.202689945190E+04   -0.14803E-04   -0.15240E-04  1304   0.205E-04 0.158E-05
 gam= 0.339 trial= 1.034  step= 0.544 mean= 1.034
 gam= 0.349 g(H,U,f)=  0.692E-05 0.252E-06 0.673E-62 ort(H,U,f) =-0.797E-06-0.499E-07 0.362E-62
CGA:  11    -0.202689945783E+04   -0.59312E-05   -0.57236E-05  1304   0.717E-05-0.847E-06
 gam= 0.349 trial= 1.009  step= 0.559 mean= 1.009
 gam= 0.333 g(H,U,f)=  0.231E-05 0.795E-07 0.492E-63 ort(H,U,f) = 0.460E-06-0.132E-07-0.395E-62
CGA:  12    -0.202689945965E+04   -0.18201E-05   -0.19207E-05  1304   0.239E-05 0.447E-06
 gam= 0.333 trial= 0.987  step= 0.729 mean= 0.987
 gam= 0.465 g(H,U,f)=  0.106E-05 0.487E-07 0.104E-62 ort(H,U,f) =-0.277E-06 0.604E-08 0.240E-62
CGA:  13    -0.202689946061E+04   -0.96031E-06   -0.92543E-06  1304   0.111E-05-0.271E-06
 gam= 0.465 trial= 0.974  step= 0.498 mean= 0.974
 gam= 0.348 g(H,U,f)=  0.371E-06 0.151E-07 0.379E-62 ort(H,U,f) = 0.779E-07 0.225E-07 0.626E-62
CGA:  14    -0.202689946083E+04   -0.22148E-06   -0.24509E-06  1304   0.386E-06 0.100E-06
 gam= 0.348 trial= 0.950  step= 0.677 mean= 0.950
 gam= 0.426 g(H,U,f)=  0.156E-06 0.813E-08 0.169E-62 ort(H,U,f) =-0.716E-07 0.797E-08-0.676E-62
CGA:  15    -0.202689946098E+04   -0.15135E-06   -0.14272E-06  1304   0.165E-06-0.637E-07
 gam= 0.426 trial= 0.936  step= 0.518 mean= 0.936
 gam= 0.346 g(H,U,f)=  0.547E-07 0.235E-08 0.168E-62 ort(H,U,f) = 0.113E-07 0.320E-08 0.172E-62
CGA:  16    -0.202689946102E+04   -0.32596E-07   -0.35638E-07  1304   0.570E-07 0.145E-07
 gam= 0.346 trial= 0.915  step= 0.689 mean= 0.915
 final diagonalization
  20 F= -.20483570E+04 E0= -.20483570E+04  d E =-.403624E-02
 curvature:  -3.82 expect dE=-0.588E-01 dE for cont linesearch -0.189E-03
 ZBRENT: interpolating
 opt :   0.6812  next Energy= -2048.357208 (dE=-0.425E-02)
 bond charge predicted
       N       E                     dE             d eps       ncg     rms          ort
 gam= 0.000 g(H,U,f)=  0.999E-01 0.885E-02 0.125E-56 ort(H,U,f) = 0.000E+00 0.000E+00 0.000E+00
SDA:   1    -0.202685792792E+04    0.41533E-01    0.00000E+00  1304   0.109E+00 0.000E+00
 gam= 0.000 trial= 0.904  step= 0.594 mean= 0.904
 gam= 0.282 g(H,U,f)=  0.288E-01 0.189E-02 0.759E-58 ort(H,U,f) = 0.171E-02-0.173E-02-0.245E-57
CGA:   2    -0.202689023774E+04   -0.32310E-01   -0.32309E-01  1304   0.307E-01-0.136E-04
 gam= 0.282 trial= 0.889  step= 0.558 mean= 0.889
 gam= 0.159 g(H,U,f)=  0.473E-02 0.163E-03 0.368E-57 ort(H,U,f) =-0.233E-03 0.246E-03-0.362E-58
CGA:   3    -0.202689879863E+04   -0.85609E-02   -0.85628E-02  1304   0.489E-02 0.129E-04
 gam= 0.159 trial= 0.872  step= 0.484 mean= 0.872
 gam= 0.226 g(H,U,f)=  0.102E-02 0.804E-04 0.358E-58 ort(H,U,f) =-0.777E-04 0.708E-04 0.136E-57
CGA:   4    -0.202689998389E+04   -0.11853E-02   -0.11839E-02  1304   0.110E-02-0.689E-05
 gam= 0.226 trial= 0.853  step= 0.515 mean= 0.853
 gam= 0.244 g(H,U,f)=  0.238E-03 0.323E-04 0.112E-56 ort(H,U,f) =-0.496E-04 0.550E-04 0.506E-57
CGA:   5    -0.202690026706E+04   -0.28316E-03   -0.28408E-03  1304   0.270E-03 0.544E-05
 gam= 0.244 trial= 0.836  step= 0.584 mean= 0.836
 gam= 0.445 g(H,U,f)=  0.107E-03 0.129E-04 0.196E-58 ort(H,U,f) =-0.301E-04 0.262E-04 0.190E-57
CGA:   6    -0.202690034671E+04   -0.79658E-04   -0.79172E-04  1304   0.120E-03-0.386E-05
 gam= 0.445 trial= 0.823  step= 0.523 mean= 0.823
 gam= 0.360 g(H,U,f)=  0.387E-04 0.444E-05 0.131E-60 ort(H,U,f) =-0.965E-05 0.125E-04 0.729E-59
CGA:   7    -0.202690037719E+04   -0.30480E-04   -0.30912E-04  1304   0.432E-04 0.288E-05
 gam= 0.360 trial= 0.808  step= 0.686 mean= 0.808
 gam= 0.320 g(H,U,f)=  0.132E-04 0.605E-06 0.437E-57 ort(H,U,f) =-0.461E-05 0.278E-05 0.382E-57
CGA:   8    -0.202690039246E+04   -0.15272E-04   -0.15161E-04  1304   0.138E-04-0.183E-05
 gam= 0.320 trial= 0.802  step= 0.593 mean= 0.802
 gam= 0.238 g(H,U,f)=  0.322E-05 0.750E-07 0.212E-58 ort(H,U,f) = 0.356E-06 0.336E-06-0.172E-57
CGA:   9    -0.202690039632E+04   -0.38560E-05   -0.39282E-05  1304   0.329E-05 0.692E-06
 gam= 0.238 trial= 0.792  step= 0.647 mean= 0.792
 gam= 0.527 g(H,U,f)=  0.169E-05 0.464E-07 0.300E-59 ort(H,U,f) =-0.555E-06-0.874E-08 0.117E-58
CGA:  10    -0.202690039748E+04   -0.11590E-05   -0.11181E-05  1304   0.173E-05-0.564E-06
 gam= 0.527 trial= 0.784  step= 0.355 mean= 0.784
 gam= 0.267 g(H,U,f)=  0.447E-06 0.157E-07 0.157E-58 ort(H,U,f) = 0.264E-06-0.437E-09 0.262E-58
CGA:  11    -0.202690039768E+04   -0.19858E-06   -0.25527E-06  1304   0.462E-06 0.264E-06
 gam= 0.267 trial= 0.763  step= 0.455 mean= 0.763
 gam= 0.472 g(H,U,f)=  0.209E-06 0.905E-08 0.773E-60 ort(H,U,f) = 0.802E-07-0.250E-09-0.663E-59
CGA:  12    -0.202690039779E+04   -0.10886E-06   -0.12118E-06  1304   0.218E-06 0.800E-07
 gam= 0.472 trial= 0.748  step= 1.015 mean= 0.748
 gam= 0.000 g(H,U,f)=  0.768E-06 0.127E-07 0.112E-58 ort(H,U,f) =-0.331E-06-0.468E-08-0.160E-58
CGA:  13    -0.202690039787E+04   -0.84998E-07   -0.12997E-06  1304   0.781E-06-0.336E-06
 gam= 0.000 trial= 0.761  step= 0.214 mean= 0.761
 final diagonalization
  21 F= -.20483572E+04 E0= -.20483572E+04  d E =-.425094E-02
 curvature:  -4.28 expect dE=-0.423E-01 dE for cont linesearch -0.415E-07
 trial: gam= 0.78586 g(F)=  0.933E-02 g(S)=  0.555E-03 ort =-0.392E-04 (trialstep = 0.313E+00)
 search vector abs. value=  0.107E+00
 bond charge predicted
       N       E                     dE             d eps       ncg     rms          ort
 gam= 0.000 g(H,U,f)=  0.287E+00 0.260E-01 0.482E-53 ort(H,U,f) = 0.000E+00 0.000E+00 0.000E+00
SDA:   1    -0.202678208105E+04    0.11832E+00    0.00000E+00  1304   0.313E+00 0.000E+00
 gam= 0.000 trial= 0.734  step= 0.588 mean= 0.734
 gam= 0.280 g(H,U,f)=  0.824E-01 0.536E-02 0.113E-53 ort(H,U,f) = 0.480E-02-0.480E-02-0.133E-53
CGA:   2    -0.202687426322E+04   -0.92182E-01   -0.92181E-01  1304   0.878E-01-0.418E-05
 gam= 0.280 trial= 0.726  step= 0.564 mean= 0.726
 gam= 0.164 g(H,U,f)=  0.139E-01 0.516E-03 0.170E-52 ort(H,U,f) =-0.635E-03 0.638E-03-0.538E-53
CGA:   3    -0.202689901529E+04   -0.24752E-01   -0.24752E-01  1304   0.144E-01 0.327E-05
 gam= 0.164 trial= 0.718  step= 0.489 mean= 0.718
 gam= 0.212 g(H,U,f)=  0.280E-02 0.247E-03 0.885E-55 ort(H,U,f) =-0.188E-03 0.181E-03-0.344E-54
CGA:   4    -0.202690253493E+04   -0.35196E-02   -0.35190E-02  1304   0.305E-02-0.663E-05
 gam= 0.212 trial= 0.707  step= 0.552 mean= 0.707
 gam= 0.222 g(H,U,f)=  0.591E-03 0.864E-04 0.204E-55 ort(H,U,f) =-0.138E-03 0.146E-03-0.132E-55
CGA:   5    -0.202690337650E+04   -0.84157E-03   -0.84218E-03  1304   0.678E-03 0.801E-05
 gam= 0.222 trial= 0.699  step= 0.694 mean= 0.699
 gam= 0.375 g(H,U,f)=  0.227E-03 0.272E-04 0.171E-54 ort(H,U,f) =-0.674E-04 0.621E-04 0.816E-55
CGA:   6    -0.202690361232E+04   -0.23582E-03   -0.23580E-03  1304   0.254E-03-0.535E-05
 gam= 0.375 trial= 0.699  step= 0.631 mean= 0.699
 gam= 0.448 g(H,U,f)=  0.105E-03 0.883E-05 0.195E-56 ort(H,U,f) =-0.202E-04 0.242E-04 0.261E-55
CGA:   7    -0.202690369159E+04   -0.79275E-04   -0.79413E-04  1304   0.114E-03 0.405E-05
 gam= 0.448 trial= 0.695  step= 0.551 mean= 0.695
 gam= 0.355 g(H,U,f)=  0.389E-04 0.144E-05 0.134E-57 ort(H,U,f) =-0.884E-05 0.610E-05-0.479E-56
CGA:   8    -0.202690372365E+04   -0.32057E-04   -0.31860E-04  1304   0.404E-04-0.273E-05
 gam= 0.355 trial= 0.688  step= 0.538 mean= 0.688
 gam= 0.227 g(H,U,f)=  0.898E-05 0.167E-06 0.455E-55 ort(H,U,f) = 0.438E-06 0.789E-06 0.416E-55
CGA:   9    -0.202690373416E+04   -0.10511E-04   -0.10603E-04  1304   0.915E-05 0.123E-05
 gam= 0.227 trial= 0.681  step= 0.680 mean= 0.681
 gam= 0.355 g(H,U,f)=  0.312E-05 0.126E-06 0.250E-58 ort(H,U,f) =-0.835E-06-0.618E-07 0.190E-56
CGA:  10    -0.202690373737E+04   -0.32070E-05   -0.32069E-05  1304   0.325E-05-0.897E-06
 gam= 0.355 trial= 0.681  step= 0.496 mean= 0.681
 gam= 0.306 g(H,U,f)=  0.958E-06 0.371E-07 0.103E-55 ort(H,U,f) = 0.367E-06-0.172E-07 0.192E-55
CGA:  11    -0.202690373806E+04   -0.69496E-06   -0.72705E-06  1304   0.995E-06 0.349E-06
 gam= 0.306 trial= 0.671  step= 0.745 mean= 0.671
 gam= 0.567 g(H,U,f)=  0.541E-06 0.236E-07 0.944E-56 ort(H,U,f) =-0.209E-06-0.372E-08 0.234E-55
CGA:  12    -0.202690373846E+04   -0.40233E-06   -0.41027E-06  1304   0.565E-06-0.213E-06
 gam= 0.567 trial= 0.675  step= 0.492 mean= 0.675
 gam= 0.372 g(H,U,f)=  0.203E-06 0.732E-08 0.753E-58 ort(H,U,f) = 0.518E-07 0.662E-08-0.256E-56
CGA:  13    -0.202690373857E+04   -0.10386E-06   -0.10912E-06  1304   0.210E-06 0.584E-07
 gam= 0.372 trial= 0.666  step= 0.653 mean= 0.666
 gam= 0.368 g(H,U,f)=  0.729E-07 0.451E-08 0.539E-57 ort(H,U,f) =-0.365E-07 0.428E-08-0.325E-56
CGA:  14    -0.202690373864E+04   -0.75983E-07   -0.75735E-07  1304   0.774E-07-0.322E-07
 gam= 0.368 trial= 0.665  step= 1.494 mean= 0.665
 final diagonalization
  22 F= -.20483593E+04 E0= -.20483593E+04  d E =-.209663E-02
 trial-energy change:   -0.002097  1 .order   -0.002092   -0.003084   -0.001101
 step:   0.4867(harm=  0.4867)  dis= 0.00621  next Energy= -2048.359609 (dE=-0.240E-02)
 bond charge predicted
       N       E                     dE             d eps       ncg     rms          ort
 gam= 0.000 g(H,U,f)=  0.886E-01 0.801E-02 0.644E-51 ort(H,U,f) = 0.000E+00 0.000E+00 0.000E+00
SDA:   1    -0.202686721211E+04    0.36526E-01    0.00000E+00  1304   0.966E-01 0.000E+00
 gam= 0.000 trial= 0.707  step= 0.589 mean= 0.707
 gam= 0.280 g(H,U,f)=  0.254E-01 0.166E-02 0.308E-51 ort(H,U,f) = 0.148E-02-0.148E-02-0.357E-51
CGA:   2    -0.202689563734E+04   -0.28425E-01   -0.28425E-01  1304   0.271E-01-0.888E-06
 gam= 0.280 trial= 0.701  step= 0.564 mean= 0.701
 gam= 0.164 g(H,U,f)=  0.428E-02 0.159E-03 0.310E-50 ort(H,U,f) =-0.195E-03 0.196E-03-0.987E-51
CGA:   3    -0.202690326775E+04   -0.76304E-02   -0.76305E-02  1304   0.444E-02 0.120E-05
 gam= 0.164 trial= 0.694  step= 0.489 mean= 0.694
 gam= 0.211 g(H,U,f)=  0.863E-03 0.761E-04 0.615E-52 ort(H,U,f) =-0.593E-04 0.555E-04-0.239E-51
CGA:   4    -0.202690435406E+04   -0.10863E-02   -0.10859E-02  1304   0.939E-03-0.372E-05
 gam= 0.211 trial= 0.684  step= 0.553 mean= 0.684
 gam= 0.220 g(H,U,f)=  0.180E-03 0.265E-04 0.104E-52 ort(H,U,f) =-0.406E-04 0.448E-04-0.700E-53
CGA:   5    -0.202690461305E+04   -0.25898E-03   -0.25926E-03  1304   0.207E-03 0.426E-05
 gam= 0.220 trial= 0.677  step= 0.707 mean= 0.677
 gam= 0.370 g(H,U,f)=  0.683E-04 0.818E-05 0.917E-52 ort(H,U,f) =-0.217E-04 0.188E-04 0.411E-52
CGA:   6    -0.202690468634E+04   -0.73294E-04   -0.73336E-04  1304   0.765E-04-0.287E-05
 gam= 0.370 trial= 0.679  step= 0.646 mean= 0.679
 gam= 0.420 g(H,U,f)=  0.296E-04 0.252E-05 0.276E-54 ort(H,U,f) =-0.505E-05 0.716E-05 0.754E-53
CGA:   7    -0.202690471065E+04   -0.24307E-04   -0.24342E-04  1304   0.321E-04 0.211E-05
 gam= 0.420 trial= 0.677  step= 0.580 mean= 0.677
 gam= 0.400 g(H,U,f)=  0.124E-04 0.436E-06 0.215E-55 ort(H,U,f) =-0.320E-05 0.159E-05 0.137E-53
CGA:   8    -0.202690472030E+04   -0.96537E-05   -0.95760E-05  1304   0.129E-04-0.161E-05
 gam= 0.400 trial= 0.672  step= 0.488 mean= 0.672
 gam= 0.215 g(H,U,f)=  0.272E-05 0.471E-07 0.207E-52 ort(H,U,f) = 0.539E-06 0.244E-06 0.238E-52
CGA:   9    -0.202690472321E+04   -0.29075E-05   -0.29795E-05  1304   0.277E-05 0.782E-06
 gam= 0.215 trial= 0.663  step= 0.724 mean= 0.663
 gam= 0.372 g(H,U,f)=  0.981E-06 0.485E-07 0.102E-55 ort(H,U,f) =-0.415E-06-0.274E-07 0.857E-54
CGA:  10    -0.202690472426E+04   -0.10510E-05   -0.10645E-05  1304   0.103E-05-0.443E-06
 gam= 0.372 trial= 0.666  step= 0.563 mean= 0.666
 gam= 0.279 g(H,U,f)=  0.273E-06 0.145E-07 0.789E-53 ort(H,U,f) = 0.109E-06-0.129E-07 0.125E-52
CGA:  11    -0.202690472450E+04   -0.23831E-06   -0.24342E-06  1304   0.287E-06 0.957E-07
 gam= 0.279 trial= 0.661  step= 0.706 mean= 0.661
 gam= 0.403 g(H,U,f)=  0.110E-06 0.549E-08 0.118E-53 ort(H,U,f) =-0.244E-07 0.128E-08 0.630E-53
CGA:  12    -0.202690472461E+04   -0.11033E-06   -0.11086E-06  1304   0.116E-06-0.231E-07
 gam= 0.403 trial= 0.663  step= 1.036 mean= 0.663
 gam= 0.734 g(H,U,f)=  0.810E-07 0.397E-08 0.533E-53 ort(H,U,f) =-0.431E-07 0.101E-08-0.128E-52
CGA:  13    -0.202690472466E+04   -0.47294E-07   -0.55119E-07  1304   0.850E-07-0.421E-07
 gam= 0.734 trial= 0.682  step= 0.454 mean= 0.682
 final diagonalization
  23 F= -.20483596E+04 E0= -.20483596E+04  d E =-.239439E-02
 curvature:  -2.65 expect dE=-0.236E-01 dE for cont linesearch -0.704E-07
 trial: gam= 0.91031 g(F)=  0.868E-02 g(S)=  0.218E-03 ort =-0.534E-04 (trialstep = 0.348E+00)
 search vector abs. value=  0.979E-01
 bond charge predicted
       N       E                     dE             d eps       ncg     rms          ort
 gam= 0.000 g(H,U,f)=  0.314E+00 0.289E-01 0.315E-47 ort(H,U,f) = 0.000E+00 0.000E+00 0.000E+00
SDA:   1    -0.202677807464E+04    0.12665E+00    0.00000E+00  1304   0.343E+00 0.000E+00
 gam= 0.000 trial= 0.670  step= 0.586 mean= 0.670
 gam= 0.279 g(H,U,f)=  0.900E-01 0.561E-02 0.568E-44 ort(H,U,f) = 0.492E-02-0.494E-02-0.612E-44
CGA:   2    -0.202687858796E+04   -0.10051E+00   -0.10051E+00  1304   0.956E-01-0.182E-04
 gam= 0.279 trial= 0.666  step= 0.563 mean= 0.666
 gam= 0.170 g(H,U,f)=  0.157E-01 0.584E-03 0.128E-45 ort(H,U,f) =-0.581E-03 0.612E-03 0.111E-45
CGA:   3    -0.202690550786E+04   -0.26920E-01   -0.26921E-01  1304   0.162E-01 0.304E-04
 gam= 0.170 trial= 0.661  step= 0.478 mean= 0.661
 gam= 0.215 g(H,U,f)=  0.322E-02 0.282E-03 0.265E-48 ort(H,U,f) =-0.210E-03 0.194E-03 0.298E-47
CGA:   4    -0.202690939002E+04   -0.38822E-02   -0.38807E-02  1304   0.350E-02-0.165E-04
 gam= 0.215 trial= 0.652  step= 0.538 mean= 0.652
 gam= 0.238 g(H,U,f)=  0.735E-03 0.972E-04 0.654E-49 ort(H,U,f) =-0.151E-03 0.166E-03 0.481E-48
CGA:   5    -0.202691032901E+04   -0.93900E-03   -0.93987E-03  1304   0.833E-03 0.154E-04
 gam= 0.238 trial= 0.646  step= 0.610 mean= 0.646
 gam= 0.446 g(H,U,f)=  0.337E-03 0.349E-04 0.118E-47 ort(H,U,f) =-0.826E-04 0.731E-04 0.104E-47
CGA:   6    -0.202691058438E+04   -0.25537E-03   -0.25520E-03  1304   0.372E-03-0.954E-05
 gam= 0.446 trial= 0.644  step= 0.524 mean= 0.644
 gam= 0.384 g(H,U,f)=  0.129E-03 0.137E-04 0.438E-48 ort(H,U,f) =-0.295E-04 0.361E-04 0.118E-47
CGA:   7    -0.202691068026E+04   -0.95877E-04   -0.96276E-04  1304   0.143E-03 0.665E-05
 gam= 0.384 trial= 0.638  step= 0.649 mean= 0.638
 gam= 0.290 g(H,U,f)=  0.396E-04 0.174E-05 0.448E-48 ort(H,U,f) =-0.110E-04 0.834E-05-0.117E-47
CGA:   8    -0.202691072733E+04   -0.47067E-04   -0.47081E-04  1304   0.413E-04-0.266E-05
 gam= 0.290 trial= 0.639  step= 0.633 mean= 0.639
 gam= 0.246 g(H,U,f)=  0.994E-05 0.223E-06 0.187E-48 ort(H,U,f) = 0.219E-06 0.847E-06-0.110E-48
CGA:   9    -0.202691074017E+04   -0.12840E-04   -0.12842E-04  1304   0.102E-04 0.107E-05
 gam= 0.246 trial= 0.639  step= 0.637 mean= 0.639
 gam= 0.490 g(H,U,f)=  0.484E-05 0.142E-06 0.888E-49 ort(H,U,f) =-0.136E-05-0.262E-07-0.157E-48
CGA:  10    -0.202691074349E+04   -0.33215E-05   -0.33203E-05  1304   0.498E-05-0.139E-05
 gam= 0.490 trial= 0.639  step= 0.386 mean= 0.639
 gam= 0.249 g(H,U,f)=  0.120E-05 0.422E-07 0.505E-49 ort(H,U,f) = 0.597E-06 0.292E-09 0.110E-49
CGA:  11    -0.202691074424E+04   -0.75561E-06   -0.83094E-06  1304   0.124E-05 0.597E-06
 gam= 0.249 trial= 0.626  step= 0.557 mean= 0.626
 gam= 0.459 g(H,U,f)=  0.538E-06 0.312E-07 0.432E-49 ort(H,U,f) = 0.135E-06-0.769E-08-0.665E-49
CGA:  12    -0.202691074463E+04   -0.38309E-06   -0.38743E-06  1304   0.570E-06 0.127E-06
 gam= 0.459 trial= 0.622  step= 0.939 mean= 0.622
 gam= 0.000 g(H,U,f)=  0.149E-05 0.330E-07 0.926E-49 ort(H,U,f) =-0.599E-06-0.944E-08-0.289E-49
CGA:  13    -0.202691074483E+04   -0.19888E-06   -0.29482E-06  1304   0.152E-05-0.608E-06
 gam= 0.000 trial= 0.638  step= 0.212 mean= 0.638
 gam= 0.113 g(H,U,f)=  0.167E-06 0.455E-08 0.822E-51 ort(H,U,f) = 0.354E-06 0.840E-08 0.947E-50
CGA:  14    -0.202691074491E+04   -0.84161E-07   -0.16137E-06  1304   0.172E-06 0.363E-06
 gam= 0.113 trial= 0.617  step= 0.239 mean= 0.617
 final diagonalization
  24 F= -.20483620E+04 E0= -.20483620E+04  d E =-.238141E-02
 trial-energy change:   -0.002381  1 .order   -0.002373   -0.003077   -0.001668
 step:   0.7287(harm=  0.7589)  dis= 0.00921  next Energy= -2048.362913 (dE=-0.331E-02)
 bond charge predicted
       N       E                     dE             d eps       ncg     rms          ort
 gam= 0.000 g(H,U,f)=  0.378E+00 0.347E-01 0.134E-43 ort(H,U,f) = 0.000E+00 0.000E+00 0.000E+00
SDA:   1    -0.202675630925E+04    0.15444E+00    0.00000E+00  1304   0.412E+00 0.000E+00
 gam= 0.000 trial= 0.598  step= 0.586 mean= 0.598
 gam= 0.279 g(H,U,f)=  0.108E+00 0.674E-02 0.364E-40 ort(H,U,f) = 0.591E-02-0.594E-02-0.397E-40
CGA:   2    -0.202687707188E+04   -0.12076E+00   -0.12076E+00  1304   0.115E+00-0.238E-04
 gam= 0.279 trial= 0.597  step= 0.563 mean= 0.597
 gam= 0.170 g(H,U,f)=  0.188E-01 0.702E-03 0.655E-42 ort(H,U,f) =-0.696E-03 0.733E-03 0.560E-42
CGA:   3    -0.202690941066E+04   -0.32339E-01   -0.32339E-01  1304   0.195E-01 0.370E-04
 gam= 0.170 trial= 0.596  step= 0.478 mean= 0.596
 gam= 0.216 g(H,U,f)=  0.387E-02 0.338E-03 0.120E-44 ort(H,U,f) =-0.252E-03 0.232E-03 0.132E-43
CGA:   4    -0.202691407451E+04   -0.46638E-02   -0.46627E-02  1304   0.421E-02-0.198E-04
 gam= 0.216 trial= 0.590  step= 0.538 mean= 0.590
 gam= 0.238 g(H,U,f)=  0.885E-03 0.117E-03 0.288E-45 ort(H,U,f) =-0.181E-03 0.200E-03 0.204E-44
CGA:   5    -0.202691520361E+04   -0.11291E-02   -0.11296E-02  1304   0.100E-02 0.188E-04
 gam= 0.238 trial= 0.587  step= 0.609 mean= 0.587
 gam= 0.447 g(H,U,f)=  0.406E-03 0.420E-04 0.443E-44 ort(H,U,f) =-0.994E-04 0.878E-04 0.401E-44
CGA:   6    -0.202691551003E+04   -0.30642E-03   -0.30655E-03  1304   0.448E-03-0.115E-04
 gam= 0.447 trial= 0.588  step= 0.524 mean= 0.588
 gam= 0.383 g(H,U,f)=  0.155E-03 0.164E-04 0.156E-44 ort(H,U,f) =-0.355E-04 0.435E-04 0.421E-44
CGA:   7    -0.202691562581E+04   -0.11578E-03   -0.11603E-03  1304   0.171E-03 0.798E-05
 gam= 0.383 trial= 0.585  step= 0.650 mean= 0.585
 gam= 0.290 g(H,U,f)=  0.476E-04 0.209E-05 0.143E-44 ort(H,U,f) =-0.132E-04 0.100E-04-0.377E-44
CGA:   8    -0.202691568245E+04   -0.56642E-04   -0.56745E-04  1304   0.496E-04-0.314E-05
 gam= 0.290 trial= 0.588  step= 0.634 mean= 0.588
 gam= 0.246 g(H,U,f)=  0.120E-04 0.269E-06 0.590E-45 ort(H,U,f) = 0.252E-06 0.101E-05-0.326E-45
CGA:   9    -0.202691569794E+04   -0.15489E-04   -0.15460E-04  1304   0.122E-04 0.126E-05
 gam= 0.246 trial= 0.591  step= 0.635 mean= 0.591
 gam= 0.490 g(H,U,f)=  0.582E-05 0.169E-06 0.258E-45 ort(H,U,f) =-0.161E-05-0.326E-07-0.468E-45
CGA:  10    -0.202691570189E+04   -0.39479E-05   -0.39844E-05  1304   0.599E-05-0.164E-05
 gam= 0.490 trial= 0.593  step= 0.388 mean= 0.593
 gam= 0.249 g(H,U,f)=  0.144E-05 0.509E-07 0.146E-45 ort(H,U,f) = 0.705E-06-0.478E-09 0.268E-46
CGA:  11    -0.202691570282E+04   -0.93470E-06   -0.10068E-05  1304   0.149E-05 0.704E-06
 gam= 0.249 trial= 0.583  step= 0.565 mean= 0.583
 gam= 0.457 g(H,U,f)=  0.644E-06 0.380E-07 0.126E-45 ort(H,U,f) = 0.151E-06-0.961E-08-0.189E-45
CGA:  12    -0.202691570329E+04   -0.46997E-06   -0.47131E-06  1304   0.682E-06 0.141E-06
 gam= 0.457 trial= 0.582  step= 0.936 mean= 0.582
 gam= 0.000 g(H,U,f)=  0.172E-05 0.396E-07 0.264E-45 ort(H,U,f) =-0.692E-06-0.113E-07-0.861E-46
CGA:  13    -0.202691570352E+04   -0.22474E-06   -0.34926E-06  1304   0.176E-05-0.704E-06
 gam= 0.000 trial= 0.599  step= 0.213 mean= 0.599
 gam= 0.113 g(H,U,f)=  0.193E-06 0.550E-08 0.314E-47 ort(H,U,f) = 0.407E-06 0.102E-07 0.311E-46
CGA:  14    -0.202691570362E+04   -0.10736E-06   -0.18792E-06  1304   0.198E-06 0.417E-06
 gam= 0.113 trial= 0.580  step= 0.242 mean= 0.580
 gam= 0.431 g(H,U,f)=  0.817E-07 0.372E-08 0.110E-46 ort(H,U,f) = 0.953E-07 0.361E-08-0.135E-46
CGA:  15    -0.202691570364E+04   -0.12937E-07   -0.29651E-07  1304   0.854E-07 0.989E-07
 gam= 0.431 trial= 0.563  step= 0.504 mean= 0.563
 final diagonalization
  25 F= -.20483630E+04 E0= -.20483630E+04  d E =-.335917E-02
 curvature:  -4.17 expect dE=-0.435E-01 dE for cont linesearch -0.435E-05
 trial: gam= 1.12758 g(F)=  0.978E-02 g(S)=  0.658E-03 ort = 0.319E-03 (trialstep = 0.306E+00)
 search vector abs. value=  0.136E+00
 bond charge predicted
       N       E                     dE             d eps       ncg     rms          ort
 gam= 0.000 g(H,U,f)=  0.335E+00 0.307E-01 0.241E-40 ort(H,U,f) = 0.000E+00 0.000E+00 0.000E+00
SDA:   1    -0.202677802800E+04    0.13768E+00    0.00000E+00  1304   0.365E+00 0.000E+00
 gam= 0.000 trial= 0.560  step= 0.588 mean= 0.560
 gam= 0.280 g(H,U,f)=  0.960E-01 0.634E-02 0.148E-38 ort(H,U,f) = 0.565E-02-0.564E-02-0.332E-38
CGA:   2    -0.202688548211E+04   -0.10745E+00   -0.10745E+00  1304   0.102E+00 0.686E-05
 gam= 0.280 trial= 0.562  step= 0.565 mean= 0.562
 gam= 0.165 g(H,U,f)=  0.163E-01 0.604E-03 0.129E-38 ort(H,U,f) =-0.586E-03 0.590E-03 0.181E-39
CGA:   3    -0.202691439023E+04   -0.28908E-01   -0.28908E-01  1304   0.169E-01 0.433E-05
 gam= 0.165 trial= 0.562  step= 0.486 mean= 0.562
 gam= 0.209 g(H,U,f)=  0.322E-02 0.317E-03 0.784E-42 ort(H,U,f) =-0.178E-03 0.179E-03-0.121E-40
CGA:   4    -0.202691849916E+04   -0.41089E-02   -0.41090E-02  1304   0.354E-02 0.626E-06
 gam= 0.209 trial= 0.558  step= 0.564 mean= 0.558
 gam= 0.218 g(H,U,f)=  0.679E-03 0.941E-04 0.145E-42 ort(H,U,f) =-0.161E-03 0.163E-03-0.897E-42
CGA:   5    -0.202691949746E+04   -0.99830E-03   -0.99829E-03  1304   0.773E-03 0.216E-05
 gam= 0.218 trial= 0.558  step= 0.709 mean= 0.558
 gam= 0.348 g(H,U,f)=  0.239E-03 0.296E-04 0.102E-40 ort(H,U,f) =-0.656E-04 0.672E-04 0.719E-42
CGA:   6    -0.202691977157E+04   -0.27412E-03   -0.27399E-03  1304   0.269E-03 0.162E-05
 gam= 0.348 trial= 0.566  step= 0.719 mean= 0.566
 gam= 0.419 g(H,U,f)=  0.105E-03 0.820E-05 0.110E-41 ort(H,U,f) =-0.258E-04 0.234E-04-0.406E-41
CGA:   7    -0.202691986831E+04   -0.96734E-04   -0.96920E-04  1304   0.113E-03-0.243E-05
 gam= 0.419 trial= 0.574  step= 0.557 mean= 0.574
 gam= 0.328 g(H,U,f)=  0.358E-04 0.125E-05 0.349E-42 ort(H,U,f) =-0.667E-06 0.503E-05-0.449E-42
CGA:   8    -0.202691989941E+04   -0.31109E-04   -0.31144E-04  1304   0.370E-04 0.436E-05
 gam= 0.328 trial= 0.573  step= 0.578 mean= 0.573
 gam= 0.334 g(H,U,f)=  0.122E-04 0.200E-06 0.405E-42 ort(H,U,f) =-0.306E-05 0.478E-06-0.296E-42
CGA:   9    -0.202691991052E+04   -0.11106E-04   -0.11113E-04  1304   0.124E-04-0.259E-05
 gam= 0.334 trial= 0.573  step= 0.488 mean= 0.573
 gam= 0.236 g(H,U,f)=  0.285E-05 0.784E-07 0.437E-44 ort(H,U,f) = 0.103E-05-0.318E-07 0.395E-43
CGA:  10    -0.202691991329E+04   -0.27641E-05   -0.28068E-05  1304   0.293E-05 0.100E-05
 gam= 0.236 trial= 0.569  step= 0.708 mean= 0.569
 gam= 0.387 g(H,U,f)=  0.108E-05 0.487E-07 0.257E-42 ort(H,U,f) =-0.220E-06-0.302E-07-0.144E-42
CGA:  11    -0.202691991439E+04   -0.11024E-05   -0.11197E-05  1304   0.113E-05-0.250E-06
 gam= 0.387 trial= 0.576  step= 0.694 mean= 0.576
 gam= 0.336 g(H,U,f)=  0.366E-06 0.154E-07 0.500E-43 ort(H,U,f) = 0.498E-07 0.311E-08-0.119E-42
CGA:  12    -0.202691991475E+04   -0.36283E-06   -0.35963E-06  1304   0.381E-06 0.529E-07
 gam= 0.336 trial= 0.582  step= 0.779 mean= 0.582
 gam= 0.520 g(H,U,f)=  0.190E-06 0.796E-08 0.176E-43 ort(H,U,f) =-0.680E-07 0.506E-08 0.781E-44
CGA:  13    -0.202691991490E+04   -0.14921E-06   -0.15543E-06  1304   0.198E-06-0.630E-07
 gam= 0.520 trial= 0.592  step= 0.486 mean= 0.592
 gam= 0.358 g(H,U,f)=  0.687E-07 0.234E-08 0.173E-44 ort(H,U,f) = 0.126E-07 0.465E-08-0.763E-44
CGA:  14    -0.202691991494E+04   -0.39341E-07   -0.40204E-07  1304   0.710E-07 0.172E-07
 gam= 0.358 trial= 0.586  step= 0.606 mean= 0.586
 final diagonalization
  26 F= -.20483656E+04 E0= -.20483656E+04  d E =-.265368E-02
 trial-energy change:   -0.002654  1 .order   -0.002656   -0.003303   -0.002009
 step:   0.7810(harm=  0.7810)  dis= 0.01179  next Energy= -2048.367180 (dE=-0.422E-02)
 bond charge predicted
       N       E                     dE             d eps       ncg     rms          ort
 gam= 0.000 g(H,U,f)=  0.806E+00 0.740E-01 0.107E-36 ort(H,U,f) = 0.000E+00 0.000E+00 0.000E+00
SDA:   1    -0.202658189951E+04    0.33802E+00    0.00000E+00  1304   0.880E+00 0.000E+00
 gam= 0.000 trial= 0.587  step= 0.588 mean= 0.587
 gam= 0.280 g(H,U,f)=  0.231E+00 0.153E-01 0.804E-34 ort(H,U,f) = 0.136E-01-0.136E-01-0.178E-33
CGA:   2    -0.202684089666E+04   -0.25900E+00   -0.25900E+00  1304   0.247E+00-0.322E-05
 gam= 0.280 trial= 0.587  step= 0.565 mean= 0.587
 gam= 0.165 g(H,U,f)=  0.393E-01 0.146E-02 0.229E-34 ort(H,U,f) =-0.142E-02 0.143E-02 0.317E-35
CGA:   3    -0.202691055835E+04   -0.69662E-01   -0.69662E-01  1304   0.408E-01 0.947E-05
 gam= 0.165 trial= 0.586  step= 0.486 mean= 0.586
 gam= 0.209 g(H,U,f)=  0.776E-02 0.765E-03 0.407E-38 ort(H,U,f) =-0.431E-03 0.433E-03-0.649E-37
CGA:   4    -0.202692045958E+04   -0.99012E-02   -0.99014E-02  1304   0.853E-02 0.233E-05
 gam= 0.209 trial= 0.581  step= 0.564 mean= 0.581
 gam= 0.218 g(H,U,f)=  0.163E-02 0.227E-03 0.624E-39 ort(H,U,f) =-0.390E-03 0.394E-03-0.419E-38
CGA:   5    -0.202692286521E+04   -0.24056E-02   -0.24057E-02  1304   0.186E-02 0.365E-05
 gam= 0.218 trial= 0.580  step= 0.710 mean= 0.580
 gam= 0.347 g(H,U,f)=  0.575E-03 0.712E-04 0.557E-37 ort(H,U,f) =-0.160E-03 0.162E-03 0.464E-38
CGA:   6    -0.202692352657E+04   -0.66136E-03   -0.66121E-03  1304   0.646E-03 0.241E-05
 gam= 0.347 trial= 0.587  step= 0.720 mean= 0.587
 gam= 0.412 g(H,U,f)=  0.247E-03 0.196E-04 0.503E-38 ort(H,U,f) =-0.596E-04 0.564E-04-0.188E-37
CGA:   7    -0.202692375927E+04   -0.23270E-03   -0.23292E-03  1304   0.266E-03-0.323E-05
 gam= 0.412 trial= 0.593  step= 0.573 mean= 0.593
 gam= 0.338 g(H,U,f)=  0.869E-04 0.300E-05 0.133E-38 ort(H,U,f) =-0.485E-05 0.114E-04-0.189E-38
CGA:   8    -0.202692383509E+04   -0.75814E-04   -0.75882E-04  1304   0.899E-04 0.656E-05
 gam= 0.338 trial= 0.592  step= 0.556 mean= 0.592
 gam= 0.314 g(H,U,f)=  0.278E-04 0.458E-06 0.150E-38 ort(H,U,f) =-0.514E-05 0.119E-05-0.103E-38
CGA:   9    -0.202692386077E+04   -0.25685E-04   -0.25613E-04  1304   0.283E-04-0.395E-05
 gam= 0.314 trial= 0.591  step= 0.513 mean= 0.591
 gam= 0.246 g(H,U,f)=  0.674E-05 0.215E-06 0.736E-42 ort(H,U,f) = 0.159E-05-0.827E-07 0.322E-40
CGA:  10    -0.202692386765E+04   -0.68739E-05   -0.69326E-05  1304   0.696E-05 0.151E-05
 gam= 0.246 trial= 0.587  step= 0.708 mean= 0.587
 gam= 0.394 g(H,U,f)=  0.261E-05 0.127E-06 0.873E-39 ort(H,U,f) =-0.455E-06-0.890E-07-0.435E-39
CGA:  11    -0.202692387021E+04   -0.25622E-05   -0.25954E-05  1304   0.274E-05-0.544E-06
 gam= 0.394 trial= 0.593  step= 0.605 mean= 0.593
 gam= 0.340 g(H,U,f)=  0.896E-06 0.360E-07 0.322E-40 ort(H,U,f) = 0.261E-06 0.127E-07-0.179E-39
CGA:  12    -0.202692387098E+04   -0.76578E-06   -0.76433E-06  1304   0.932E-06 0.273E-06
 gam= 0.340 trial= 0.593  step= 0.853 mean= 0.593
 gam= 0.808 g(H,U,f)=  0.730E-06 0.233E-07 0.352E-39 ort(H,U,f) =-0.344E-06 0.108E-07-0.136E-39
CGA:  13    -0.202692387137E+04   -0.39384E-06   -0.43725E-06  1304   0.753E-06-0.333E-06
 gam= 0.808 trial= 0.606  step= 0.320 mean= 0.606
 gam= 0.431 g(H,U,f)=  0.318E-06 0.717E-08 0.122E-39 ort(H,U,f) = 0.977E-07 0.165E-07 0.160E-39
CGA:  14    -0.202692387143E+04   -0.61074E-07   -0.77314E-07  1304   0.325E-06 0.114E-06
 gam= 0.431 trial= 0.592  step= 0.300 mean= 0.592
 final diagonalization
  27 F= -.20483672E+04 E0= -.20483672E+04  d E =-.420876E-02
 curvature:  -4.91 expect dE=-0.620E-01 dE for cont linesearch -0.144E-07
 trial: gam= 1.29400 g(F)=  0.118E-01 g(S)=  0.883E-03 ort =-0.200E-04 (trialstep = 0.227E+00)
 search vector abs. value=  0.240E+00
 bond charge predicted
       N       E                     dE             d eps       ncg     rms          ort
 gam= 0.000 g(H,U,f)=  0.330E+00 0.317E-01 0.190E-33 ort(H,U,f) = 0.000E+00 0.000E+00 0.000E+00
SDA:   1    -0.202678622080E+04    0.13765E+00    0.00000E+00  1304   0.362E+00 0.000E+00
 gam= 0.000 trial= 0.577  step= 0.582 mean= 0.577
 gam= 0.280 g(H,U,f)=  0.949E-01 0.640E-02 0.976E-32 ort(H,U,f) = 0.613E-02-0.610E-02-0.269E-31
CGA:   2    -0.202689149761E+04   -0.10528E+00   -0.10528E+00  1304   0.101E+00 0.294E-04
 gam= 0.280 trial= 0.578  step= 0.567 mean= 0.578
 gam= 0.168 g(H,U,f)=  0.164E-01 0.609E-03 0.233E-32 ort(H,U,f) =-0.617E-03 0.594E-03 0.380E-33
CGA:   3    -0.202692022551E+04   -0.28728E-01   -0.28728E-01  1304   0.170E-01-0.233E-04
 gam= 0.168 trial= 0.577  step= 0.478 mean= 0.577
 gam= 0.217 g(H,U,f)=  0.339E-02 0.303E-03 0.241E-34 ort(H,U,f) =-0.152E-03 0.171E-03-0.138E-33
CGA:   4    -0.202692429141E+04   -0.40659E-02   -0.40669E-02  1304   0.370E-02 0.190E-04
 gam= 0.217 trial= 0.572  step= 0.538 mean= 0.572
 gam= 0.245 g(H,U,f)=  0.807E-03 0.101E-03 0.671E-34 ort(H,U,f) =-0.181E-03 0.172E-03-0.124E-34
CGA:   5    -0.202692528745E+04   -0.99604E-03   -0.99589E-03  1304   0.907E-03-0.863E-05
 gam= 0.245 trial= 0.570  step= 0.579 mean= 0.570
 gam= 0.428 g(H,U,f)=  0.350E-03 0.381E-04 0.238E-34 ort(H,U,f) =-0.677E-04 0.781E-04-0.561E-34
CGA:   6    -0.202692554971E+04   -0.26226E-03   -0.26221E-03  1304   0.388E-03 0.104E-04
 gam= 0.428 trial= 0.571  step= 0.553 mean= 0.571
 gam= 0.407 g(H,U,f)=  0.143E-03 0.145E-04 0.108E-36 ort(H,U,f) =-0.442E-04 0.361E-04 0.240E-36
CGA:   7    -0.202692565835E+04   -0.10864E-03   -0.10857E-03  1304   0.158E-03-0.810E-05
 gam= 0.407 trial= 0.570  step= 0.612 mean= 0.570
 gam= 0.255 g(H,U,f)=  0.384E-04 0.182E-05 0.199E-34 ort(H,U,f) =-0.377E-05 0.955E-05-0.164E-36
CGA:   8    -0.202692570582E+04   -0.47480E-04   -0.47358E-04  1304   0.402E-04 0.578E-05
 gam= 0.255 trial= 0.572  step= 0.685 mean= 0.572
 gam= 0.313 g(H,U,f)=  0.123E-04 0.330E-06 0.185E-35 ort(H,U,f) =-0.234E-05 0.795E-06-0.835E-35
CGA:   9    -0.202692572002E+04   -0.14192E-04   -0.14279E-04  1304   0.126E-04-0.155E-05
 gam= 0.313 trial= 0.578  step= 0.472 mean= 0.578
 gam= 0.291 g(H,U,f)=  0.359E-05 0.855E-07 0.940E-36 ort(H,U,f) = 0.110E-05 0.760E-07-0.654E-36
CGA:  10    -0.202692572282E+04   -0.28015E-05   -0.28634E-05  1304   0.367E-05 0.118E-05
 gam= 0.291 trial= 0.572  step= 0.693 mean= 0.572
 gam= 0.509 g(H,U,f)=  0.181E-05 0.597E-07 0.309E-35 ort(H,U,f) =-0.746E-06-0.128E-07-0.171E-35
CGA:  11    -0.202692572416E+04   -0.13453E-05   -0.13910E-05  1304   0.187E-05-0.759E-06
 gam= 0.509 trial= 0.578  step= 0.418 mean= 0.578
 gam= 0.338 g(H,U,f)=  0.614E-06 0.180E-07 0.704E-38 ort(H,U,f) = 0.345E-06 0.195E-08 0.118E-36
CGA:  12    -0.202692572445E+04   -0.28240E-06   -0.31001E-06  1304   0.632E-06 0.347E-06
 gam= 0.338 trial= 0.570  step= 0.507 mean= 0.570
 gam= 0.377 g(H,U,f)=  0.228E-06 0.103E-07 0.169E-35 ort(H,U,f) = 0.743E-07 0.136E-08-0.872E-36
CGA:  13    -0.202692572463E+04   -0.18726E-06   -0.18964E-06  1304   0.238E-06 0.756E-07
 gam= 0.377 trial= 0.567  step= 2.879 mean= 0.567
 gam= 0.377 trial= 3.687  step= 3.687 mean= 0.895
 gam= 0.000 g(H,U,f)=  0.136E-04 0.292E-06 0.337E-33 ort(H,U,f) =-0.166E-05-0.308E-07-0.525E-34
CGA:  14    -0.202692572247E+04    0.21650E-05    0.25337E+03  1304   0.139E-04-0.169E-05
 gam= 0.000 trial= 1.035  step= 0.281 mean= 1.035
 gam= 0.109 g(H,U,f)=  0.150E-05 0.166E-07 0.687E-35 ort(H,U,f) = 0.898E-06-0.442E-08 0.504E-34
CGA:  15    -0.202692572408E+04   -0.16167E-05   -0.19530E-05  1304   0.151E-05 0.893E-06
 gam= 0.109 trial= 0.997  step= 0.650 mean= 0.997
 gam= 0.227 g(H,U,f)=  0.318E-06 0.258E-07 0.143E-34 ort(H,U,f) =-0.893E-07-0.425E-09-0.196E-34
CGA:  16    -0.202692572462E+04   -0.53854E-06   -0.52299E-06  1304   0.344E-06-0.897E-07
 gam= 0.227 trial= 0.980  step= 0.791 mean= 0.980
 gam= 0.847 g(H,U,f)=  0.278E-06 0.129E-07 0.338E-34 ort(H,U,f) =-0.995E-07-0.813E-08-0.168E-34
CGA:  17    -0.202692572476E+04   -0.13803E-06   -0.12789E-06  1304   0.291E-06-0.108E-06
 gam= 0.847 trial= 0.970  step= 0.304 mean= 0.970
 gam= 0.421 g(H,U,f)=  0.116E-06 0.700E-08 0.187E-34 ort(H,U,f) = 0.738E-07 0.110E-08 0.152E-34
CGA:  18    -0.202692572477E+04   -0.53624E-08   -0.30398E-07  1304   0.123E-06 0.750E-07
 gam= 0.421 trial= 0.937  step= 0.247 mean= 0.937
 final diagonalization
  28 F= -.20483696E+04 E0= -.20483696E+04  d E =-.238917E-02
 trial-energy change:   -0.002389  1 .order   -0.002400   -0.002861   -0.001940
 step:   0.8964(harm=  0.7045)  dis= 0.01842  next Energy= -2048.372138 (dE=-0.496E-02)
 bond charge predicted
       N       E                     dE             d eps       ncg     rms          ort
 gam= 0.000 g(H,U,f)=  0.287E+01 0.276E+00 0.359E-28 ort(H,U,f) = 0.000E+00 0.000E+00 0.000E+00
SDA:   1    -0.202571110257E+04    0.12146E+01    0.00000E+00  1304   0.315E+01 0.000E+00
 gam= 0.000 trial= 0.902  step= 0.582 mean= 0.902
 gam= 0.280 g(H,U,f)=  0.826E+00 0.555E-01 0.998E-23 ort(H,U,f) = 0.530E-01-0.528E-01-0.261E-22
CGA:   2    -0.202662797403E+04   -0.91687E+00   -0.91676E+00  1304   0.882E+00 0.199E-03
 gam= 0.280 trial= 0.886  step= 0.567 mean= 0.886
 gam= 0.168 g(H,U,f)=  0.143E+00 0.531E-02 0.909E-25 ort(H,U,f) =-0.522E-02 0.519E-02 0.131E-25
CGA:   3    -0.202687796344E+04   -0.24999E+00   -0.25001E+00  1304   0.148E+00-0.291E-04
 gam= 0.168 trial= 0.870  step= 0.479 mean= 0.870
 gam= 0.217 g(H,U,f)=  0.294E-01 0.265E-02 0.556E-28 ort(H,U,f) =-0.146E-02 0.150E-02-0.340E-27
CGA:   4    -0.202691338392E+04   -0.35420E-01   -0.35429E-01  1304   0.320E-01 0.405E-04
 gam= 0.217 trial= 0.851  step= 0.539 mean= 0.851
 gam= 0.243 g(H,U,f)=  0.691E-02 0.872E-03 0.130E-27 ort(H,U,f) =-0.151E-02 0.150E-02-0.282E-28
CGA:   5    -0.202692202141E+04   -0.86375E-02   -0.86354E-02  1304   0.778E-02-0.144E-04
 gam= 0.243 trial= 0.835  step= 0.592 mean= 0.835
 gam= 0.437 g(H,U,f)=  0.307E-02 0.327E-03 0.985E-28 ort(H,U,f) =-0.651E-03 0.672E-03-0.200E-27
CGA:   6    -0.202692432057E+04   -0.22992E-02   -0.23016E-02  1304   0.340E-02 0.212E-04
 gam= 0.437 trial= 0.823  step= 0.539 mean= 0.823
 gam= 0.394 g(H,U,f)=  0.121E-02 0.124E-03 0.710E-30 ort(H,U,f) =-0.334E-03 0.318E-03 0.152E-29
CGA:   7    -0.202692524017E+04   -0.91960E-03   -0.91743E-03  1304   0.134E-02-0.157E-04
 gam= 0.394 trial= 0.809  step= 0.634 mean= 0.809
 gam= 0.270 g(H,U,f)=  0.345E-03 0.156E-04 0.667E-28 ort(H,U,f) =-0.664E-04 0.790E-04-0.101E-28
CGA:   8    -0.202692566126E+04   -0.42109E-03   -0.42219E-03  1304   0.361E-03 0.126E-04
 gam= 0.270 trial= 0.800  step= 0.658 mean= 0.800
 gam= 0.283 g(H,U,f)=  0.995E-04 0.256E-05 0.649E-29 ort(H,U,f) =-0.105E-04 0.706E-05-0.306E-28
CGA:   9    -0.202692578121E+04   -0.11994E-03   -0.11970E-03  1304   0.102E-03-0.348E-05
 gam= 0.283 trial= 0.793  step= 0.518 mean= 0.793
 gam= 0.338 g(H,U,f)=  0.336E-04 0.935E-06 0.318E-29 ort(H,U,f) = 0.230E-05 0.352E-06-0.191E-29
CGA:  10    -0.202692580704E+04   -0.25837E-04   -0.26202E-04  1304   0.345E-04 0.265E-05
 gam= 0.338 trial= 0.779  step= 0.569 mean= 0.779
 gam= 0.367 g(H,U,f)=  0.123E-04 0.403E-06 0.490E-29 ort(H,U,f) =-0.177E-05-0.562E-07-0.384E-29
CGA:  11    -0.202692581732E+04   -0.10275E-04   -0.10083E-04  1304   0.127E-04-0.183E-05
 gam= 0.367 trial= 0.769  step= 0.553 mean= 0.769
 gam= 0.328 g(H,U,f)=  0.399E-05 0.159E-06 0.117E-29 ort(H,U,f) = 0.953E-06-0.429E-07-0.214E-29
CGA:  12    -0.202692582054E+04   -0.32222E-05   -0.33201E-05  1304   0.415E-05 0.910E-06
 gam= 0.328 trial= 0.758  step= 0.770 mean= 0.758
 gam= 0.455 g(H,U,f)=  0.180E-05 0.918E-07 0.560E-30 ort(H,U,f) =-0.576E-06-0.805E-08 0.415E-30
CGA:  13    -0.202692582225E+04   -0.17093E-05   -0.17128E-05  1304   0.189E-05-0.584E-06
 gam= 0.455 trial= 0.759  step= 0.531 mean= 0.759
 gam= 0.302 g(H,U,f)=  0.550E-06 0.215E-07 0.194E-30 ort(H,U,f) = 0.220E-06 0.317E-07 0.515E-30
CGA:  14    -0.202692582265E+04   -0.40201E-06   -0.43066E-06  1304   0.571E-06 0.251E-06
 gam= 0.302 trial= 0.747  step= 0.796 mean= 0.747
 gam= 0.563 g(H,U,f)=  0.306E-06 0.151E-07 0.482E-30 ort(H,U,f) =-0.183E-06 0.849E-08-0.689E-30
CGA:  15    -0.202692582291E+04   -0.25345E-06   -0.25772E-06  1304   0.321E-06-0.174E-06
 gam= 0.563 trial= 0.750  step= 0.397 mean= 0.750
 gam= 0.436 g(H,U,f)=  0.137E-06 0.294E-08 0.153E-30 ort(H,U,f) = 0.559E-07 0.658E-08 0.599E-31
CGA:  16    -0.202692582294E+04   -0.33222E-07   -0.44362E-07  1304   0.140E-06 0.625E-07
 gam= 0.436 trial= 0.732  step= 0.400 mean= 0.732
 final diagonalization
  29 F= -.20483713E+04 E0= -.20483713E+04  d E =-.411009E-02
 curvature:  -5.61 expect dE=-0.172E+00 dE for cont linesearch -0.253E-03
 ZBRENT: interpolating
 opt :   0.7104  next Energy= -2048.371589 (dE=-0.442E-02)
 bond charge predicted
       N       E                     dE             d eps       ncg     rms          ort
 gam= 0.000 g(H,U,f)=  0.222E+00 0.213E-01 0.334E-24 ort(H,U,f) = 0.000E+00 0.000E+00 0.000E+00
SDA:   1    -0.202683283419E+04    0.92989E-01    0.00000E+00  1304   0.243E+00 0.000E+00
 gam= 0.000 trial= 0.715  step= 0.582 mean= 0.715
 gam= 0.280 g(H,U,f)=  0.638E-01 0.433E-02 0.763E-27 ort(H,U,f) = 0.410E-02-0.413E-02-0.223E-26
CGA:   2    -0.202690359198E+04   -0.70758E-01   -0.70757E-01  1304   0.681E-01-0.247E-04
 gam= 0.280 trial= 0.709  step= 0.567 mean= 0.709
 gam= 0.169 g(H,U,f)=  0.111E-01 0.410E-03 0.103E-25 ort(H,U,f) =-0.386E-03 0.404E-03 0.173E-26
CGA:   3    -0.202692288854E+04   -0.19297E-01   -0.19298E-01  1304   0.115E-01 0.180E-04
 gam= 0.169 trial= 0.702  step= 0.477 mean= 0.702
 gam= 0.219 g(H,U,f)=  0.232E-02 0.204E-03 0.169E-26 ort(H,U,f) =-0.128E-03 0.116E-03-0.874E-26
CGA:   4    -0.202692563192E+04   -0.27434E-02   -0.27420E-02  1304   0.252E-02-0.122E-04
 gam= 0.219 trial= 0.690  step= 0.532 mean= 0.690
 gam= 0.245 g(H,U,f)=  0.547E-03 0.686E-04 0.473E-26 ort(H,U,f) =-0.111E-03 0.118E-03-0.572E-27
CGA:   5    -0.202692630046E+04   -0.66854E-03   -0.66909E-03  1304   0.616E-03 0.707E-05
 gam= 0.245 trial= 0.682  step= 0.586 mean= 0.682
 gam= 0.452 g(H,U,f)=  0.253E-03 0.259E-04 0.802E-27 ort(H,U,f) =-0.597E-04 0.523E-04-0.212E-26
CGA:   6    -0.202692648190E+04   -0.18145E-03   -0.18109E-03  1304   0.279E-03-0.741E-05
 gam= 0.452 trial= 0.678  step= 0.520 mean= 0.678
 gam= 0.353 g(H,U,f)=  0.887E-04 0.959E-05 0.139E-28 ort(H,U,f) =-0.201E-04 0.258E-04-0.166E-28
CGA:   7    -0.202692655307E+04   -0.71165E-04   -0.71614E-04  1304   0.983E-04 0.572E-05
 gam= 0.353 trial= 0.670  step= 0.699 mean= 0.670
 gam= 0.302 g(H,U,f)=  0.285E-04 0.119E-05 0.135E-26 ort(H,U,f) =-0.924E-05 0.561E-05-0.464E-28
CGA:   8    -0.202692658808E+04   -0.35010E-04   -0.35063E-04  1304   0.296E-04-0.364E-05
 gam= 0.302 trial= 0.671  step= 0.618 mean= 0.671
 gam= 0.242 g(H,U,f)=  0.702E-05 0.168E-06 0.335E-28 ort(H,U,f) = 0.599E-06 0.520E-06-0.247E-27
CGA:   9    -0.202692659688E+04   -0.87975E-05   -0.88270E-05  1304   0.719E-05 0.112E-05
 gam= 0.242 trial= 0.669  step= 0.624 mean= 0.669
 gam= 0.494 g(H,U,f)=  0.344E-05 0.110E-06 0.302E-28 ort(H,U,f) =-0.927E-06-0.236E-07-0.305E-28
CGA:  10    -0.202692659923E+04   -0.23499E-05   -0.23289E-05  1304   0.355E-05-0.950E-06
 gam= 0.494 trial= 0.666  step= 0.385 mean= 0.666
 gam= 0.251 g(H,U,f)=  0.859E-06 0.320E-07 0.271E-30 ort(H,U,f) = 0.511E-06 0.775E-08-0.156E-29
CGA:  11    -0.202692659975E+04   -0.51937E-06   -0.59250E-06  1304   0.891E-06 0.519E-06
 gam= 0.251 trial= 0.652  step= 0.551 mean= 0.652
 gam= 0.481 g(H,U,f)=  0.405E-06 0.237E-07 0.109E-29 ort(H,U,f) = 0.876E-07-0.747E-08 0.283E-30
CGA:  12    -0.202692660002E+04   -0.27731E-06   -0.28132E-06  1304   0.429E-06 0.801E-07
 gam= 0.481 trial= 0.647  step= 1.030 mean= 0.647
 gam= 0.000 g(H,U,f)=  0.129E-05 0.277E-07 0.599E-29 ort(H,U,f) =-0.515E-06-0.108E-07 0.338E-29
CGA:  13    -0.202692660016E+04   -0.14011E-06   -0.24080E-06  1304   0.132E-05-0.526E-06
 gam= 0.000 trial= 0.666  step= 0.213 mean= 0.666
 gam= 0.125 g(H,U,f)=  0.161E-06 0.317E-08 0.503E-30 ort(H,U,f) = 0.339E-06 0.670E-08 0.178E-29
CGA:  14    -0.202692660023E+04   -0.61635E-07   -0.14007E-06  1304   0.165E-06 0.346E-06
 gam= 0.125 trial= 0.644  step= 0.217 mean= 0.644
 final diagonalization
  30 F= -.20483716E+04 E0= -.20483716E+04  d E =-.443026E-02
 curvature:  -6.78 expect dE=-0.128E+00 dE for cont linesearch -0.271E-07
 trial: gam= 1.45987 g(F)=  0.189E-01 g(S)=  0.469E-04 ort =-0.310E-04 (trialstep = 0.146E+00)
 search vector abs. value=  0.530E+00
 bond charge predicted
       N       E                     dE             d eps       ncg     rms          ort
 gam= 0.000 g(H,U,f)=  0.311E+00 0.302E-01 0.164E-22 ort(H,U,f) = 0.000E+00 0.000E+00 0.000E+00
SDA:   1    -0.202679735463E+04    0.12925E+00    0.00000E+00  1304   0.341E+00 0.000E+00
 gam= 0.000 trial= 0.622  step= 0.580 mean= 0.622
 gam= 0.278 g(H,U,f)=  0.890E-01 0.595E-02 0.226E-20 ort(H,U,f) = 0.590E-02-0.588E-02-0.375E-20
CGA:   2    -0.202689626555E+04   -0.98911E-01   -0.98911E-01  1304   0.949E-01 0.273E-04
 gam= 0.278 trial= 0.620  step= 0.572 mean= 0.620
 gam= 0.165 g(H,U,f)=  0.151E-01 0.546E-03 0.417E-23 ort(H,U,f) =-0.583E-03 0.573E-03 0.128E-22
CGA:   3    -0.202692343032E+04   -0.27165E-01   -0.27165E-01  1304   0.156E-01-0.999E-05
 gam= 0.165 trial= 0.618  step= 0.484 mean= 0.618
 gam= 0.215 g(H,U,f)=  0.309E-02 0.285E-03 0.144E-25 ort(H,U,f) =-0.144E-03 0.160E-03 0.160E-24
CGA:   4    -0.202692721648E+04   -0.37862E-02   -0.37873E-02  1304   0.337E-02 0.166E-04
 gam= 0.215 trial= 0.611  step= 0.547 mean= 0.611
 gam= 0.236 g(H,U,f)=  0.704E-03 0.908E-04 0.105E-23 ort(H,U,f) =-0.160E-03 0.155E-03-0.510E-24
CGA:   5    -0.202692813942E+04   -0.92293E-03   -0.92276E-03  1304   0.794E-03-0.552E-05
 gam= 0.236 trial= 0.608  step= 0.625 mean= 0.608
 gam= 0.416 g(H,U,f)=  0.299E-03 0.320E-04 0.261E-25 ort(H,U,f) =-0.612E-04 0.687E-04-0.170E-24
CGA:   6    -0.202692838745E+04   -0.24803E-03   -0.24797E-03  1304   0.331E-03 0.753E-05
 gam= 0.416 trial= 0.609  step= 0.562 mean= 0.609
 gam= 0.454 g(H,U,f)=  0.138E-03 0.124E-04 0.448E-26 ort(H,U,f) =-0.371E-04 0.305E-04 0.207E-25
CGA:   7    -0.202692848137E+04   -0.93925E-04   -0.93769E-04  1304   0.150E-03-0.665E-05
 gam= 0.454 trial= 0.606  step= 0.562 mean= 0.606
 gam= 0.254 g(H,U,f)=  0.366E-04 0.158E-05 0.111E-24 ort(H,U,f) =-0.305E-05 0.858E-05 0.732E-25
CGA:   8    -0.202692852256E+04   -0.41190E-04   -0.41313E-04  1304   0.382E-04 0.552E-05
 gam= 0.254 trial= 0.604  step= 0.680 mean= 0.604
 gam= 0.278 g(H,U,f)=  0.103E-04 0.269E-06 0.835E-27 ort(H,U,f) =-0.192E-05 0.683E-06 0.127E-25
CGA:   9    -0.202692853597E+04   -0.13403E-04   -0.13450E-04  1304   0.106E-04-0.124E-05
 gam= 0.278 trial= 0.608  step= 0.550 mean= 0.608
 gam= 0.275 g(H,U,f)=  0.281E-05 0.108E-06 0.180E-27 ort(H,U,f) = 0.794E-06 0.483E-08-0.216E-26
CGA:  10    -0.202692853876E+04   -0.27962E-05   -0.28192E-05  1304   0.291E-05 0.799E-06
 gam= 0.275 trial= 0.605  step= 0.726 mean= 0.605
 gam= 0.611 g(H,U,f)=  0.173E-05 0.539E-07 0.376E-26 ort(H,U,f) =-0.606E-06-0.300E-07 0.204E-26
CGA:  11    -0.202692853986E+04   -0.10993E-05   -0.11377E-05  1304   0.178E-05-0.636E-06
 gam= 0.611 trial= 0.611  step= 0.365 mean= 0.611
 gam= 0.343 g(H,U,f)=  0.590E-06 0.204E-07 0.384E-27 ort(H,U,f) = 0.347E-06 0.243E-08 0.167E-26
CGA:  12    -0.202692854007E+04   -0.21121E-06   -0.25413E-06  1304   0.610E-06 0.349E-06
 gam= 0.343 trial= 0.599  step= 0.410 mean= 0.599
 gam= 0.441 g(H,U,f)=  0.258E-06 0.110E-07 0.518E-27 ort(H,U,f) = 0.134E-06 0.310E-08-0.116E-26
CGA:  13    -0.202692854021E+04   -0.13677E-06   -0.14959E-06  1304   0.269E-06 0.137E-06
 gam= 0.441 trial= 0.589  step= 1.195 mean= 0.589
 gam= 0.000 g(H,U,f)=  0.125E-05 0.186E-07 0.178E-27 ort(H,U,f) =-0.536E-06-0.343E-08 0.426E-29
CGA:  14    -0.202692854024E+04   -0.33142E-07   -0.19684E-06  1304   0.127E-05-0.540E-06
 gam= 0.000 trial= 0.620  step= 0.240 mean= 0.620
 gam= 0.148 g(H,U,f)=  0.187E-06 0.132E-08 0.186E-27 ort(H,U,f) = 0.343E-06 0.250E-08 0.185E-27
CGA:  15    -0.202692854033E+04   -0.86788E-07   -0.15242E-06  1304   0.188E-06 0.345E-06
 gam= 0.148 trial= 0.601  step= 0.297 mean= 0.601
 final diagonalization
  31 F= -.20483741E+04 E0= -.20483741E+04  d E =-.245476E-02
 ZBRENT: can't locate minimum, use default step
 trial-energy change:   -0.002455  1 .order   -0.002464   -0.002769   -0.002159
 step:   0.5857(harm=  0.6647)  dis= 0.01805  next Energy= -2048.377889 (dE=-0.629E-02)
 bond charge predicted
       N       E                     dE             d eps       ncg     rms          ort
 gam= 0.000 g(H,U,f)=  0.280E+01 0.272E+00 0.754E-20 ort(H,U,f) = 0.000E+00 0.000E+00 0.000E+00
SDA:   1    -0.202575006019E+04    0.11785E+01    0.00000E+00  1304   0.307E+01 0.000E+00
 gam= 0.000 trial= 0.586  step= 0.580 mean= 0.586
 gam= 0.278 g(H,U,f)=  0.801E+00 0.533E-01 0.667E-19 ort(H,U,f) = 0.524E-01-0.526E-01-0.122E-17
CGA:   2    -0.202664036264E+04   -0.89030E+00   -0.89030E+00  1304   0.854E+00-0.264E-03
 gam= 0.278 trial= 0.585  step= 0.572 mean= 0.585
 gam= 0.164 g(H,U,f)=  0.136E+00 0.491E-02 0.333E-18 ort(H,U,f) =-0.507E-02 0.514E-02 0.945E-18
CGA:   3    -0.202688466522E+04   -0.24430E+00   -0.24430E+00  1304   0.141E+00 0.686E-04
 gam= 0.164 trial= 0.585  step= 0.485 mean= 0.585
 gam= 0.215 g(H,U,f)=  0.276E-01 0.256E-02 0.329E-21 ort(H,U,f) =-0.139E-02 0.145E-02 0.377E-20
CGA:   4    -0.202691876085E+04   -0.34096E-01   -0.34099E-01  1304   0.302E-01 0.582E-04
 gam= 0.215 trial= 0.580  step= 0.548 mean= 0.580
 gam= 0.234 g(H,U,f)=  0.625E-02 0.812E-03 0.902E-20 ort(H,U,f) =-0.140E-02 0.138E-02-0.471E-20
CGA:   5    -0.202692703735E+04   -0.82765E-02   -0.82763E-02  1304   0.706E-02-0.138E-04
 gam= 0.234 trial= 0.578  step= 0.637 mean= 0.578
 gam= 0.417 g(H,U,f)=  0.266E-02 0.283E-03 0.506E-21 ort(H,U,f) =-0.586E-03 0.610E-03-0.247E-20
CGA:   6    -0.202692928446E+04   -0.22471E-02   -0.22464E-02  1304   0.295E-02 0.234E-04
 gam= 0.417 trial= 0.581  step= 0.556 mean= 0.581
 gam= 0.445 g(H,U,f)=  0.120E-02 0.109E-03 0.396E-22 ort(H,U,f) =-0.291E-03 0.272E-03 0.156E-21
CGA:   7    -0.202693010682E+04   -0.82237E-03   -0.82213E-03  1304   0.131E-02-0.191E-04
 gam= 0.445 trial= 0.580  step= 0.575 mean= 0.580
 gam= 0.270 g(H,U,f)=  0.341E-03 0.139E-04 0.110E-20 ort(H,U,f) =-0.547E-04 0.729E-04 0.581E-21
CGA:   8    -0.202693048185E+04   -0.37502E-03   -0.37506E-03  1304   0.354E-03 0.182E-04
 gam= 0.270 trial= 0.579  step= 0.654 mean= 0.579
 gam= 0.262 g(H,U,f)=  0.907E-04 0.216E-05 0.713E-23 ort(H,U,f) =-0.109E-04 0.636E-05 0.118E-21
CGA:   9    -0.202693059914E+04   -0.11729E-03   -0.11746E-03  1304   0.929E-04-0.455E-05
 gam= 0.262 trial= 0.583  step= 0.570 mean= 0.583
 gam= 0.314 g(H,U,f)=  0.281E-04 0.105E-05 0.260E-23 ort(H,U,f) = 0.295E-05-0.589E-07-0.241E-22
CGA:  10    -0.202693062527E+04   -0.26129E-04   -0.26147E-04  1304   0.291E-04 0.289E-05
 gam= 0.314 trial= 0.583  step= 0.601 mean= 0.583
 gam= 0.448 g(H,U,f)=  0.127E-04 0.388E-06 0.215E-22 ort(H,U,f) =-0.205E-05-0.157E-06 0.149E-22
CGA:  11    -0.202693063428E+04   -0.90110E-05   -0.90319E-05  1304   0.131E-04-0.221E-05
 gam= 0.448 trial= 0.584  step= 0.491 mean= 0.584
 gam= 0.308 g(H,U,f)=  0.387E-05 0.154E-06 0.299E-24 ort(H,U,f) = 0.129E-05-0.113E-07 0.343E-23
CGA:  12    -0.202693063718E+04   -0.28990E-05   -0.29584E-05  1304   0.402E-05 0.128E-05
 gam= 0.308 trial= 0.579  step= 0.750 mean= 0.579
 gam= 0.416 g(H,U,f)=  0.156E-05 0.111E-06 0.428E-23 ort(H,U,f) =-0.415E-06-0.279E-08-0.550E-23
CGA:  13    -0.202693063880E+04   -0.16182E-05   -0.16539E-05  1304   0.167E-05-0.418E-06
 gam= 0.416 trial= 0.587  step= 0.731 mean= 0.587
 gam= 0.385 g(H,U,f)=  0.594E-06 0.497E-07 0.618E-26 ort(H,U,f) =-0.104E-06-0.153E-08 0.550E-25
CGA:  14    -0.202693063934E+04   -0.54005E-06   -0.54783E-06  1304   0.644E-06-0.106E-06
 gam= 0.385 trial= 0.595  step= 0.461 mean= 0.595
 gam= 0.279 g(H,U,f)=  0.171E-06 0.805E-08 0.767E-25 ort(H,U,f) = 0.116E-06 0.168E-07-0.120E-24
CGA:  15    -0.202693063947E+04   -0.13025E-06   -0.13906E-06  1304   0.180E-06 0.132E-06
 gam= 0.279 trial= 0.588  step= 1.070 mean= 0.588
 gam= 0.000 g(H,U,f)=  0.263E-06 0.305E-07 0.499E-24 ort(H,U,f) =-0.142E-06-0.919E-08-0.118E-24
CGA:  16    -0.202693063955E+04   -0.79322E-07   -0.11577E-06  1304   0.293E-06-0.151E-06
 gam= 0.000 trial= 0.612  step= 0.282 mean= 0.612
 final diagonalization
  32 F= -.20483777E+04 E0= -.20483777E+04  d E =-.613953E-02
 curvature:  -9.09 expect dE=-0.137E+00 dE for cont linesearch -0.851E-04
 trial: gam= 0.68489 g(F)=  0.145E-01 g(S)=  0.638E-03 ort = 0.223E-02 (trialstep = 0.234E+00)
 search vector abs. value=  0.267E+00
 bond charge predicted
       N       E                     dE             d eps       ncg     rms          ort
 gam= 0.000 g(H,U,f)=  0.399E+00 0.389E-01 0.101E-18 ort(H,U,f) = 0.000E+00 0.000E+00 0.000E+00
SDA:   1    -0.202676800911E+04    0.16263E+00    0.00000E+00  1304   0.438E+00 0.000E+00
 gam= 0.000 trial= 0.596  step= 0.573 mean= 0.596
 gam= 0.273 g(H,U,f)=  0.112E+00 0.760E-02 0.401E-17 ort(H,U,f) = 0.724E-02-0.723E-02-0.380E-17
CGA:   2    -0.202689330593E+04   -0.12530E+00   -0.12530E+00  1304   0.120E+00 0.935E-05
 gam= 0.273 trial= 0.594  step= 0.577 mean= 0.594
 gam= 0.168 g(H,U,f)=  0.193E-01 0.726E-03 0.854E-18 ort(H,U,f) =-0.639E-03 0.656E-03 0.337E-18
CGA:   3    -0.202692784216E+04   -0.34536E-01   -0.34536E-01  1304   0.200E-01 0.168E-04
 gam= 0.168 trial= 0.594  step= 0.488 mean= 0.594
 gam= 0.210 g(H,U,f)=  0.385E-02 0.368E-03 0.420E-21 ort(H,U,f) =-0.192E-03 0.190E-03-0.614E-20
CGA:   4    -0.202693273787E+04   -0.48957E-02   -0.48956E-02  1304   0.421E-02-0.202E-05
 gam= 0.210 trial= 0.588  step= 0.562 mean= 0.588
 gam= 0.215 g(H,U,f)=  0.797E-03 0.109E-03 0.601E-21 ort(H,U,f) =-0.178E-03 0.184E-03 0.904E-21
CGA:   5    -0.202693392215E+04   -0.11843E-02   -0.11844E-02  1304   0.907E-03 0.661E-05
 gam= 0.215 trial= 0.587  step= 0.719 mean= 0.587
 gam= 0.346 g(H,U,f)=  0.281E-03 0.326E-04 0.365E-21 ort(H,U,f) =-0.783E-04 0.755E-04 0.521E-21
CGA:   6    -0.202693424854E+04   -0.32639E-03   -0.32657E-03  1304   0.314E-03-0.279E-05
 gam= 0.346 trial= 0.594  step= 0.722 mean= 0.594
 gam= 0.373 g(H,U,f)=  0.108E-03 0.863E-05 0.401E-23 ort(H,U,f) =-0.219E-04 0.258E-04 0.487E-22
CGA:   7    -0.202693436181E+04   -0.11326E-03   -0.11301E-03  1304   0.117E-03 0.392E-05
 gam= 0.373 trial= 0.600  step= 0.648 mean= 0.600
 gam= 0.343 g(H,U,f)=  0.388E-04 0.144E-05 0.736E-25 ort(H,U,f) =-0.512E-05 0.368E-05-0.286E-23
CGA:   8    -0.202693440016E+04   -0.38354E-04   -0.38388E-04  1304   0.402E-04-0.144E-05
 gam= 0.343 trial= 0.602  step= 0.519 mean= 0.602
 gam= 0.291 g(H,U,f)=  0.115E-04 0.184E-06 0.122E-23 ort(H,U,f) = 0.880E-06 0.541E-06 0.396E-23
CGA:   9    -0.202693441040E+04   -0.10240E-04   -0.10300E-04  1304   0.117E-04 0.142E-05
 gam= 0.291 trial= 0.598  step= 0.591 mean= 0.598
 gam= 0.366 g(H,U,f)=  0.413E-05 0.151E-06 0.151E-23 ort(H,U,f) =-0.101E-05-0.723E-07 0.276E-23
CGA:  10    -0.202693441399E+04   -0.35851E-05   -0.35814E-05  1304   0.428E-05-0.108E-05
 gam= 0.366 trial= 0.598  step= 0.516 mean= 0.598
 gam= 0.271 g(H,U,f)=  0.111E-05 0.483E-07 0.719E-25 ort(H,U,f) = 0.493E-06-0.329E-07 0.571E-24
CGA:  11    -0.202693441497E+04   -0.98293E-06   -0.10017E-05  1304   0.116E-05 0.460E-06
 gam= 0.271 trial= 0.594  step= 0.802 mean= 0.594
 gam= 0.488 g(H,U,f)=  0.547E-06 0.197E-07 0.366E-25 ort(H,U,f) =-0.163E-06 0.145E-08 0.175E-24
CGA:  12    -0.202693441547E+04   -0.49912E-06   -0.51588E-06  1304   0.567E-06-0.161E-06
 gam= 0.488 trial= 0.604  step= 0.690 mean= 0.604
 gam= 0.322 g(H,U,f)=  0.175E-06 0.776E-08 0.760E-25 ort(H,U,f) = 0.210E-07 0.852E-08 0.187E-24
CGA:  13    -0.202693441564E+04   -0.16990E-06   -0.16840E-06  1304   0.183E-06 0.295E-07
 gam= 0.322 trial= 0.608  step= 0.812 mean= 0.608
 gam= 0.488 g(H,U,f)=  0.854E-07 0.368E-08 0.358E-26 ort(H,U,f) =-0.489E-07 0.229E-08-0.312E-25
CGA:  14    -0.202693441571E+04   -0.73531E-07   -0.78034E-07  1304   0.891E-07-0.466E-07
 gam= 0.488 trial= 0.619  step= 0.470 mean= 0.619
 final diagonalization
  33 F= -.20483810E+04 E0= -.20483810E+04  d E =-.323404E-02
 trial-energy change:   -0.003234  1 .order   -0.003244   -0.003893   -0.002595
 step:   0.7872(harm=  0.7029)  dis= 0.01728  next Energy= -2048.383910 (dE=-0.617E-02)
 bond charge predicted
       N       E                     dE             d eps       ncg     rms          ort
 gam= 0.000 g(H,U,f)=  0.222E+01 0.217E+00 0.940E-19 ort(H,U,f) = 0.000E+00 0.000E+00 0.000E+00
SDA:   1    -0.202601144512E+04    0.92297E+00    0.00000E+00  1304   0.244E+01 0.000E+00
 gam= 0.000 trial= 0.611  step= 0.573 mean= 0.611
 gam= 0.273 g(H,U,f)=  0.624E+00 0.421E-01 0.329E-15 ort(H,U,f) = 0.400E-01-0.401E-01-0.325E-15
CGA:   2    -0.202670927131E+04   -0.69783E+00   -0.69782E+00  1304   0.666E+00-0.131E-03
 gam= 0.273 trial= 0.609  step= 0.577 mean= 0.609
 gam= 0.168 g(H,U,f)=  0.108E+00 0.405E-02 0.183E-17 ort(H,U,f) =-0.358E-02 0.366E-02 0.704E-18
CGA:   3    -0.202690154897E+04   -0.19228E+00   -0.19228E+00  1304   0.112E+00 0.803E-04
 gam= 0.168 trial= 0.608  step= 0.488 mean= 0.608
 gam= 0.210 g(H,U,f)=  0.214E-01 0.205E-02 0.215E-22 ort(H,U,f) =-0.107E-02 0.107E-02-0.337E-21
CGA:   4    -0.202692881845E+04   -0.27269E-01   -0.27270E-01  1304   0.234E-01 0.123E-05
 gam= 0.210 trial= 0.602  step= 0.563 mean= 0.602
 gam= 0.216 g(H,U,f)=  0.445E-02 0.610E-03 0.188E-22 ort(H,U,f) =-0.101E-02 0.103E-02 0.280E-22
CGA:   5    -0.202693541206E+04   -0.65936E-02   -0.65939E-02  1304   0.506E-02 0.172E-04
 gam= 0.216 trial= 0.600  step= 0.716 mean= 0.600
 gam= 0.346 g(H,U,f)=  0.157E-02 0.183E-03 0.475E-23 ort(H,U,f) =-0.430E-03 0.423E-03 0.685E-23
CGA:   6    -0.202693722628E+04   -0.18142E-02   -0.18146E-02  1304   0.175E-02-0.654E-05
 gam= 0.346 trial= 0.606  step= 0.723 mean= 0.606
 gam= 0.384 g(H,U,f)=  0.623E-03 0.489E-04 0.240E-25 ort(H,U,f) =-0.133E-03 0.144E-03 0.281E-24
CGA:   7    -0.202693785961E+04   -0.63333E-03   -0.63269E-03  1304   0.672E-03 0.110E-04
 gam= 0.384 trial= 0.612  step= 0.630 mean= 0.612
 gam= 0.345 g(H,U,f)=  0.224E-03 0.800E-05 0.219E-27 ort(H,U,f) =-0.263E-04 0.221E-04-0.976E-26
CGA:   8    -0.202693807238E+04   -0.21277E-03   -0.21281E-03  1304   0.232E-03-0.419E-05
 gam= 0.345 trial= 0.612  step= 0.521 mean= 0.612
 gam= 0.297 g(H,U,f)=  0.676E-04 0.107E-05 0.488E-26 ort(H,U,f) = 0.828E-06 0.309E-05 0.154E-25
CGA:   9    -0.202693813215E+04   -0.59775E-04   -0.59954E-04  1304   0.687E-04 0.392E-05
 gam= 0.297 trial= 0.608  step= 0.563 mean= 0.608
 gam= 0.312 g(H,U,f)=  0.207E-04 0.758E-06 0.404E-26 ort(H,U,f) =-0.234E-05-0.354E-06 0.856E-26
CGA:  10    -0.202693815189E+04   -0.19736E-04   -0.19676E-04  1304   0.215E-04-0.269E-05
 gam= 0.312 trial= 0.606  step= 0.590 mean= 0.606
 gam= 0.303 g(H,U,f)=  0.619E-05 0.311E-06 0.532E-28 ort(H,U,f) = 0.130E-05-0.226E-06 0.768E-27
CGA:  11    -0.202693815797E+04   -0.60771E-05   -0.60854E-05  1304   0.650E-05 0.107E-05
 gam= 0.303 trial= 0.605  step= 0.779 mean= 0.605
 gam= 0.523 g(H,U,f)=  0.328E-05 0.115E-06 0.232E-27 ort(H,U,f) =-0.739E-06-0.143E-08 0.635E-27
CGA:  12    -0.202693816056E+04   -0.25940E-05   -0.26587E-05  1304   0.340E-05-0.741E-06
 gam= 0.523 trial= 0.614  step= 0.509 mean= 0.614
 gam= 0.347 g(H,U,f)=  0.113E-05 0.452E-07 0.211E-27 ort(H,U,f) = 0.303E-06 0.578E-07 0.556E-27
CGA:  13    -0.202693816131E+04   -0.74694E-06   -0.76589E-06  1304   0.118E-05 0.360E-06
 gam= 0.347 trial= 0.608  step= 0.707 mean= 0.608
 gam= 0.440 g(H,U,f)=  0.488E-06 0.310E-07 0.260E-29 ort(H,U,f) =-0.241E-06 0.232E-07 0.443E-28
CGA:  14    -0.202693816176E+04   -0.45009E-06   -0.46101E-06  1304   0.519E-06-0.218E-06
 gam= 0.440 trial= 0.613  step= 0.556 mean= 0.613
 gam= 0.330 g(H,U,f)=  0.166E-06 0.490E-08 0.135E-30 ort(H,U,f) = 0.466E-07 0.660E-08-0.181E-29
CGA:  15    -0.202693816188E+04   -0.11624E-06   -0.11779E-06  1304   0.171E-06 0.532E-07
 gam= 0.330 trial= 0.610  step= 0.584 mean= 0.610
 gam= 0.278 g(H,U,f)=  0.447E-07 0.295E-08 0.344E-30 ort(H,U,f) = 0.131E-07 0.234E-08 0.262E-29
CGA:  16    -0.202693816193E+04   -0.54926E-07   -0.55217E-07  1304   0.476E-07 0.154E-07
 gam= 0.278 trial= 0.609  step= 0.829 mean= 0.609
 final diagonalization
  34 F= -.20483835E+04 E0= -.20483835E+04  d E =-.573893E-02
 curvature:  -5.46 expect dE=-0.145E+00 dE for cont linesearch -0.809E-04
 trial: gam= 2.07405 g(F)=  0.261E-01 g(S)=  0.390E-03 ort =-0.199E-02 (trialstep = 0.789E-01)
 search vector abs. value=  0.116E+01
 bond charge predicted
       N       E                     dE             d eps       ncg     rms          ort
 gam= 0.000 g(H,U,f)=  0.194E+00 0.191E-01 0.964E-23 ort(H,U,f) = 0.000E+00 0.000E+00 0.000E+00
SDA:   1    -0.202685917462E+04    0.78987E-01    0.00000E+00  1304   0.213E+00 0.000E+00
 gam= 0.000 trial= 0.620  step= 0.572 mean= 0.620
 gam= 0.273 g(H,U,f)=  0.545E-01 0.369E-02 0.161E-21 ort(H,U,f) = 0.353E-02-0.352E-02-0.187E-21
CGA:   2    -0.202692013351E+04   -0.60959E-01   -0.60959E-01  1304   0.582E-01 0.107E-04
 gam= 0.273 trial= 0.618  step= 0.579 mean= 0.618
 gam= 0.164 g(H,U,f)=  0.920E-02 0.330E-03 0.174E-22 ort(H,U,f) =-0.339E-03 0.343E-03 0.115E-22
CGA:   3    -0.202693697172E+04   -0.16838E-01   -0.16838E-01  1304   0.953E-02 0.453E-05
 gam= 0.164 trial= 0.616  step= 0.490 mean= 0.616
 gam= 0.212 g(H,U,f)=  0.184E-02 0.179E-03 0.602E-25 ort(H,U,f) =-0.100E-03 0.100E-03-0.590E-24
CGA:   4    -0.202693930607E+04   -0.23344E-02   -0.23344E-02  1304   0.202E-02 0.261E-06
 gam= 0.212 trial= 0.609  step= 0.559 mean= 0.609
 gam= 0.217 g(H,U,f)=  0.384E-03 0.533E-04 0.385E-26 ort(H,U,f) =-0.879E-04 0.914E-04-0.156E-25
CGA:   5    -0.202693987047E+04   -0.56440E-03   -0.56449E-03  1304   0.437E-03 0.350E-05
 gam= 0.217 trial= 0.607  step= 0.718 mean= 0.607
 gam= 0.343 g(H,U,f)=  0.134E-03 0.162E-04 0.704E-25 ort(H,U,f) =-0.385E-04 0.374E-04-0.145E-26
CGA:   6    -0.202694002758E+04   -0.15711E-03   -0.15717E-03  1304   0.150E-03-0.109E-05
 gam= 0.343 trial= 0.612  step= 0.733 mean= 0.612
 gam= 0.372 g(H,U,f)=  0.518E-04 0.402E-05 0.657E-26 ort(H,U,f) =-0.116E-04 0.125E-04-0.205E-25
CGA:   7    -0.202694008253E+04   -0.54952E-04   -0.54899E-04  1304   0.558E-04 0.874E-06
 gam= 0.372 trial= 0.619  step= 0.641 mean= 0.619
 gam= 0.314 g(H,U,f)=  0.168E-04 0.651E-06 0.765E-27 ort(H,U,f) =-0.111E-05 0.186E-05-0.362E-27
CGA:   8    -0.202694010051E+04   -0.17976E-04   -0.17968E-04  1304   0.175E-04 0.750E-06
 gam= 0.314 trial= 0.620  step= 0.581 mean= 0.620
 gam= 0.334 g(H,U,f)=  0.574E-05 0.108E-06 0.541E-28 ort(H,U,f) =-0.628E-06 0.204E-06-0.179E-27
CGA:   9    -0.202694010567E+04   -0.51581E-05   -0.51500E-05  1304   0.584E-05-0.424E-06
 gam= 0.334 trial= 0.618  step= 0.499 mean= 0.618
 gam= 0.292 g(H,U,f)=  0.166E-05 0.497E-07 0.632E-28 ort(H,U,f) = 0.144E-06-0.185E-07-0.859E-29
CGA:  10    -0.202694010708E+04   -0.14158E-05   -0.14232E-05  1304   0.170E-05 0.126E-06
 gam= 0.292 trial= 0.612  step= 0.646 mean= 0.612
 gam= 0.347 g(H,U,f)=  0.559E-06 0.324E-07 0.254E-27 ort(H,U,f) =-0.276E-07-0.241E-07-0.129E-27
CGA:  11    -0.202694010764E+04   -0.56146E-06   -0.56251E-06  1304   0.591E-06-0.517E-07
 gam= 0.347 trial= 0.613  step= 0.692 mean= 0.613
 gam= 0.359 g(H,U,f)=  0.202E-06 0.106E-07 0.277E-28 ort(H,U,f) = 0.155E-07-0.862E-09-0.741E-28
CGA:  12    -0.202694010784E+04   -0.19897E-06   -0.19839E-06  1304   0.213E-06 0.146E-07
 gam= 0.359 trial= 0.617  step= 0.973 mean= 0.617
 gam= 0.965 g(H,U,f)=  0.198E-06 0.688E-08 0.358E-30 ort(H,U,f) =-0.914E-07 0.128E-08-0.584E-31
CGA:  13    -0.202694010793E+04   -0.90033E-07   -0.10598E-06  1304   0.205E-06-0.901E-07
 gam= 0.965 trial= 0.635  step= 0.267 mean= 0.635
 final diagonalization
  35 F= -.20483851E+04 E0= -.20483851E+04  d E =-.166175E-02
 ZBRENT: can't locate minimum, use default step
 trial-energy change:   -0.001662  1 .order   -0.001662   -0.001766   -0.001558
 step:   0.3157(harm=  0.6722)  dis= 0.01446  next Energy= -2048.391002 (dE=-0.752E-02)
 bond charge predicted
       N       E                     dE             d eps       ncg     rms          ort
 gam= 0.000 g(H,U,f)=  0.175E+01 0.172E+00 0.122E-21 ort(H,U,f) = 0.000E+00 0.000E+00 0.000E+00
SDA:   1    -0.202621640455E+04    0.72370E+00    0.00000E+00  1304   0.192E+01 0.000E+00
 gam= 0.000 trial= 0.617  step= 0.572 mean= 0.617
 gam= 0.273 g(H,U,f)=  0.490E+00 0.330E-01 0.523E-18 ort(H,U,f) = 0.314E-01-0.315E-01-0.622E-18
CGA:   2    -0.202676500035E+04   -0.54860E+00   -0.54859E+00  1304   0.523E+00-0.146E-03
 gam= 0.273 trial= 0.615  step= 0.579 mean= 0.615
 gam= 0.164 g(H,U,f)=  0.827E-01 0.297E-02 0.817E-21 ort(H,U,f) =-0.304E-02 0.309E-02 0.523E-21
CGA:   3    -0.202691645564E+04   -0.15146E+00   -0.15146E+00  1304   0.857E-01 0.502E-04
 gam= 0.164 trial= 0.613  step= 0.490 mean= 0.613
 gam= 0.212 g(H,U,f)=  0.165E-01 0.161E-02 0.146E-24 ort(H,U,f) =-0.908E-03 0.914E-03-0.154E-23
CGA:   4    -0.202693746362E+04   -0.21008E-01   -0.21009E-01  1304   0.181E-01 0.573E-05
 gam= 0.212 trial= 0.607  step= 0.560 mean= 0.607
 gam= 0.217 g(H,U,f)=  0.346E-02 0.480E-03 0.347E-26 ort(H,U,f) =-0.809E-03 0.822E-03-0.200E-25
CGA:   5    -0.202694253976E+04   -0.50761E-02   -0.50764E-02  1304   0.394E-02 0.127E-04
 gam= 0.217 trial= 0.604  step= 0.715 mean= 0.604
 gam= 0.342 g(H,U,f)=  0.120E-02 0.147E-03 0.109E-24 ort(H,U,f) =-0.342E-03 0.339E-03 0.643E-26
CGA:   6    -0.202694395141E+04   -0.14117E-02   -0.14119E-02  1304   0.135E-02-0.369E-05
 gam= 0.342 trial= 0.610  step= 0.736 mean= 0.610
 gam= 0.374 g(H,U,f)=  0.468E-03 0.363E-04 0.498E-26 ort(H,U,f) =-0.107E-03 0.112E-03-0.173E-25
CGA:   7    -0.202694444752E+04   -0.49611E-03   -0.49581E-03  1304   0.504E-03 0.481E-05
 gam= 0.374 trial= 0.616  step= 0.649 mean= 0.616
 gam= 0.317 g(H,U,f)=  0.154E-03 0.587E-05 0.636E-27 ort(H,U,f) =-0.150E-04 0.158E-04-0.520E-27
CGA:   8    -0.202694461167E+04   -0.16415E-03   -0.16414E-03  1304   0.160E-03 0.811E-06
 gam= 0.317 trial= 0.618  step= 0.563 mean= 0.618
 gam= 0.313 g(H,U,f)=  0.491E-04 0.897E-06 0.630E-28 ort(H,U,f) =-0.159E-05 0.178E-05-0.154E-27
CGA:   9    -0.202694465672E+04   -0.45054E-04   -0.45060E-04  1304   0.500E-04 0.199E-06
 gam= 0.313 trial= 0.615  step= 0.529 mean= 0.615
 gam= 0.324 g(H,U,f)=  0.157E-04 0.491E-06 0.209E-28 ort(H,U,f) =-0.485E-06-0.213E-06 0.747E-29
CGA:  10    -0.202694466998E+04   -0.13260E-04   -0.13230E-04  1304   0.162E-04-0.698E-06
 gam= 0.324 trial= 0.611  step= 0.591 mean= 0.611
 gam= 0.316 g(H,U,f)=  0.486E-05 0.254E-06 0.135E-27 ort(H,U,f) = 0.497E-06-0.176E-06-0.619E-28
CGA:  11    -0.202694467470E+04   -0.47170E-05   -0.47200E-05  1304   0.511E-05 0.320E-06
 gam= 0.316 trial= 0.610  step= 0.754 mean= 0.610
 gam= 0.438 g(H,U,f)=  0.214E-05 0.968E-07 0.283E-28 ort(H,U,f) =-0.312E-06-0.585E-08-0.577E-28
CGA:  12    -0.202694467664E+04   -0.19429E-05   -0.19658E-05  1304   0.224E-05-0.318E-06
 gam= 0.438 trial= 0.617  step= 0.593 mean= 0.617
 gam= 0.365 g(H,U,f)=  0.785E-06 0.337E-07 0.507E-30 ort(H,U,f) = 0.935E-07 0.399E-07 0.418E-30
CGA:  13    -0.202694467726E+04   -0.62073E-06   -0.62244E-06  1304   0.819E-06 0.133E-06
 gam= 0.365 trial= 0.616  step= 0.712 mean= 0.616
 gam= 0.640 g(H,U,f)=  0.504E-06 0.203E-07 0.627E-30 ort(H,U,f) =-0.217E-06 0.161E-07-0.667E-30
CGA:  14    -0.202694467756E+04   -0.29930E-06   -0.30883E-06  1304   0.524E-06-0.200E-06
 gam= 0.640 trial= 0.621  step= 0.359 mean= 0.621
 gam= 0.310 g(H,U,f)=  0.159E-06 0.371E-08 0.688E-31 ort(H,U,f) = 0.710E-07 0.121E-07 0.768E-31
CGA:  15    -0.202694467762E+04   -0.60172E-07   -0.71106E-07  1304   0.162E-06 0.831E-07
 gam= 0.310 trial= 0.608  step= 0.376 mean= 0.608
 final diagonalization
  36 F= -.20483889E+04 E0= -.20483889E+04  d E =-.540713E-02
 curvature: -11.18 expect dE=-0.274E+00 dE for cont linesearch -0.137E-02
 ZBRENT: increasing intervall
 opt :   0.7891  next Energy= -2048.390856 (dE=-0.737E-02)
 bond charge predicted
       N       E                     dE             d eps       ncg     rms          ort
 gam= 0.000 g(H,U,f)=  0.698E+01 0.686E+00 0.532E-22 ort(H,U,f) = 0.000E+00 0.000E+00 0.000E+00
SDA:   1    -0.202403638780E+04    0.29083E+01    0.00000E+00  1304   0.767E+01 0.000E+00
 gam= 0.000 trial= 0.596  step= 0.572 mean= 0.596
 gam= 0.273 g(H,U,f)=  0.196E+01 0.131E+00 0.579E-15 ort(H,U,f) = 0.123E+00-0.125E+00-0.724E-15
CGA:   2    -0.202623000359E+04   -0.21936E+01   -0.21936E+01  1304   0.209E+01-0.175E-02
 gam= 0.273 trial= 0.595  step= 0.579 mean= 0.595
 gam= 0.164 g(H,U,f)=  0.330E+00 0.119E-01 0.334E-20 ort(H,U,f) =-0.119E-01 0.124E-01 0.200E-20
CGA:   3    -0.202683515509E+04   -0.60515E+00   -0.60516E+00  1304   0.342E+00 0.490E-03
 gam= 0.164 trial= 0.594  step= 0.491 mean= 0.594
 gam= 0.211 g(H,U,f)=  0.660E-01 0.642E-02 0.441E-26 ort(H,U,f) =-0.368E-02 0.372E-02-0.563E-25
CGA:   4    -0.202691920187E+04   -0.84047E-01   -0.84051E-01  1304   0.724E-01 0.384E-04
 gam= 0.211 trial= 0.589  step= 0.560 mean= 0.589
 gam= 0.218 g(H,U,f)=  0.139E-01 0.192E-02 0.969E-29 ort(H,U,f) =-0.326E-02 0.329E-02-0.224E-28
CGA:   5    -0.202693947498E+04   -0.20273E-01   -0.20274E-01  1304   0.158E-01 0.312E-04
 gam= 0.218 trial= 0.587  step= 0.715 mean= 0.587
 gam= 0.341 g(H,U,f)=  0.479E-02 0.594E-03 0.150E-26 ort(H,U,f) =-0.137E-02 0.136E-02 0.312E-27
CGA:   6    -0.202694512090E+04   -0.56459E-02   -0.56464E-02  1304   0.539E-02-0.829E-05
 gam= 0.341 trial= 0.594  step= 0.738 mean= 0.594
 gam= 0.375 g(H,U,f)=  0.187E-02 0.145E-03 0.169E-28 ort(H,U,f) =-0.433E-03 0.450E-03-0.741E-28
CGA:   7    -0.202694710769E+04   -0.19868E-02   -0.19856E-02  1304   0.202E-02 0.164E-04
 gam= 0.375 trial= 0.601  step= 0.647 mean= 0.601
 gam= 0.324 g(H,U,f)=  0.630E-03 0.237E-04 0.282E-29 ort(H,U,f) =-0.662E-04 0.635E-04-0.396E-29
CGA:   8    -0.202694776311E+04   -0.65542E-03   -0.65548E-03  1304   0.654E-03-0.268E-05
 gam= 0.324 trial= 0.603  step= 0.548 mean= 0.603
 gam= 0.311 g(H,U,f)=  0.200E-03 0.351E-05 0.602E-30 ort(H,U,f) =-0.314E-05 0.761E-05-0.743E-30
CGA:   9    -0.202694794195E+04   -0.17884E-03   -0.17896E-03  1304   0.204E-03 0.447E-05
 gam= 0.311 trial= 0.600  step= 0.534 mean= 0.600
 gam= 0.319 g(H,U,f)=  0.628E-04 0.205E-05 0.987E-32 ort(H,U,f) =-0.311E-05-0.942E-06 0.442E-31
CGA:  10    -0.202694799681E+04   -0.54862E-04   -0.54728E-04  1304   0.649E-04-0.405E-05
 gam= 0.319 trial= 0.597  step= 0.596 mean= 0.597
 gam= 0.313 g(H,U,f)=  0.193E-04 0.999E-06 0.388E-30 ort(H,U,f) = 0.235E-05-0.688E-06-0.156E-30
CGA:  11    -0.202694801576E+04   -0.18954E-04   -0.18955E-04  1304   0.203E-04 0.167E-05
 gam= 0.313 trial= 0.597  step= 0.755 mean= 0.597
 gam= 0.449 g(H,U,f)=  0.876E-05 0.377E-06 0.557E-31 ort(H,U,f) =-0.130E-05-0.971E-08-0.143E-30
CGA:  12    -0.202694802353E+04   -0.77722E-05   -0.78757E-05  1304   0.913E-05-0.131E-05
 gam= 0.449 trial= 0.605  step= 0.575 mean= 0.605
 gam= 0.369 g(H,U,f)=  0.324E-05 0.137E-06 0.308E-32 ort(H,U,f) = 0.463E-06 0.167E-06-0.176E-32
CGA:  13    -0.202694802598E+04   -0.24483E-05   -0.24576E-05  1304   0.337E-05 0.631E-06
 gam= 0.369 trial= 0.604  step= 0.688 mean= 0.604
 gam= 0.549 g(H,U,f)=  0.177E-05 0.829E-07 0.117E-31 ort(H,U,f) =-0.724E-06 0.685E-07-0.375E-32
CGA:  14    -0.202694802719E+04   -0.12132E-05   -0.12410E-05  1304   0.185E-05-0.656E-06
 gam= 0.549 trial= 0.608  step= 0.408 mean= 0.608
 gam= 0.300 g(H,U,f)=  0.541E-06 0.141E-07 0.137E-33 ort(H,U,f) = 0.241E-06 0.436E-07 0.108E-32
CGA:  15    -0.202694802747E+04   -0.27631E-06   -0.30460E-06  1304   0.555E-06 0.285E-06
 gam= 0.300 trial= 0.598  step= 0.490 mean= 0.598
 gam= 0.407 g(H,U,f)=  0.213E-06 0.130E-07 0.294E-32 ort(H,U,f) = 0.100E-06 0.740E-08-0.206E-32
CGA:  16    -0.202694802762E+04   -0.15117E-06   -0.15698E-06  1304   0.226E-06 0.108E-06
 gam= 0.407 trial= 0.592  step= 0.846 mean= 0.592
 gam= 0.000 g(H,U,f)=  0.438E-06 0.882E-08 0.314E-32 ort(H,U,f) =-0.210E-06-0.390E-08-0.222E-32
CGA:  17    -0.202694802771E+04   -0.86889E-07   -0.11402E-06  1304   0.447E-06-0.214E-06
 gam= 0.000 trial= 0.605  step= 0.208 mean= 0.605
 final diagonalization
  37 F= -.20483907E+04 E0= -.20483907E+04  d E =-.723941E-02
 curvature: -16.05 expect dE=-0.756E+00 dE for cont linesearch -0.235E-03
 trial: gam= 1.19521 g(F)=  0.453E-01 g(S)=  0.180E-02 ort =-0.413E-02 (trialstep = 0.151E+00)
 search vector abs. value=  0.170E+01
 bond charge predicted
       N       E                     dE             d eps       ncg     rms          ort
 gam= 0.000 g(H,U,f)=  0.104E+01 0.101E+00 0.456E-26 ort(H,U,f) = 0.000E+00 0.000E+00 0.000E+00
SDA:   1    -0.202651901367E+04    0.42901E+00    0.00000E+00  1304   0.114E+01 0.000E+00
 gam= 0.000 trial= 0.585  step= 0.573 mean= 0.585
 gam= 0.274 g(H,U,f)=  0.292E+00 0.194E-01 0.808E-24 ort(H,U,f) = 0.183E-01-0.184E-01-0.183E-23
CGA:   2    -0.202684470709E+04   -0.32569E+00   -0.32569E+00  1304   0.311E+00-0.596E-04
 gam= 0.274 trial= 0.585  step= 0.578 mean= 0.585
 gam= 0.164 g(H,U,f)=  0.494E-01 0.177E-02 0.564E-25 ort(H,U,f) =-0.189E-02 0.187E-02 0.660E-26
CGA:   3    -0.202693467510E+04   -0.89968E-01   -0.89968E-01  1304   0.512E-01-0.185E-04
 gam= 0.164 trial= 0.584  step= 0.488 mean= 0.584
 gam= 0.215 g(H,U,f)=  0.101E-01 0.936E-03 0.253E-27 ort(H,U,f) =-0.522E-03 0.544E-03-0.910E-27
CGA:   4    -0.202694715701E+04   -0.12482E-01   -0.12483E-01  1304   0.110E-01 0.223E-04
 gam= 0.215 trial= 0.579  step= 0.549 mean= 0.579
 gam= 0.228 g(H,U,f)=  0.221E-02 0.293E-03 0.610E-28 ort(H,U,f) =-0.508E-03 0.503E-03 0.311E-28
CGA:   5    -0.202695017479E+04   -0.30178E-02   -0.30177E-02  1304   0.251E-02-0.505E-05
 gam= 0.228 trial= 0.578  step= 0.651 mean= 0.578
 gam= 0.403 g(H,U,f)=  0.907E-03 0.101E-03 0.652E-28 ort(H,U,f) =-0.208E-03 0.219E-03-0.843E-28
CGA:   6    -0.202695099071E+04   -0.81592E-03   -0.81552E-03  1304   0.101E-02 0.111E-04
 gam= 0.403 trial= 0.582  step= 0.576 mean= 0.582
 gam= 0.469 g(H,U,f)=  0.435E-03 0.377E-04 0.110E-29 ort(H,U,f) =-0.107E-03 0.946E-04-0.334E-29
CGA:   7    -0.202695128267E+04   -0.29196E-03   -0.29193E-03  1304   0.473E-03-0.126E-04
 gam= 0.469 trial= 0.581  step= 0.547 mean= 0.581
 gam= 0.267 g(H,U,f)=  0.121E-03 0.505E-05 0.462E-29 ort(H,U,f) =-0.162E-04 0.267E-04-0.115E-29
CGA:   8    -0.202695141031E+04   -0.12764E-03   -0.12782E-03  1304   0.126E-03 0.105E-04
 gam= 0.267 trial= 0.580  step= 0.659 mean= 0.580
 gam= 0.258 g(H,U,f)=  0.318E-04 0.813E-06 0.188E-29 ort(H,U,f) =-0.484E-05 0.228E-05-0.300E-29
CGA:   9    -0.202695145277E+04   -0.42467E-04   -0.42569E-04  1304   0.326E-04-0.256E-05
 gam= 0.258 trial= 0.584  step= 0.586 mean= 0.584
 gam= 0.289 g(H,U,f)=  0.904E-05 0.376E-06 0.354E-31 ort(H,U,f) = 0.141E-05-0.589E-07 0.154E-30
CGA:  10    -0.202695146214E+04   -0.93693E-05   -0.93676E-05  1304   0.942E-05 0.135E-05
 gam= 0.289 trial= 0.584  step= 0.665 mean= 0.584
 gam= 0.508 g(H,U,f)=  0.462E-05 0.167E-06 0.374E-31 ort(H,U,f) =-0.109E-05-0.103E-06-0.844E-31
CGA:  11    -0.202695146536E+04   -0.32125E-05   -0.32610E-05  1304   0.479E-05-0.119E-05
 gam= 0.508 trial= 0.588  step= 0.438 mean= 0.588
 gam= 0.303 g(H,U,f)=  0.139E-05 0.582E-07 0.132E-31 ort(H,U,f) = 0.699E-06 0.105E-07 0.325E-32
CGA:  12    -0.202695146622E+04   -0.86301E-06   -0.91627E-06  1304   0.145E-05 0.710E-06
 gam= 0.303 trial= 0.580  step= 0.656 mean= 0.580
 gam= 0.459 g(H,U,f)=  0.617E-06 0.489E-07 0.240E-31 ort(H,U,f) =-0.594E-07-0.693E-08 0.199E-31
CGA:  13    -0.202695146676E+04   -0.54323E-06   -0.54573E-06  1304   0.665E-06-0.663E-07
 gam= 0.459 trial= 0.584  step= 1.050 mean= 0.584
 gam= 0.000 g(H,U,f)=  0.134E-05 0.602E-07 0.119E-31 ort(H,U,f) =-0.568E-06-0.172E-07-0.249E-31
CGA:  14    -0.202695146696E+04   -0.19699E-06   -0.33333E-06  1304   0.140E-05-0.585E-06
 gam= 0.000 trial= 0.607  step= 0.228 mean= 0.607
 gam= 0.131 g(H,U,f)=  0.179E-06 0.552E-08 0.137E-32 ort(H,U,f) = 0.354E-06 0.151E-07 0.411E-32
CGA:  15    -0.202695146705E+04   -0.90069E-07   -0.15999E-06  1304   0.185E-06 0.369E-06
 gam= 0.131 trial= 0.588  step= 0.251 mean= 0.588
 final diagonalization
  38 F= -.20483961E+04 E0= -.20483961E+04  d E =-.536617E-02
 trial-energy change:   -0.005366  1 .order   -0.005387   -0.006384   -0.004389
 step:   0.5891(harm=  0.4840)  dis= 0.03189  next Energy= -2048.401941 (dE=-0.112E-01)
 bond charge predicted
       N       E                     dE             d eps       ncg     rms          ort
 gam= 0.000 g(H,U,f)=  0.867E+01 0.845E+00 0.648E-25 ort(H,U,f) = 0.000E+00 0.000E+00 0.000E+00
SDA:   1    -0.202333055072E+04    0.36209E+01    0.00000E+00  1304   0.952E+01 0.000E+00
 gam= 0.000 trial= 0.572  step= 0.573 mean= 0.572
 gam= 0.274 g(H,U,f)=  0.245E+01 0.161E+00 0.176E-17 ort(H,U,f) = 0.149E+00-0.153E+00-0.364E-17
CGA:   2    -0.202605685932E+04   -0.27263E+01   -0.27263E+01  1304   0.261E+01-0.341E-02
 gam= 0.274 trial= 0.572  step= 0.577 mean= 0.572
 gam= 0.164 g(H,U,f)=  0.413E+00 0.149E-01 0.132E-21 ort(H,U,f) =-0.149E-01 0.156E-01 0.607E-23
CGA:   3    -0.202680934200E+04   -0.75248E+00   -0.75248E+00  1304   0.428E+00 0.713E-03
 gam= 0.164 trial= 0.572  step= 0.489 mean= 0.572
 gam= 0.214 g(H,U,f)=  0.837E-01 0.783E-02 0.127E-26 ort(H,U,f) =-0.452E-02 0.463E-02-0.578E-26
CGA:   4    -0.202691400306E+04   -0.10466E+00   -0.10467E+00  1304   0.915E-01 0.105E-03
 gam= 0.214 trial= 0.568  step= 0.551 mean= 0.568
 gam= 0.227 g(H,U,f)=  0.183E-01 0.244E-02 0.120E-27 ort(H,U,f) =-0.420E-02 0.420E-02 0.307E-28
CGA:   5    -0.202693921033E+04   -0.25207E-01   -0.25207E-01  1304   0.207E-01-0.481E-05
 gam= 0.227 trial= 0.567  step= 0.664 mean= 0.567
 gam= 0.395 g(H,U,f)=  0.735E-02 0.837E-03 0.397E-27 ort(H,U,f) =-0.179E-02 0.182E-02-0.281E-27
CGA:   6    -0.202694609572E+04   -0.68854E-02   -0.68839E-02  1304   0.819E-02 0.316E-04
 gam= 0.395 trial= 0.572  step= 0.586 mean= 0.572
 gam= 0.469 g(H,U,f)=  0.354E-02 0.302E-03 0.633E-30 ort(H,U,f) =-0.801E-03 0.770E-03-0.511E-29
CGA:   7    -0.202694849941E+04   -0.24037E-02   -0.24039E-02  1304   0.384E-02-0.306E-04
 gam= 0.469 trial= 0.572  step= 0.546 mean= 0.572
 gam= 0.283 g(H,U,f)=  0.105E-02 0.418E-04 0.312E-29 ort(H,U,f) =-0.179E-03 0.212E-03-0.367E-29
CGA:   8    -0.202694954387E+04   -0.10445E-02   -0.10449E-02  1304   0.109E-02 0.331E-04
 gam= 0.283 trial= 0.571  step= 0.633 mean= 0.571
 gam= 0.247 g(H,U,f)=  0.263E-03 0.619E-05 0.166E-29 ort(H,U,f) =-0.283E-04 0.196E-04-0.163E-29
CGA:   9    -0.202694989144E+04   -0.34758E-03   -0.34785E-03  1304   0.269E-03-0.868E-05
 gam= 0.247 trial= 0.574  step= 0.602 mean= 0.574
 gam= 0.308 g(H,U,f)=  0.798E-04 0.322E-05 0.299E-31 ort(H,U,f) = 0.476E-05-0.655E-06 0.151E-30
CGA:  10    -0.202694997198E+04   -0.80536E-04   -0.80478E-04  1304   0.830E-04 0.411E-05
 gam= 0.308 trial= 0.576  step= 0.598 mean= 0.576
 gam= 0.424 g(H,U,f)=  0.340E-04 0.120E-05 0.147E-31 ort(H,U,f) =-0.301E-05-0.665E-06-0.508E-31
CGA:  11    -0.202694999713E+04   -0.25153E-04   -0.25194E-04  1304   0.352E-04-0.367E-05
 gam= 0.424 trial= 0.577  step= 0.530 mean= 0.577
 gam= 0.337 g(H,U,f)=  0.114E-04 0.459E-06 0.170E-31 ort(H,U,f) = 0.214E-05 0.156E-07 0.717E-32
CGA:  12    -0.202695000600E+04   -0.88711E-05   -0.89214E-05  1304   0.119E-04 0.215E-05
 gam= 0.337 trial= 0.574  step= 0.726 mean= 0.574
 gam= 0.461 g(H,U,f)=  0.510E-05 0.369E-06 0.192E-33 ort(H,U,f) =-0.141E-05-0.258E-07 0.135E-32
CGA:  13    -0.202695001047E+04   -0.44681E-05   -0.45770E-05  1304   0.547E-05-0.143E-05
 gam= 0.461 trial= 0.582  step= 0.570 mean= 0.582
 gam= 0.285 g(H,U,f)=  0.148E-05 0.757E-07 0.305E-34 ort(H,U,f) = 0.309E-06 0.763E-07 0.312E-33
CGA:  14    -0.202695001184E+04   -0.13685E-05   -0.13708E-05  1304   0.156E-05 0.386E-06
 gam= 0.285 trial= 0.581  step= 0.739 mean= 0.581
 gam= 0.341 g(H,U,f)=  0.503E-06 0.279E-07 0.262E-33 ort(H,U,f) =-0.142E-06 0.303E-07-0.409E-33
CGA:  15    -0.202695001245E+04   -0.60696E-06   -0.61602E-06  1304   0.531E-06-0.112E-06
 gam= 0.341 trial= 0.589  step= 0.647 mean= 0.589
 gam= 0.394 g(H,U,f)=  0.198E-06 0.107E-07 0.958E-33 ort(H,U,f) = 0.385E-07 0.683E-08 0.245E-33
CGA:  16    -0.202695001261E+04   -0.16076E-06   -0.15946E-06  1304   0.209E-06 0.453E-07
 gam= 0.394 trial= 0.592  step= 0.623 mean= 0.592
 gam= 0.359 g(H,U,f)=  0.727E-07 0.251E-08 0.312E-34 ort(H,U,f) =-0.291E-08 0.597E-09 0.199E-33
CGA:  17    -0.202695001268E+04   -0.70824E-07   -0.70642E-07  1304   0.752E-07-0.231E-08
 gam= 0.359 trial= 0.594  step= 0.565 mean= 0.594
 final diagonalization
  39 F= -.20484004E+04 E0= -.20484004E+04  d E =-.964244E-02
 curvature:  -8.79 expect dE=-0.373E+00 dE for cont linesearch -0.435E-03
 ZBRENT: interpolating
 opt :   0.4839  next Energy= -2048.400847 (dE=-0.101E-01)
 bond charge predicted
       N       E                     dE             d eps       ncg     rms          ort
 gam= 0.000 g(H,U,f)=  0.500E+00 0.491E-01 0.315E-27 ort(H,U,f) = 0.000E+00 0.000E+00 0.000E+00
SDA:   1    -0.202674289579E+04    0.20712E+00    0.00000E+00  1304   0.550E+00 0.000E+00
 gam= 0.000 trial= 0.592  step= 0.573 mean= 0.592
 gam= 0.274 g(H,U,f)=  0.141E+00 0.949E-02 0.262E-30 ort(H,U,f) = 0.899E-02-0.900E-02-0.644E-30
CGA:   2    -0.202690030366E+04   -0.15741E+00   -0.15741E+00  1304   0.151E+00-0.639E-05
 gam= 0.274 trial= 0.591  step= 0.578 mean= 0.591
 gam= 0.165 g(H,U,f)=  0.239E-01 0.851E-03 0.656E-28 ort(H,U,f) =-0.883E-03 0.907E-03 0.120E-28
CGA:   3    -0.202694377950E+04   -0.43476E-01   -0.43476E-01  1304   0.248E-01 0.249E-04
 gam= 0.165 trial= 0.591  step= 0.487 mean= 0.591
 gam= 0.216 g(H,U,f)=  0.491E-02 0.454E-03 0.563E-28 ort(H,U,f) =-0.273E-03 0.261E-03-0.191E-27
CGA:   4    -0.202694981799E+04   -0.60385E-02   -0.60378E-02  1304   0.536E-02-0.117E-04
 gam= 0.216 trial= 0.585  step= 0.545 mean= 0.585
 gam= 0.228 g(H,U,f)=  0.108E-02 0.142E-03 0.177E-28 ort(H,U,f) =-0.239E-03 0.246E-03 0.891E-29
CGA:   5    -0.202695127988E+04   -0.14619E-02   -0.14620E-02  1304   0.122E-02 0.615E-05
 gam= 0.228 trial= 0.583  step= 0.649 mean= 0.583
 gam= 0.420 g(H,U,f)=  0.465E-03 0.494E-04 0.102E-28 ort(H,U,f) =-0.114E-03 0.106E-03-0.152E-28
CGA:   6    -0.202695167773E+04   -0.39784E-03   -0.39810E-03  1304   0.515E-03-0.785E-05
 gam= 0.420 trial= 0.587  step= 0.542 mean= 0.587
 gam= 0.423 g(H,U,f)=  0.199E-03 0.187E-04 0.129E-30 ort(H,U,f) =-0.390E-04 0.485E-04-0.446E-30
CGA:   7    -0.202695181617E+04   -0.13845E-03   -0.13866E-03  1304   0.218E-03 0.950E-05
 gam= 0.423 trial= 0.585  step= 0.610 mean= 0.585
 gam= 0.305 g(H,U,f)=  0.639E-04 0.249E-05 0.271E-29 ort(H,U,f) =-0.186E-04 0.119E-04-0.499E-30
CGA:   8    -0.202695188369E+04   -0.67517E-04   -0.67604E-04  1304   0.664E-04-0.677E-05
 gam= 0.305 trial= 0.586  step= 0.602 mean= 0.586
 gam= 0.233 g(H,U,f)=  0.151E-04 0.347E-06 0.286E-30 ort(H,U,f) = 0.925E-06 0.125E-05-0.888E-30
CGA:   9    -0.202695190308E+04   -0.19391E-04   -0.19374E-04  1304   0.155E-04 0.217E-05
 gam= 0.233 trial= 0.587  step= 0.637 mean= 0.587
 gam= 0.424 g(H,U,f)=  0.635E-05 0.224E-06 0.130E-30 ort(H,U,f) =-0.133E-05-0.558E-07 0.590E-31
CGA:  10    -0.202695190814E+04   -0.50586E-05   -0.50932E-05  1304   0.658E-05-0.138E-05
 gam= 0.424 trial= 0.589  step= 0.425 mean= 0.589
 gam= 0.272 g(H,U,f)=  0.173E-05 0.576E-07 0.268E-33 ort(H,U,f) = 0.825E-06 0.221E-08 0.729E-32
CGA:  11    -0.202695190935E+04   -0.12058E-05   -0.12735E-05  1304   0.179E-05 0.827E-06
 gam= 0.272 trial= 0.581  step= 0.724 mean= 0.581
 gam= 0.476 g(H,U,f)=  0.798E-06 0.549E-07 0.237E-31 ort(H,U,f) =-0.182E-06-0.211E-07 0.244E-31
CGA:  12    -0.202695191006E+04   -0.71619E-06   -0.73071E-06  1304   0.853E-06-0.204E-06
 gam= 0.476 trial= 0.588  step= 0.732 mean= 0.588
 gam= 0.579 g(H,U,f)=  0.467E-06 0.275E-07 0.158E-32 ort(H,U,f) =-0.136E-06-0.128E-07-0.983E-32
CGA:  13    -0.202695191033E+04   -0.26581E-06   -0.27656E-06  1304   0.494E-06-0.149E-06
 gam= 0.579 trial= 0.595  step= 0.309 mean= 0.595
 gam= 0.360 g(H,U,f)=  0.167E-06 0.115E-07 0.154E-32 ort(H,U,f) = 0.139E-06 0.127E-07-0.424E-32
CGA:  14    -0.202695191037E+04   -0.41589E-07   -0.63083E-07  1304   0.178E-06 0.151E-06
 gam= 0.360 trial= 0.581  step= 0.294 mean= 0.581
 final diagonalization
  40 F= -.20484009E+04 E0= -.20484009E+04  d E =-.101422E-01
 curvature:  -9.75 expect dE=-0.283E+00 dE for cont linesearch -0.527E-08
 trial: gam= 0.50212 g(F)=  0.279E-01 g(S)=  0.114E-02 ort = 0.303E-04 (trialstep = 0.218E+00)
 search vector abs. value=  0.458E+00
 bond charge predicted
       N       E                     dE             d eps       ncg     rms          ort
 gam= 0.000 g(H,U,f)=  0.577E+00 0.563E-01 0.978E-26 ort(H,U,f) = 0.000E+00 0.000E+00 0.000E+00
SDA:   1    -0.202671321797E+04    0.23869E+00    0.00000E+00  1304   0.634E+00 0.000E+00
 gam= 0.000 trial= 0.567  step= 0.573 mean= 0.567
 gam= 0.275 g(H,U,f)=  0.164E+00 0.109E-01 0.117E-23 ort(H,U,f) = 0.108E-01-0.108E-01-0.288E-23
CGA:   2    -0.202689477376E+04   -0.18156E+00   -0.18156E+00  1304   0.175E+00 0.573E-04
 gam= 0.275 trial= 0.567  step= 0.578 mean= 0.567
 gam= 0.170 g(H,U,f)=  0.286E-01 0.104E-02 0.971E-26 ort(H,U,f) =-0.111E-02 0.106E-02 0.385E-26
CGA:   3    -0.202694519334E+04   -0.50420E-01   -0.50420E-01  1304   0.296E-01-0.522E-04
 gam= 0.170 trial= 0.568  step= 0.473 mean= 0.568
 gam= 0.227 g(H,U,f)=  0.623E-02 0.488E-03 0.140E-26 ort(H,U,f) =-0.294E-03 0.330E-03-0.217E-26
CGA:   4    -0.202695219736E+04   -0.70040E-02   -0.70057E-02  1304   0.672E-02 0.361E-04
 gam= 0.227 trial= 0.563  step= 0.511 mean= 0.563
 gam= 0.260 g(H,U,f)=  0.156E-02 0.183E-03 0.194E-26 ort(H,U,f) =-0.329E-03 0.309E-03 0.111E-26
CGA:   5    -0.202695391758E+04   -0.17202E-02   -0.17197E-02  1304   0.175E-02-0.194E-04
 gam= 0.260 trial= 0.560  step= 0.536 mean= 0.560
 gam= 0.404 g(H,U,f)=  0.633E-03 0.732E-04 0.173E-29 ort(H,U,f) =-0.129E-03 0.145E-03 0.154E-28
CGA:   6    -0.202695438370E+04   -0.46612E-03   -0.46631E-03  1304   0.706E-03 0.158E-04
 gam= 0.404 trial= 0.559  step= 0.577 mean= 0.559
 gam= 0.372 g(H,U,f)=  0.236E-03 0.267E-04 0.920E-30 ort(H,U,f) =-0.743E-04 0.647E-04 0.686E-29
CGA:   7    -0.202695458922E+04   -0.20552E-03   -0.20561E-03  1304   0.263E-03-0.956E-05
 gam= 0.372 trial= 0.560  step= 0.655 mean= 0.560
 gam= 0.272 g(H,U,f)=  0.683E-04 0.334E-05 0.515E-28 ort(H,U,f) =-0.833E-05 0.159E-04 0.705E-28
CGA:   8    -0.202695467447E+04   -0.85255E-04   -0.84899E-04  1304   0.717E-04 0.753E-05
 gam= 0.272 trial= 0.565  step= 0.658 mean= 0.565
 gam= 0.357 g(H,U,f)=  0.250E-04 0.644E-06 0.541E-29 ort(H,U,f) =-0.440E-05 0.183E-05-0.240E-28
CGA:   9    -0.202695469861E+04   -0.24138E-04   -0.24258E-04  1304   0.256E-04-0.257E-05
 gam= 0.357 trial= 0.569  step= 0.425 mean= 0.569
 gam= 0.276 g(H,U,f)=  0.691E-05 0.145E-06 0.102E-28 ort(H,U,f) = 0.184E-05 0.256E-06-0.447E-29
CGA:  10    -0.202695470371E+04   -0.50953E-05   -0.52465E-05  1304   0.706E-05 0.209E-05
 gam= 0.276 trial= 0.562  step= 0.654 mean= 0.562
 gam= 0.344 g(H,U,f)=  0.232E-05 0.103E-06 0.258E-31 ort(H,U,f) =-0.501E-06-0.113E-07-0.447E-30
CGA:  11    -0.202695470618E+04   -0.24724E-05   -0.24958E-05  1304   0.243E-05-0.512E-06
 gam= 0.344 trial= 0.567  step= 0.629 mean= 0.567
 gam= 0.325 g(H,U,f)=  0.758E-06 0.300E-07 0.612E-30 ort(H,U,f) = 0.224E-06-0.176E-07 0.629E-30
CGA:  12    -0.202695470690E+04   -0.71494E-06   -0.70842E-06  1304   0.788E-06 0.207E-06
 gam= 0.325 trial= 0.570  step= 0.754 mean= 0.570
 gam= 0.440 g(H,U,f)=  0.330E-06 0.164E-07 0.270E-30 ort(H,U,f) =-0.810E-07-0.145E-08 0.552E-30
CGA:  13    -0.202695470721E+04   -0.31489E-06   -0.32247E-06  1304   0.347E-06-0.824E-07
 gam= 0.440 trial= 0.579  step= 0.616 mean= 0.579
 gam= 0.383 g(H,U,f)=  0.128E-06 0.496E-08 0.336E-31 ort(H,U,f) = 0.143E-07 0.500E-08-0.184E-30
CGA:  14    -0.202695470731E+04   -0.96057E-07   -0.95604E-07  1304   0.133E-06 0.193E-07
 gam= 0.383 trial= 0.581  step= 0.662 mean= 0.581
 final diagonalization
  41 F= -.20484059E+04 E0= -.20484059E+04  d E =-.504589E-02
 trial-energy change:   -0.005046  1 .order   -0.005079   -0.006327   -0.003831
 step:   0.6573(harm=  0.5521)  dis= 0.01743  next Energy= -2048.409504 (dE=-0.864E-02)
 bond charge predicted
       N       E                     dE             d eps       ncg     rms          ort
 gam= 0.000 g(H,U,f)=  0.235E+01 0.229E+00 0.462E-24 ort(H,U,f) = 0.000E+00 0.000E+00 0.000E+00
SDA:   1    -0.202596955891E+04    0.98515E+00    0.00000E+00  1304   0.258E+01 0.000E+00
 gam= 0.000 trial= 0.585  step= 0.573 mean= 0.585
 gam= 0.276 g(H,U,f)=  0.666E+00 0.445E-01 0.135E-19 ort(H,U,f) = 0.437E-01-0.438E-01-0.343E-19
CGA:   2    -0.202670880549E+04   -0.73925E+00   -0.73924E+00  1304   0.711E+00-0.119E-03
 gam= 0.276 trial= 0.584  step= 0.578 mean= 0.584
 gam= 0.169 g(H,U,f)=  0.116E+00 0.422E-02 0.547E-23 ort(H,U,f) =-0.435E-02 0.431E-02 0.124E-23
CGA:   3    -0.202691398723E+04   -0.20518E+00   -0.20518E+00  1304   0.120E+00-0.330E-04
 gam= 0.169 trial= 0.584  step= 0.474 mean= 0.584
 gam= 0.227 g(H,U,f)=  0.253E-01 0.199E-02 0.261E-24 ort(H,U,f) =-0.127E-02 0.134E-02-0.372E-24
CGA:   4    -0.202694252639E+04   -0.28539E-01   -0.28543E-01  1304   0.273E-01 0.719E-04
 gam= 0.227 trial= 0.579  step= 0.511 mean= 0.579
 gam= 0.259 g(H,U,f)=  0.633E-02 0.743E-03 0.332E-24 ort(H,U,f) =-0.129E-02 0.126E-02 0.206E-24
CGA:   5    -0.202694950585E+04   -0.69795E-02   -0.69783E-02  1304   0.707E-02-0.352E-04
 gam= 0.259 trial= 0.575  step= 0.539 mean= 0.575
 gam= 0.410 g(H,U,f)=  0.260E-02 0.297E-03 0.264E-27 ort(H,U,f) =-0.556E-03 0.588E-03 0.627E-26
CGA:   6    -0.202695140989E+04   -0.19040E-02   -0.19046E-02  1304   0.290E-02 0.313E-04
 gam= 0.410 trial= 0.573  step= 0.569 mean= 0.573
 gam= 0.365 g(H,U,f)=  0.949E-03 0.108E-03 0.150E-27 ort(H,U,f) =-0.284E-03 0.266E-03 0.221E-26
CGA:   7    -0.202695223817E+04   -0.82828E-03   -0.82824E-03  1304   0.106E-02-0.181E-04
 gam= 0.365 trial= 0.573  step= 0.668 mean= 0.573
 gam= 0.281 g(H,U,f)=  0.283E-03 0.135E-04 0.108E-25 ort(H,U,f) =-0.475E-04 0.629E-04 0.140E-25
CGA:   8    -0.202695258971E+04   -0.35154E-03   -0.35082E-03  1304   0.297E-03 0.153E-04
 gam= 0.281 trial= 0.578  step= 0.642 mean= 0.578
 gam= 0.337 g(H,U,f)=  0.977E-04 0.250E-05 0.845E-27 ort(H,U,f) =-0.126E-04 0.747E-05-0.425E-26
CGA:   9    -0.202695268632E+04   -0.96603E-04   -0.96767E-04  1304   0.100E-03-0.510E-05
 gam= 0.337 trial= 0.581  step= 0.451 mean= 0.581
 gam= 0.301 g(H,U,f)=  0.295E-04 0.672E-06 0.149E-26 ort(H,U,f) = 0.336E-05 0.841E-06-0.764E-27
CGA:  10    -0.202695270823E+04   -0.21915E-04   -0.22189E-04  1304   0.302E-04 0.420E-05
 gam= 0.301 trial= 0.575  step= 0.617 mean= 0.575
 gam= 0.331 g(H,U,f)=  0.960E-05 0.382E-06 0.322E-30 ort(H,U,f) =-0.139E-05-0.563E-07-0.134E-28
CGA:  11    -0.202695271790E+04   -0.96650E-05   -0.96954E-05  1304   0.998E-05-0.145E-05
 gam= 0.331 trial= 0.577  step= 0.601 mean= 0.577
 gam= 0.345 g(H,U,f)=  0.332E-05 0.122E-06 0.589E-28 ort(H,U,f) = 0.806E-06-0.443E-07 0.698E-28
CGA:  12    -0.202695272076E+04   -0.28646E-05   -0.28553E-05  1304   0.344E-05 0.762E-06
 gam= 0.345 trial= 0.578  step= 0.759 mean= 0.578
 gam= 0.568 g(H,U,f)=  0.188E-05 0.729E-07 0.301E-28 ort(H,U,f) =-0.591E-06-0.510E-08 0.575E-28
CGA:  13    -0.202695272211E+04   -0.13518E-05   -0.14061E-05  1304   0.195E-05-0.596E-06
 gam= 0.568 trial= 0.587  step= 0.422 mean= 0.587
 gam= 0.328 g(H,U,f)=  0.619E-06 0.221E-07 0.175E-30 ort(H,U,f) = 0.242E-06 0.337E-07 0.446E-29
CGA:  14    -0.202695272243E+04   -0.31856E-06   -0.34116E-06  1304   0.641E-06 0.275E-06
 gam= 0.328 trial= 0.579  step= 0.576 mean= 0.579
 gam= 0.365 g(H,U,f)=  0.217E-06 0.165E-07 0.473E-29 ort(H,U,f) = 0.715E-08 0.939E-08-0.891E-29
CGA:  15    -0.202695272264E+04   -0.21051E-06   -0.21039E-06  1304   0.234E-06 0.165E-07
 gam= 0.365 trial= 0.579  step= 1.471 mean= 0.579
 gam= 0.000 g(H,U,f)=  0.147E-05 0.627E-07 0.129E-30 ort(H,U,f) =-0.425E-06-0.196E-07 0.255E-30
CGA:  16    -0.202695272262E+04    0.22017E-07   -0.17618E-06  1304   0.153E-05-0.445E-06
 gam= 0.000 trial= 0.623  step= 0.229 mean= 0.623
 gam= 0.098 g(H,U,f)=  0.146E-06 0.461E-08 0.595E-30 ort(H,U,f) = 0.287E-06 0.141E-07 0.260E-30
CGA:  17    -0.202695272274E+04   -0.11531E-06   -0.17491E-06  1304   0.150E-06 0.301E-06
 gam= 0.098 trial= 0.604  step= 0.301 mean= 0.604
 gam= 0.392 g(H,U,f)=  0.578E-07 0.102E-08 0.852E-30 ort(H,U,f) = 0.578E-07-0.478E-09 0.748E-30
CGA:  18    -0.202695272275E+04   -0.18590E-07   -0.27064E-07  1304   0.588E-07 0.573E-07
 gam= 0.392 trial= 0.588  step= 0.871 mean= 0.588
 final diagonalization
  42 F= -.20484085E+04 E0= -.20484085E+04  d E =-.762210E-02
 curvature:  -3.92 expect dE=-0.115E+00 dE for cont linesearch -0.271E-03
 ZBRENT: interpolating
 opt :   0.5507  next Energy= -2048.408786 (dE=-0.792E-02)
 bond charge predicted
       N       E                     dE             d eps       ncg     rms          ort
 gam= 0.000 g(H,U,f)=  0.138E+00 0.135E-01 0.639E-24 ort(H,U,f) = 0.000E+00 0.000E+00 0.000E+00
SDA:   1    -0.202689632226E+04    0.56400E-01    0.00000E+00  1304   0.152E+00 0.000E+00
 gam= 0.000 trial= 0.603  step= 0.573 mean= 0.603
 gam= 0.276 g(H,U,f)=  0.392E-01 0.263E-02 0.299E-26 ort(H,U,f) = 0.256E-02-0.260E-02-0.891E-26
CGA:   2    -0.202693979849E+04   -0.43476E-01   -0.43476E-01  1304   0.418E-01-0.396E-04
 gam= 0.276 trial= 0.601  step= 0.577 mean= 0.601
 gam= 0.169 g(H,U,f)=  0.683E-02 0.249E-03 0.868E-26 ort(H,U,f) =-0.228E-03 0.256E-03 0.304E-26
CGA:   3    -0.202695185607E+04   -0.12058E-01   -0.12058E-01  1304   0.708E-02 0.280E-04
 gam= 0.169 trial= 0.600  step= 0.475 mean= 0.600
 gam= 0.230 g(H,U,f)=  0.151E-02 0.118E-03 0.140E-25 ort(H,U,f) =-0.938E-04 0.780E-04-0.160E-25
CGA:   4    -0.202695353878E+04   -0.16827E-02   -0.16817E-02  1304   0.163E-02-0.158E-04
 gam= 0.230 trial= 0.594  step= 0.504 mean= 0.594
 gam= 0.254 g(H,U,f)=  0.370E-03 0.439E-04 0.199E-25 ort(H,U,f) =-0.649E-04 0.748E-04 0.127E-25
CGA:   5    -0.202695394767E+04   -0.40888E-03   -0.40933E-03  1304   0.414E-03 0.988E-05
 gam= 0.254 trial= 0.589  step= 0.553 mean= 0.589
 gam= 0.431 g(H,U,f)=  0.161E-03 0.174E-04 0.216E-28 ort(H,U,f) =-0.411E-04 0.338E-04 0.670E-27
CGA:   6    -0.202695406286E+04   -0.11520E-03   -0.11506E-03  1304   0.178E-03-0.731E-05
 gam= 0.431 trial= 0.587  step= 0.542 mean= 0.587
 gam= 0.330 g(H,U,f)=  0.528E-04 0.615E-05 0.490E-29 ort(H,U,f) =-0.116E-04 0.163E-04 0.794E-28
CGA:   7    -0.202695411021E+04   -0.47344E-04   -0.47450E-04  1304   0.589E-04 0.466E-05
 gam= 0.330 trial= 0.585  step= 0.738 mean= 0.585
 gam= 0.329 g(H,U,f)=  0.186E-04 0.769E-06 0.794E-27 ort(H,U,f) =-0.652E-05 0.328E-05 0.828E-27
CGA:   8    -0.202695413227E+04   -0.22060E-04   -0.22307E-04  1304   0.194E-04-0.323E-05
 gam= 0.329 trial= 0.593  step= 0.585 mean= 0.593
 gam= 0.255 g(H,U,f)=  0.483E-05 0.110E-06 0.299E-28 ort(H,U,f) = 0.714E-06 0.381E-06-0.216E-27
CGA:   9    -0.202695413761E+04   -0.53474E-05   -0.53516E-05  1304   0.494E-05 0.109E-05
 gam= 0.255 trial= 0.592  step= 0.626 mean= 0.592
 gam= 0.571 g(H,U,f)=  0.275E-05 0.771E-07 0.138E-27 ort(H,U,f) =-0.104E-05-0.214E-07-0.590E-28
CGA:  10    -0.202695413923E+04   -0.16179E-05   -0.16360E-05  1304   0.283E-05-0.106E-05
 gam= 0.571 trial= 0.594  step= 0.361 mean= 0.594
 gam= 0.270 g(H,U,f)=  0.737E-06 0.258E-07 0.409E-28 ort(H,U,f) = 0.397E-06-0.539E-09 0.594E-28
CGA:  11    -0.202695413959E+04   -0.35411E-06   -0.40025E-06  1304   0.763E-06 0.396E-06
 gam= 0.270 trial= 0.582  step= 0.400 mean= 0.582
 gam= 0.482 g(H,U,f)=  0.353E-06 0.150E-07 0.539E-29 ort(H,U,f) = 0.163E-06-0.470E-09 0.216E-28
CGA:  12    -0.202695413975E+04   -0.15882E-06   -0.17377E-06  1304   0.368E-06 0.163E-06
 gam= 0.482 trial= 0.573  step= 0.896 mean= 0.573
 gam= 0.000 g(H,U,f)=  0.829E-06 0.157E-07 0.217E-30 ort(H,U,f) =-0.454E-06-0.436E-08-0.346E-29
CGA:  13    -0.202695413987E+04   -0.12598E-06   -0.20000E-06  1304   0.845E-06-0.458E-06
 gam= 0.000 trial= 0.589  step= 0.230 mean= 0.589
 gam= 0.174 g(H,U,f)=  0.143E-06 0.323E-08 0.184E-30 ort(H,U,f) = 0.261E-06 0.480E-08 0.201E-30
CGA:  14    -0.202695413992E+04   -0.49309E-07   -0.96994E-07  1304   0.147E-06 0.266E-06
 gam= 0.174 trial= 0.571  step= 0.263 mean= 0.571
 final diagonalization
  43 F= -.20484088E+04 E0= -.20484088E+04  d E =-.793057E-02
 curvature:  -4.33 expect dE=-0.836E-01 dE for cont linesearch -0.749E-08
 trial: gam= 0.71472 g(F)=  0.192E-01 g(S)=  0.510E-04 ort = 0.281E-04 (trialstep = 0.284E+00)
 search vector abs. value=  0.253E+00
 bond charge predicted
       N       E                     dE             d eps       ncg     rms          ort
 gam= 0.000 g(H,U,f)=  0.531E+00 0.536E-01 0.219E-22 ort(H,U,f) = 0.000E+00 0.000E+00 0.000E+00
SDA:   1    -0.202673390271E+04    0.22024E+00    0.00000E+00  1304   0.585E+00 0.000E+00
 gam= 0.000 trial= 0.556  step= 0.572 mean= 0.556
 gam= 0.277 g(H,U,f)=  0.151E+00 0.108E-01 0.695E-19 ort(H,U,f) = 0.109E-01-0.109E-01-0.980E-19
CGA:   2    -0.202690112516E+04   -0.16722E+00   -0.16722E+00  1304   0.162E+00 0.555E-04
 gam= 0.277 trial= 0.557  step= 0.581 mean= 0.557
 gam= 0.169 g(H,U,f)=  0.263E-01 0.979E-03 0.122E-23 ort(H,U,f) =-0.111E-02 0.107E-02-0.112E-22
CGA:   3    -0.202694815857E+04   -0.47033E-01   -0.47034E-01  1304   0.273E-01-0.354E-04
 gam= 0.169 trial= 0.558  step= 0.474 mean= 0.558
 gam= 0.227 g(H,U,f)=  0.575E-02 0.462E-03 0.104E-24 ort(H,U,f) =-0.305E-03 0.348E-03-0.119E-24
CGA:   4    -0.202695463061E+04   -0.64720E-02   -0.64738E-02  1304   0.621E-02 0.428E-04
 gam= 0.227 trial= 0.554  step= 0.515 mean= 0.554
 gam= 0.264 g(H,U,f)=  0.147E-02 0.174E-03 0.575E-23 ort(H,U,f) =-0.316E-03 0.297E-03 0.511E-24
CGA:   5    -0.202695623228E+04   -0.16017E-02   -0.16013E-02  1304   0.164E-02-0.194E-04
 gam= 0.264 trial= 0.552  step= 0.536 mean= 0.552
 gam= 0.407 g(H,U,f)=  0.598E-03 0.697E-04 0.146E-23 ort(H,U,f) =-0.124E-03 0.139E-03 0.386E-23
CGA:   6    -0.202695667025E+04   -0.43797E-03   -0.43809E-03  1304   0.667E-03 0.152E-04
 gam= 0.407 trial= 0.551  step= 0.580 mean= 0.551
 gam= 0.372 g(H,U,f)=  0.224E-03 0.242E-04 0.693E-25 ort(H,U,f) =-0.693E-04 0.604E-04 0.818E-24
CGA:   7    -0.202695686531E+04   -0.19506E-03   -0.19519E-03  1304   0.248E-03-0.890E-05
 gam= 0.372 trial= 0.552  step= 0.649 mean= 0.552
 gam= 0.272 g(H,U,f)=  0.645E-04 0.311E-05 0.144E-23 ort(H,U,f) =-0.722E-05 0.147E-04 0.191E-23
CGA:   8    -0.202695694507E+04   -0.79760E-04   -0.79400E-04  1304   0.676E-04 0.749E-05
 gam= 0.272 trial= 0.557  step= 0.653 mean= 0.557
 gam= 0.362 g(H,U,f)=  0.238E-04 0.609E-06 0.606E-25 ort(H,U,f) =-0.431E-05 0.163E-05 0.465E-24
CGA:   9    -0.202695696769E+04   -0.22617E-04   -0.22746E-04  1304   0.245E-04-0.269E-05
 gam= 0.362 trial= 0.562  step= 0.427 mean= 0.562
 gam= 0.273 g(H,U,f)=  0.654E-05 0.134E-06 0.115E-25 ort(H,U,f) = 0.173E-05 0.215E-06 0.104E-24
CGA:  10    -0.202695697257E+04   -0.48848E-05   -0.50159E-05  1304   0.667E-05 0.195E-05
 gam= 0.273 trial= 0.555  step= 0.653 mean= 0.555
 gam= 0.356 g(H,U,f)=  0.227E-05 0.103E-06 0.636E-25 ort(H,U,f) =-0.517E-06-0.131E-07 0.975E-25
CGA:  11    -0.202695697490E+04   -0.23247E-05   -0.23505E-05  1304   0.238E-05-0.530E-06
 gam= 0.356 trial= 0.560  step= 0.612 mean= 0.560
 gam= 0.329 g(H,U,f)=  0.752E-06 0.287E-07 0.615E-28 ort(H,U,f) = 0.214E-06-0.174E-07-0.309E-26
CGA:  12    -0.202695697557E+04   -0.67378E-06   -0.66878E-06  1304   0.780E-06 0.196E-06
 gam= 0.329 trial= 0.563  step= 0.723 mean= 0.563
 gam= 0.396 g(H,U,f)=  0.296E-06 0.137E-07 0.774E-28 ort(H,U,f) =-0.485E-07 0.408E-09-0.112E-26
CGA:  13    -0.202695697587E+04   -0.30183E-06   -0.30537E-06  1304   0.309E-06-0.481E-07
 gam= 0.396 trial= 0.571  step= 0.675 mean= 0.571
 gam= 0.440 g(H,U,f)=  0.131E-06 0.542E-08 0.163E-28 ort(H,U,f) =-0.327E-08 0.443E-08 0.168E-27
CGA:  14    -0.202695697597E+04   -0.98007E-07   -0.97930E-07  1304   0.136E-06 0.116E-08
 gam= 0.440 trial= 0.576  step= 0.499 mean= 0.576
 final diagonalization
  44 F= -.20484128E+04 E0= -.20484128E+04  d E =-.399281E-02
 trial-energy change:   -0.003993  1 .order   -0.004016   -0.005494   -0.002537
 step:   0.5525(harm=  0.5285)  dis= 0.01008  next Energy= -2048.413964 (dE=-0.517E-02)
 bond charge predicted
       N       E                     dE             d eps       ncg     rms          ort
 gam= 0.000 g(H,U,f)=  0.472E+00 0.477E-01 0.165E-20 ort(H,U,f) = 0.000E+00 0.000E+00 0.000E+00
SDA:   1    -0.202675865951E+04    0.19832E+00    0.00000E+00  1304   0.520E+00 0.000E+00
 gam= 0.000 trial= 0.572  step= 0.572 mean= 0.572
 gam= 0.277 g(H,U,f)=  0.134E+00 0.958E-02 0.216E-17 ort(H,U,f) = 0.975E-02-0.969E-02-0.304E-17
CGA:   2    -0.202690728950E+04   -0.14863E+00   -0.14863E+00  1304   0.144E+00 0.558E-04
 gam= 0.277 trial= 0.572  step= 0.581 mean= 0.572
 gam= 0.169 g(H,U,f)=  0.234E-01 0.870E-03 0.688E-22 ort(H,U,f) =-0.981E-03 0.947E-03-0.600E-21
CGA:   3    -0.202694909236E+04   -0.41803E-01   -0.41803E-01  1304   0.243E-01-0.338E-04
 gam= 0.169 trial= 0.573  step= 0.474 mean= 0.573
 gam= 0.227 g(H,U,f)=  0.511E-02 0.410E-03 0.630E-23 ort(H,U,f) =-0.268E-03 0.308E-03-0.630E-23
CGA:   4    -0.202695484293E+04   -0.57506E-02   -0.57525E-02  1304   0.552E-02 0.394E-04
 gam= 0.227 trial= 0.568  step= 0.515 mean= 0.568
 gam= 0.264 g(H,U,f)=  0.131E-02 0.155E-03 0.316E-21 ort(H,U,f) =-0.281E-03 0.263E-03 0.317E-22
CGA:   5    -0.202695626766E+04   -0.14247E-02   -0.14243E-02  1304   0.146E-02-0.180E-04
 gam= 0.264 trial= 0.565  step= 0.535 mean= 0.565
 gam= 0.406 g(H,U,f)=  0.531E-03 0.618E-04 0.780E-22 ort(H,U,f) =-0.109E-03 0.123E-03 0.204E-21
CGA:   6    -0.202695665696E+04   -0.38930E-03   -0.38951E-03  1304   0.593E-03 0.140E-04
 gam= 0.406 trial= 0.563  step= 0.580 mean= 0.563
 gam= 0.373 g(H,U,f)=  0.199E-03 0.215E-04 0.340E-23 ort(H,U,f) =-0.617E-04 0.535E-04 0.408E-22
CGA:   7    -0.202695683053E+04   -0.17357E-03   -0.17364E-03  1304   0.221E-03-0.821E-05
 gam= 0.373 trial= 0.564  step= 0.648 mean= 0.564
 gam= 0.272 g(H,U,f)=  0.574E-04 0.276E-05 0.703E-22 ort(H,U,f) =-0.619E-05 0.131E-04 0.936E-22
CGA:   8    -0.202695690135E+04   -0.70820E-04   -0.70532E-04  1304   0.601E-04 0.689E-05
 gam= 0.272 trial= 0.568  step= 0.654 mean= 0.568
 gam= 0.364 g(H,U,f)=  0.214E-04 0.542E-06 0.279E-23 ort(H,U,f) =-0.392E-05 0.144E-05 0.218E-22
CGA:   9    -0.202695692152E+04   -0.20175E-04   -0.20281E-04  1304   0.219E-04-0.248E-05
 gam= 0.364 trial= 0.573  step= 0.425 mean= 0.573
 gam= 0.272 g(H,U,f)=  0.583E-05 0.118E-06 0.522E-24 ort(H,U,f) = 0.161E-05 0.191E-06 0.483E-23
CGA:  10    -0.202695692585E+04   -0.43316E-05   -0.44643E-05  1304   0.595E-05 0.180E-05
 gam= 0.272 trial= 0.565  step= 0.654 mean= 0.565
 gam= 0.356 g(H,U,f)=  0.202E-05 0.925E-07 0.295E-23 ort(H,U,f) =-0.457E-06-0.120E-07 0.450E-23
CGA:  11    -0.202695692794E+04   -0.20851E-05   -0.21059E-05  1304   0.212E-05-0.469E-06
 gam= 0.356 trial= 0.570  step= 0.622 mean= 0.570
 gam= 0.332 g(H,U,f)=  0.675E-06 0.263E-07 0.956E-26 ort(H,U,f) = 0.176E-06-0.171E-07-0.264E-24
CGA:  12    -0.202695692855E+04   -0.61045E-06   -0.60629E-06  1304   0.702E-06 0.159E-06
 gam= 0.332 trial= 0.572  step= 0.703 mean= 0.572
 gam= 0.374 g(H,U,f)=  0.250E-06 0.121E-07 0.255E-26 ort(H,U,f) =-0.223E-07 0.749E-09-0.397E-25
CGA:  13    -0.202695692881E+04   -0.26394E-06   -0.26525E-06  1304   0.262E-06-0.216E-07
 gam= 0.374 trial= 0.579  step= 0.764 mean= 0.579
 gam= 0.542 g(H,U,f)=  0.136E-06 0.589E-08 0.142E-26 ort(H,U,f) =-0.296E-07 0.312E-08 0.976E-26
CGA:  14    -0.202695692891E+04   -0.94806E-07   -0.97124E-07  1304   0.142E-06-0.265E-07
 gam= 0.542 trial= 0.588  step= 0.398 mean= 0.588
 final diagonalization
  45 F= -.20484138E+04 E0= -.20484138E+04  d E =-.504319E-02
 curvature:  -3.43 expect dE=-0.565E-01 dE for cont linesearch -0.110E-04
 trial: gam= 0.90395 g(F)=  0.159E-01 g(S)=  0.578E-03 ort =-0.900E-03 (trialstep = 0.338E+00)
 search vector abs. value=  0.222E+00
 bond charge predicted
       N       E                     dE             d eps       ncg     rms          ort
 gam= 0.000 g(H,U,f)=  0.656E+00 0.668E-01 0.851E-20 ort(H,U,f) = 0.000E+00 0.000E+00 0.000E+00
SDA:   1    -0.202668755784E+04    0.26937E+00    0.00000E+00  1304   0.723E+00 0.000E+00
 gam= 0.000 trial= 0.579  step= 0.566 mean= 0.579
 gam= 0.273 g(H,U,f)=  0.184E+00 0.129E-01 0.319E-16 ort(H,U,f) = 0.133E-01-0.133E-01-0.254E-16
CGA:   2    -0.202689224187E+04   -0.20468E+00   -0.20468E+00  1304   0.197E+00 0.133E-04
 gam= 0.273 trial= 0.578  step= 0.589 mean= 0.578
 gam= 0.171 g(H,U,f)=  0.324E-01 0.125E-02 0.412E-18 ort(H,U,f) =-0.108E-02 0.107E-02 0.170E-18
CGA:   3    -0.202695029309E+04   -0.58051E-01   -0.58051E-01  1304   0.337E-01-0.704E-05
 gam= 0.171 trial= 0.579  step= 0.481 mean= 0.579
 gam= 0.214 g(H,U,f)=  0.662E-02 0.594E-03 0.941E-22 ort(H,U,f) =-0.317E-03 0.339E-03-0.965E-21
CGA:   4    -0.202695839662E+04   -0.81035E-02   -0.81047E-02  1304   0.721E-02 0.224E-04
 gam= 0.214 trial= 0.574  step= 0.551 mean= 0.574
 gam= 0.235 g(H,U,f)=  0.151E-02 0.186E-03 0.158E-23 ort(H,U,f) =-0.324E-03 0.317E-03 0.109E-22
CGA:   5    -0.202696038471E+04   -0.19881E-02   -0.19880E-02  1304   0.170E-02-0.692E-05
 gam= 0.235 trial= 0.573  step= 0.619 mean= 0.573
 gam= 0.421 g(H,U,f)=  0.648E-03 0.665E-04 0.292E-22 ort(H,U,f) =-0.127E-03 0.139E-03 0.146E-22
CGA:   6    -0.202696090946E+04   -0.52476E-03   -0.52448E-03  1304   0.715E-03 0.121E-04
 gam= 0.421 trial= 0.575  step= 0.557 mean= 0.575
 gam= 0.434 g(H,U,f)=  0.286E-03 0.246E-04 0.879E-26 ort(H,U,f) =-0.722E-04 0.613E-04-0.337E-24
CGA:   7    -0.202696111005E+04   -0.20059E-03   -0.20049E-03  1304   0.310E-03-0.109E-04
 gam= 0.434 trial= 0.574  step= 0.580 mean= 0.574
 gam= 0.258 g(H,U,f)=  0.766E-04 0.327E-05 0.385E-24 ort(H,U,f) =-0.867E-05 0.170E-04-0.116E-23
CGA:   8    -0.202696119870E+04   -0.88647E-04   -0.88622E-04  1304   0.799E-04 0.832E-05
 gam= 0.258 trial= 0.574  step= 0.680 mean= 0.574
 gam= 0.282 g(H,U,f)=  0.219E-04 0.564E-06 0.803E-26 ort(H,U,f) =-0.372E-05 0.127E-05-0.121E-25
CGA:   9    -0.202696122646E+04   -0.27762E-04   -0.27891E-04  1304   0.225E-04-0.245E-05
 gam= 0.282 trial= 0.580  step= 0.546 mean= 0.580
 gam= 0.302 g(H,U,f)=  0.659E-05 0.206E-06 0.728E-28 ort(H,U,f) = 0.118E-05-0.120E-08 0.379E-27
CGA:  10    -0.202696123239E+04   -0.59313E-05   -0.59512E-05  1304   0.680E-05 0.118E-05
 gam= 0.302 trial= 0.578  step= 0.665 mean= 0.578
 gam= 0.550 g(H,U,f)=  0.363E-05 0.109E-06 0.142E-25 ort(H,U,f) =-0.123E-05-0.502E-07-0.270E-26
CGA:  11    -0.202696123471E+04   -0.23221E-05   -0.23777E-05  1304   0.374E-05-0.128E-05
 gam= 0.550 trial= 0.582  step= 0.416 mean= 0.582
 gam= 0.303 g(H,U,f)=  0.109E-05 0.415E-07 0.225E-28 ort(H,U,f) = 0.531E-06 0.232E-08-0.418E-27
CGA:  12    -0.202696123530E+04   -0.58667E-06   -0.63108E-06  1304   0.113E-05 0.533E-06
 gam= 0.303 trial= 0.574  step= 0.550 mean= 0.574
 gam= 0.457 g(H,U,f)=  0.494E-06 0.230E-07 0.759E-26 ort(H,U,f) = 0.890E-07 0.579E-08-0.257E-26
CGA:  13    -0.202696123565E+04   -0.35459E-06   -0.35566E-06  1304   0.517E-06 0.948E-07
 gam= 0.457 trial= 0.573  step= 1.120 mean= 0.573
 gam= 0.000 g(H,U,f)=  0.229E-05 0.415E-07 0.340E-27 ort(H,U,f) =-0.827E-06-0.368E-08-0.136E-26
CGA:  14    -0.202696123574E+04   -0.86773E-07   -0.31406E-06  1304   0.233E-05-0.831E-06
 gam= 0.000 trial= 0.600  step= 0.214 mean= 0.600
 gam= 0.104 g(H,U,f)=  0.238E-06 0.282E-08 0.193E-27 ort(H,U,f) = 0.516E-06 0.713E-08-0.251E-27
CGA:  15    -0.202696123589E+04   -0.14801E-06   -0.24901E-06  1304   0.241E-06 0.523E-06
 gam= 0.104 trial= 0.581  step= 0.238 mean= 0.581
 gam= 0.408 g(H,U,f)=  0.966E-07 0.185E-08 0.439E-27 ort(H,U,f) = 0.116E-06 0.121E-08 0.252E-27
CGA:  16    -0.202696123590E+04   -0.15192E-07   -0.35169E-07  1304   0.985E-07 0.117E-06
 gam= 0.408 trial= 0.564  step= 0.479 mean= 0.564
 final diagonalization
  46 F= -.20484174E+04 E0= -.20484174E+04  d E =-.356814E-02
 trial-energy change:   -0.003568  1 .order   -0.003587   -0.005289   -0.001884
 step:   0.5352(harm=  0.5250)  dis= 0.00903  next Energy= -2048.417951 (dE=-0.411E-02)
 bond charge predicted
       N       E                     dE             d eps       ncg     rms          ort
 gam= 0.000 g(H,U,f)=  0.223E+00 0.227E-01 0.109E-21 ort(H,U,f) = 0.000E+00 0.000E+00 0.000E+00
SDA:   1    -0.202686905850E+04    0.92177E-01    0.00000E+00  1304   0.246E+00 0.000E+00
 gam= 0.000 trial= 0.559  step= 0.566 mean= 0.559
 gam= 0.273 g(H,U,f)=  0.627E-01 0.441E-02 0.222E-19 ort(H,U,f) = 0.454E-02-0.452E-02-0.185E-19
CGA:   2    -0.202693869154E+04   -0.69633E-01   -0.69633E-01  1304   0.671E-01 0.255E-04
 gam= 0.273 trial= 0.560  step= 0.589 mean= 0.560
 gam= 0.171 g(H,U,f)=  0.110E-01 0.425E-03 0.221E-20 ort(H,U,f) =-0.372E-03 0.364E-03 0.922E-21
CGA:   3    -0.202695844386E+04   -0.19752E-01   -0.19752E-01  1304   0.115E-01-0.809E-05
 gam= 0.171 trial= 0.561  step= 0.481 mean= 0.561
 gam= 0.214 g(H,U,f)=  0.225E-02 0.202E-03 0.225E-23 ort(H,U,f) =-0.103E-03 0.115E-03-0.238E-22
CGA:   4    -0.202696119901E+04   -0.27551E-02   -0.27557E-02  1304   0.245E-02 0.126E-04
 gam= 0.214 trial= 0.557  step= 0.552 mean= 0.557
 gam= 0.236 g(H,U,f)=  0.515E-03 0.632E-04 0.548E-25 ort(H,U,f) =-0.112E-03 0.108E-03 0.379E-24
CGA:   5    -0.202696187670E+04   -0.67769E-03   -0.67768E-03  1304   0.579E-03-0.441E-05
 gam= 0.236 trial= 0.557  step= 0.615 mean= 0.557
 gam= 0.416 g(H,U,f)=  0.218E-03 0.227E-04 0.114E-23 ort(H,U,f) =-0.402E-04 0.474E-04 0.593E-24
CGA:   6    -0.202696205449E+04   -0.17779E-03   -0.17758E-03  1304   0.241E-03 0.715E-05
 gam= 0.416 trial= 0.560  step= 0.567 mean= 0.560
 gam= 0.449 g(H,U,f)=  0.998E-04 0.843E-05 0.900E-27 ort(H,U,f) =-0.273E-04 0.206E-04-0.282E-25
CGA:   7    -0.202696212355E+04   -0.69066E-04   -0.69089E-04  1304   0.108E-03-0.670E-05
 gam= 0.449 trial= 0.560  step= 0.561 mean= 0.560
 gam= 0.246 g(H,U,f)=  0.255E-04 0.111E-05 0.200E-25 ort(H,U,f) =-0.110E-05 0.600E-05-0.641E-25
CGA:   8    -0.202696215307E+04   -0.29514E-04   -0.29512E-04  1304   0.267E-04 0.490E-05
 gam= 0.246 trial= 0.560  step= 0.699 mean= 0.560
 gam= 0.292 g(H,U,f)=  0.757E-05 0.210E-06 0.139E-26 ort(H,U,f) =-0.168E-05 0.404E-06-0.109E-26
CGA:   9    -0.202696216272E+04   -0.96493E-05   -0.97378E-05  1304   0.778E-05-0.127E-05
 gam= 0.292 trial= 0.567  step= 0.550 mean= 0.567
 gam= 0.275 g(H,U,f)=  0.207E-05 0.716E-07 0.569E-28 ort(H,U,f) = 0.554E-06-0.828E-08-0.217E-27
CGA:  10    -0.202696216475E+04   -0.20331E-05   -0.20377E-05  1304   0.214E-05 0.546E-06
 gam= 0.275 trial= 0.566  step= 0.783 mean= 0.566
 gam= 0.736 g(H,U,f)=  0.153E-05 0.490E-07 0.871E-27 ort(H,U,f) =-0.683E-06-0.290E-07-0.113E-28
CGA:  11    -0.202696216557E+04   -0.81793E-06   -0.89524E-06  1304   0.157E-05-0.712E-06
 gam= 0.736 trial= 0.577  step= 0.331 mean= 0.577
 gam= 0.401 g(H,U,f)=  0.610E-06 0.216E-07 0.891E-29 ort(H,U,f) = 0.263E-06 0.203E-08 0.859E-28
CGA:  12    -0.202696216571E+04   -0.14120E-06   -0.17380E-06  1304   0.631E-06 0.265E-06
 gam= 0.401 trial= 0.565  step= 0.323 mean= 0.565
 gam= 0.439 g(H,U,f)=  0.267E-06 0.100E-07 0.296E-27 ort(H,U,f) = 0.164E-06 0.386E-08-0.257E-27
CGA:  13    -0.202696216581E+04   -0.98866E-07   -0.11926E-06  1304   0.277E-06 0.168E-06
 gam= 0.439 trial= 0.553  step= 0.757 mean= 0.553
 gam= 0.000 g(H,U,f)=  0.327E-06 0.102E-07 0.351E-27 ort(H,U,f) =-0.266E-06 0.612E-09 0.204E-27
CGA:  14    -0.202696216591E+04   -0.10552E-06   -0.13283E-06  1304   0.338E-06-0.265E-06
 gam= 0.000 trial= 0.563  step= 0.304 mean= 0.563
 gam= 0.182 g(H,U,f)=  0.592E-07 0.221E-08 0.113E-27 ort(H,U,f) = 0.117E-06 0.273E-08 0.201E-27
CGA:  15    -0.202696216595E+04   -0.35754E-07   -0.51246E-07  1304   0.614E-07 0.119E-06
 gam= 0.182 trial= 0.550  step= 0.427 mean= 0.550
 final diagonalization
  47 F= -.20484179E+04 E0= -.20484179E+04  d E =-.407333E-02
 curvature:  -3.71 expect dE=-0.408E-01 dE for cont linesearch -0.210E-05
 trial: gam= 0.59905 g(F)=  0.104E-01 g(S)=  0.610E-03 ort =-0.354E-03 (trialstep = 0.377E+00)
 search vector abs. value=  0.902E-01
 bond charge predicted
       N       E                     dE             d eps       ncg     rms          ort
 gam= 0.000 g(H,U,f)=  0.338E+00 0.333E-01 0.516E-22 ort(H,U,f) = 0.000E+00 0.000E+00 0.000E+00
SDA:   1    -0.202682725612E+04    0.13491E+00    0.00000E+00  1304   0.371E+00 0.000E+00
 gam= 0.000 trial= 0.544  step= 0.570 mean= 0.544
 gam= 0.271 g(H,U,f)=  0.943E-01 0.609E-02 0.319E-19 ort(H,U,f) = 0.628E-02-0.630E-02-0.249E-19
CGA:   2    -0.202693292704E+04   -0.10567E+00   -0.10567E+00  1304   0.100E+00-0.130E-04
 gam= 0.271 trial= 0.545  step= 0.593 mean= 0.545
 gam= 0.160 g(H,U,f)=  0.156E-01 0.536E-03 0.937E-21 ort(H,U,f) =-0.589E-03 0.623E-03 0.617E-21
CGA:   3    -0.202696271268E+04   -0.29786E-01   -0.29785E-01  1304   0.161E-01 0.346E-04
 gam= 0.160 trial= 0.547  step= 0.489 mean= 0.547
 gam= 0.220 g(H,U,f)=  0.324E-02 0.296E-03 0.100E-23 ort(H,U,f) =-0.215E-03 0.197E-03-0.109E-22
CGA:   4    -0.202696665718E+04   -0.39445E-02   -0.39440E-02  1304   0.354E-02-0.174E-04
 gam= 0.220 trial= 0.545  step= 0.542 mean= 0.545
 gam= 0.231 g(H,U,f)=  0.723E-03 0.952E-04 0.115E-23 ort(H,U,f) =-0.148E-03 0.164E-03 0.140E-23
CGA:   5    -0.202696761424E+04   -0.95705E-03   -0.95708E-03  1304   0.818E-03 0.163E-04
 gam= 0.231 trial= 0.544  step= 0.649 mean= 0.544
 gam= 0.420 g(H,U,f)=  0.312E-03 0.315E-04 0.436E-24 ort(H,U,f) =-0.798E-04 0.699E-04 0.793E-24
CGA:   6    -0.202696788065E+04   -0.26642E-03   -0.26693E-03  1304   0.344E-03-0.987E-05
 gam= 0.420 trial= 0.550  step= 0.547 mean= 0.550
 gam= 0.423 g(H,U,f)=  0.133E-03 0.123E-04 0.360E-25 ort(H,U,f) =-0.237E-04 0.320E-04 0.197E-24
CGA:   7    -0.202696797357E+04   -0.92913E-04   -0.92923E-04  1304   0.145E-03 0.827E-05
 gam= 0.423 trial= 0.550  step= 0.602 mean= 0.550
 gam= 0.309 g(H,U,f)=  0.433E-04 0.163E-05 0.341E-26 ort(H,U,f) =-0.112E-04 0.757E-05-0.345E-25
CGA:   8    -0.202696801833E+04   -0.44763E-04   -0.44860E-04  1304   0.449E-04-0.365E-05
 gam= 0.309 trial= 0.552  step= 0.607 mean= 0.552
 gam= 0.237 g(H,U,f)=  0.104E-04 0.229E-06 0.196E-26 ort(H,U,f) = 0.745E-06 0.884E-06-0.561E-26
CGA:   9    -0.202696803166E+04   -0.13336E-04   -0.13291E-04  1304   0.106E-04 0.163E-05
 gam= 0.237 trial= 0.555  step= 0.675 mean= 0.555
 gam= 0.481 g(H,U,f)=  0.495E-05 0.161E-06 0.153E-26 ort(H,U,f) =-0.150E-05-0.830E-07-0.560E-27
CGA:  10    -0.202696803529E+04   -0.36249E-05   -0.37195E-05  1304   0.512E-05-0.158E-05
 gam= 0.481 trial= 0.561  step= 0.393 mean= 0.561
 gam= 0.274 g(H,U,f)=  0.135E-05 0.462E-07 0.759E-28 ort(H,U,f) = 0.709E-06-0.850E-08 0.287E-27
CGA:  11    -0.202696803609E+04   -0.79793E-06   -0.85663E-06  1304   0.140E-05 0.701E-06
 gam= 0.274 trial= 0.553  step= 0.566 mean= 0.553
 gam= 0.449 g(H,U,f)=  0.593E-06 0.361E-07 0.891E-27 ort(H,U,f) = 0.991E-07-0.423E-08-0.546E-27
CGA:  12    -0.202696803654E+04   -0.45079E-06   -0.45016E-06  1304   0.629E-06 0.949E-07
 gam= 0.449 trial= 0.553  step= 1.017 mean= 0.553
 gam= 0.000 g(H,U,f)=  0.191E-05 0.535E-07 0.902E-27 ort(H,U,f) =-0.727E-06-0.148E-07-0.697E-27
CGA:  13    -0.202696803671E+04   -0.16933E-06   -0.34137E-06  1304   0.196E-05-0.742E-06
 gam= 0.000 trial= 0.576  step= 0.213 mean= 0.576
 gam= 0.112 g(H,U,f)=  0.214E-06 0.627E-08 0.148E-27 ort(H,U,f) = 0.453E-06 0.137E-07 0.368E-27
CGA:  14    -0.202696803683E+04   -0.12395E-06   -0.20886E-06  1304   0.220E-06 0.467E-06
 gam= 0.112 trial= 0.558  step= 0.245 mean= 0.558
 gam= 0.418 g(H,U,f)=  0.888E-07 0.333E-08 0.535E-29 ort(H,U,f) = 0.103E-06 0.309E-08 0.360E-28
CGA:  15    -0.202696803685E+04   -0.16800E-07   -0.33407E-07  1304   0.921E-07 0.106E-06
 gam= 0.418 trial= 0.543  step= 0.557 mean= 0.543
 final diagonalization
  48 F= -.20484205E+04 E0= -.20484205E+04  d E =-.254755E-02
 trial-energy change:   -0.002548  1 .order   -0.002538   -0.004075   -0.001001
 step:   0.4973(harm=  0.5003)  dis= 0.00521  next Energy= -2048.420617 (dE=-0.271E-02)
 bond charge predicted
       N       E                     dE             d eps       ncg     rms          ort
 gam= 0.000 g(H,U,f)=  0.340E-01 0.336E-02 0.337E-23 ort(H,U,f) = 0.000E+00 0.000E+00 0.000E+00
SDA:   1    -0.202695507110E+04    0.12966E-01    0.00000E+00  1304   0.374E-01 0.000E+00
 gam= 0.000 trial= 0.543  step= 0.570 mean= 0.543
 gam= 0.271 g(H,U,f)=  0.951E-02 0.615E-03 0.398E-22 ort(H,U,f) = 0.633E-03-0.637E-03-0.313E-22
CGA:   2    -0.202696572002E+04   -0.10649E-01   -0.10649E-01  1304   0.101E-01-0.380E-05
 gam= 0.271 trial= 0.545  step= 0.593 mean= 0.545
 gam= 0.160 g(H,U,f)=  0.157E-02 0.541E-04 0.163E-22 ort(H,U,f) =-0.516E-04 0.626E-04 0.107E-22
CGA:   3    -0.202696872043E+04   -0.30004E-02   -0.30001E-02  1304   0.162E-02 0.111E-04
 gam= 0.160 trial= 0.547  step= 0.491 mean= 0.547
 gam= 0.221 g(H,U,f)=  0.329E-03 0.300E-04 0.909E-25 ort(H,U,f) =-0.255E-04 0.196E-04-0.947E-24
CGA:   4    -0.202696911928E+04   -0.39885E-03   -0.39868E-03  1304   0.359E-03-0.593E-05
 gam= 0.221 trial= 0.544  step= 0.535 mean= 0.544
 gam= 0.226 g(H,U,f)=  0.715E-04 0.954E-05 0.101E-24 ort(H,U,f) =-0.116E-04 0.166E-04 0.126E-24
CGA:   5    -0.202696921483E+04   -0.95557E-04   -0.95580E-04  1304   0.810E-04 0.505E-05
 gam= 0.226 trial= 0.544  step= 0.672 mean= 0.544
 gam= 0.449 g(H,U,f)=  0.333E-04 0.310E-05 0.553E-25 ort(H,U,f) =-0.100E-04 0.684E-05 0.939E-25
CGA:   6    -0.202696924225E+04   -0.27414E-04   -0.27617E-04  1304   0.364E-04-0.317E-05
 gam= 0.449 trial= 0.550  step= 0.510 mean= 0.550
 gam= 0.376 g(H,U,f)=  0.125E-04 0.120E-05 0.663E-26 ort(H,U,f) =-0.856E-06 0.334E-05 0.330E-25
CGA:   7    -0.202696925112E+04   -0.88785E-05   -0.89281E-05  1304   0.137E-04 0.249E-05
 gam= 0.376 trial= 0.548  step= 0.653 mean= 0.548
 gam= 0.353 g(H,U,f)=  0.466E-05 0.170E-06 0.107E-26 ort(H,U,f) =-0.168E-05 0.702E-06-0.762E-26
CGA:   8    -0.202696925585E+04   -0.47238E-05   -0.47751E-05  1304   0.483E-05-0.980E-06
 gam= 0.353 trial= 0.553  step= 0.580 mean= 0.553
 gam= 0.213 g(H,U,f)=  0.101E-05 0.195E-07 0.684E-27 ort(H,U,f) = 0.299E-06 0.849E-07-0.132E-26
CGA:   9    -0.202696925716E+04   -0.13071E-05   -0.13021E-05  1304   0.103E-05 0.384E-06
 gam= 0.213 trial= 0.555  step= 0.848 mean= 0.555
 gam= 0.686 g(H,U,f)=  0.684E-06 0.231E-07 0.126E-26 ort(H,U,f) =-0.393E-06-0.184E-07-0.567E-27
CGA:  10    -0.202696925757E+04   -0.41114E-06   -0.47167E-06  1304   0.707E-06-0.412E-06
 gam= 0.686 trial= 0.569  step= 0.314 mean= 0.569
 gam= 0.462 g(H,U,f)=  0.317E-06 0.926E-08 0.292E-27 ort(H,U,f) = 0.135E-06-0.301E-08 0.424E-27
CGA:  11    -0.202696925762E+04   -0.49549E-07   -0.66560E-07  1304   0.327E-06 0.132E-06
 gam= 0.462 trial= 0.557  step= 0.294 mean= 0.557
 final diagonalization
  49 F= -.20484206E+04 E0= -.20484206E+04  d E =-.271448E-02
 curvature:  -2.09 expect dE=-0.163E-01 dE for cont linesearch -0.998E-07
 trial: gam= 0.69882 g(F)=  0.777E-02 g(S)=  0.400E-04 ort = 0.657E-04 (trialstep = 0.401E+00)
 search vector abs. value=  0.519E-01
 bond charge predicted
       N       E                     dE             d eps       ncg     rms          ort
 gam= 0.000 g(H,U,f)=  0.209E+00 0.209E-01 0.262E-23 ort(H,U,f) = 0.000E+00 0.000E+00 0.000E+00
SDA:   1    -0.202688668071E+04    0.82577E-01    0.00000E+00  1304   0.230E+00 0.000E+00
 gam= 0.000 trial= 0.544  step= 0.563 mean= 0.544
 gam= 0.273 g(H,U,f)=  0.590E-01 0.385E-02 0.445E-22 ort(H,U,f) = 0.387E-02-0.390E-02-0.242E-22
CGA:   2    -0.202695143904E+04   -0.64758E-01   -0.64758E-01  1304   0.629E-01-0.237E-04
 gam= 0.273 trial= 0.544  step= 0.588 mean= 0.544
 gam= 0.168 g(H,U,f)=  0.101E-01 0.413E-03 0.220E-21 ort(H,U,f) =-0.370E-03 0.397E-03-0.609E-22
CGA:   3    -0.202696992814E+04   -0.18489E-01   -0.18489E-01  1304   0.106E-01 0.269E-04
 gam= 0.168 trial= 0.547  step= 0.478 mean= 0.547
 gam= 0.225 g(H,U,f)=  0.219E-02 0.184E-03 0.332E-23 ort(H,U,f) =-0.145E-03 0.119E-03-0.103E-22
CGA:   4    -0.202697244960E+04   -0.25215E-02   -0.25206E-02  1304   0.238E-02-0.256E-04
 gam= 0.225 trial= 0.543  step= 0.524 mean= 0.543
 gam= 0.242 g(H,U,f)=  0.511E-03 0.657E-04 0.122E-26 ort(H,U,f) =-0.959E-04 0.114E-03 0.220E-25
CGA:   5    -0.202697307104E+04   -0.62144E-03   -0.62161E-03  1304   0.577E-03 0.176E-04
 gam= 0.242 trial= 0.542  step= 0.582 mean= 0.542
 gam= 0.454 g(H,U,f)=  0.236E-03 0.253E-04 0.176E-24 ort(H,U,f) =-0.601E-04 0.500E-04-0.878E-25
CGA:   6    -0.202697323994E+04   -0.16890E-03   -0.16910E-03  1304   0.262E-03-0.101E-04
 gam= 0.454 trial= 0.544  step= 0.528 mean= 0.544
 gam= 0.346 g(H,U,f)=  0.817E-04 0.880E-05 0.531E-26 ort(H,U,f) =-0.183E-04 0.241E-04-0.233E-25
CGA:   7    -0.202697330778E+04   -0.67846E-04   -0.67892E-04  1304   0.905E-04 0.572E-05
 gam= 0.346 trial= 0.543  step= 0.696 mean= 0.543
 gam= 0.295 g(H,U,f)=  0.256E-04 0.110E-05 0.155E-26 ort(H,U,f) =-0.736E-05 0.515E-05-0.162E-26
CGA:   8    -0.202697333978E+04   -0.31996E-04   -0.32164E-04  1304   0.267E-04-0.221E-05
 gam= 0.295 trial= 0.551  step= 0.630 mean= 0.551
 gam= 0.243 g(H,U,f)=  0.632E-05 0.168E-06 0.298E-27 ort(H,U,f) = 0.643E-06 0.516E-06-0.488E-27
CGA:   9    -0.202697334802E+04   -0.82413E-05   -0.81958E-05  1304   0.649E-05 0.116E-05
 gam= 0.243 trial= 0.555  step= 0.676 mean= 0.555
 gam= 0.604 g(H,U,f)=  0.381E-05 0.112E-06 0.274E-26 ort(H,U,f) =-0.133E-05-0.444E-07 0.546E-27
CGA:  10    -0.202697335023E+04   -0.22055E-05   -0.22883E-05  1304   0.392E-05-0.138E-05
 gam= 0.604 trial= 0.561  step= 0.345 mean= 0.561
 gam= 0.270 g(H,U,f)=  0.102E-05 0.378E-07 0.201E-26 ort(H,U,f) = 0.608E-06-0.242E-08 0.267E-26
CGA:  11    -0.202697335070E+04   -0.46898E-06   -0.53416E-06  1304   0.106E-05 0.605E-06
 gam= 0.270 trial= 0.550  step= 0.364 mean= 0.550
 gam= 0.487 g(H,U,f)=  0.495E-06 0.218E-07 0.402E-27 ort(H,U,f) = 0.283E-06 0.157E-09 0.124E-26
CGA:  12    -0.202697335089E+04   -0.19686E-06   -0.22314E-06  1304   0.517E-06 0.283E-06
 gam= 0.487 trial= 0.541  step= 0.740 mean= 0.541
 gam= 0.000 g(H,U,f)=  0.594E-06 0.199E-07 0.658E-28 ort(H,U,f) =-0.384E-06-0.929E-09-0.420E-27
CGA:  13    -0.202697335110E+04   -0.20379E-06   -0.24212E-06  1304   0.613E-06-0.385E-06
 gam= 0.000 trial= 0.551  step= 0.277 mean= 0.551
 gam= 0.187 g(H,U,f)=  0.110E-06 0.443E-08 0.107E-27 ort(H,U,f) = 0.185E-06 0.600E-08-0.851E-28
CGA:  14    -0.202697335116E+04   -0.58833E-07   -0.85006E-07  1304   0.115E-06 0.191E-06
 gam= 0.187 trial= 0.537  step= 0.471 mean= 0.537
 final diagonalization
  50 F= -.20484227E+04 E0= -.20484227E+04  d E =-.211614E-02
 trial-energy change:   -0.002116  1 .order   -0.002113   -0.003153   -0.001074
 step:   0.6086(harm=  0.6086)  dis= 0.00459  next Energy= -2048.423016 (dE=-0.239E-02)
 bond charge predicted
       N       E                     dE             d eps       ncg     rms          ort
 gam= 0.000 g(H,U,f)=  0.558E-01 0.558E-02 0.854E-24 ort(H,U,f) = 0.000E+00 0.000E+00 0.000E+00
SDA:   1    -0.202695155327E+04    0.21798E-01    0.00000E+00  1304   0.613E-01 0.000E+00
 gam= 0.000 trial= 0.534  step= 0.563 mean= 0.534
 gam= 0.273 g(H,U,f)=  0.157E-01 0.103E-02 0.644E-23 ort(H,U,f) = 0.103E-02-0.104E-02-0.362E-23
CGA:   2    -0.202696881538E+04   -0.17262E-01   -0.17262E-01  1304   0.168E-01-0.145E-04
 gam= 0.273 trial= 0.535  step= 0.588 mean= 0.535
 gam= 0.168 g(H,U,f)=  0.270E-02 0.110E-03 0.443E-22 ort(H,U,f) =-0.918E-04 0.106E-03-0.122E-22
CGA:   3    -0.202697374232E+04   -0.49269E-02   -0.49266E-02  1304   0.281E-02 0.144E-04
 gam= 0.168 trial= 0.538  step= 0.479 mean= 0.538
 gam= 0.227 g(H,U,f)=  0.587E-03 0.491E-04 0.170E-23 ort(H,U,f) =-0.451E-04 0.314E-04-0.522E-23
CGA:   4    -0.202697441556E+04   -0.67325E-03   -0.67284E-03  1304   0.637E-03-0.137E-04
 gam= 0.227 trial= 0.535  step= 0.519 mean= 0.535
 gam= 0.238 g(H,U,f)=  0.134E-03 0.174E-04 0.929E-27 ort(H,U,f) =-0.212E-04 0.303E-04 0.131E-25
CGA:   5    -0.202697457996E+04   -0.16440E-03   -0.16447E-03  1304   0.152E-03 0.915E-05
 gam= 0.238 trial= 0.534  step= 0.596 mean= 0.534
 gam= 0.475 g(H,U,f)=  0.654E-04 0.668E-05 0.842E-25 ort(H,U,f) =-0.184E-04 0.131E-04-0.415E-25
CGA:   6    -0.202697462567E+04   -0.45708E-04   -0.45873E-04  1304   0.721E-04-0.532E-05
 gam= 0.475 trial= 0.537  step= 0.509 mean= 0.537
 gam= 0.327 g(H,U,f)=  0.213E-04 0.227E-05 0.913E-27 ort(H,U,f) =-0.361E-05 0.656E-05-0.660E-26
CGA:   7    -0.202697464334E+04   -0.17670E-04   -0.17711E-04  1304   0.236E-04 0.295E-05
 gam= 0.327 trial= 0.536  step= 0.716 mean= 0.536
 gam= 0.309 g(H,U,f)=  0.699E-05 0.295E-06 0.205E-26 ort(H,U,f) =-0.234E-05 0.135E-05-0.204E-26
CGA:   8    -0.202697465203E+04   -0.86869E-05   -0.87766E-05  1304   0.728E-05-0.997E-06
 gam= 0.309 trial= 0.545  step= 0.643 mean= 0.545
 gam= 0.210 g(H,U,f)=  0.149E-05 0.413E-07 0.254E-27 ort(H,U,f) = 0.246E-06 0.106E-06-0.518E-27
CGA:   9    -0.202697465429E+04   -0.22588E-05   -0.22415E-05  1304   0.153E-05 0.352E-06
 gam= 0.210 trial= 0.550  step= 0.829 mean= 0.550
 gam= 0.622 g(H,U,f)=  0.907E-06 0.461E-07 0.177E-26 ort(H,U,f) =-0.435E-06-0.267E-07 0.390E-27
CGA:  10    -0.202697465489E+04   -0.60095E-06   -0.66523E-06  1304   0.953E-06-0.462E-06
 gam= 0.622 trial= 0.564  step= 0.323 mean= 0.564
 gam= 0.379 g(H,U,f)=  0.348E-06 0.132E-07 0.729E-27 ort(H,U,f) = 0.205E-06 0.329E-08 0.131E-26
CGA:  11    -0.202697465497E+04   -0.82007E-07   -0.10727E-06  1304   0.361E-06 0.208E-06
 gam= 0.379 trial= 0.552  step= 0.308 mean= 0.552
 final diagonalization
  51 F= -.20484230E+04 E0= -.20484230E+04  d E =-.239987E-02
 curvature:  -2.01 expect dE=-0.158E-01 dE for cont linesearch -0.171E-09
 trial: gam= 1.03233 g(F)=  0.750E-02 g(S)=  0.345E-03 ort =-0.210E-05 (trialstep = 0.364E+00)
 search vector abs. value=  0.632E-01
 bond charge predicted
       N       E                     dE             d eps       ncg     rms          ort
 gam= 0.000 g(H,U,f)=  0.215E+00 0.198E-01 0.243E-23 ort(H,U,f) = 0.000E+00 0.000E+00 0.000E+00
SDA:   1    -0.202688739103E+04    0.87264E-01    0.00000E+00  1304   0.234E+00 0.000E+00
 gam= 0.000 trial= 0.540  step= 0.574 mean= 0.540
 gam= 0.273 g(H,U,f)=  0.602E-01 0.386E-02 0.215E-21 ort(H,U,f) = 0.385E-02-0.384E-02-0.254E-22
CGA:   2    -0.202695464637E+04   -0.67255E-01   -0.67255E-01  1304   0.640E-01 0.949E-05
 gam= 0.273 trial= 0.541  step= 0.586 mean= 0.541
 gam= 0.153 g(H,U,f)=  0.947E-02 0.332E-03 0.174E-21 ort(H,U,f) =-0.417E-03 0.408E-03-0.263E-21
CGA:   3    -0.202697339225E+04   -0.18746E-01   -0.18746E-01  1304   0.980E-02-0.890E-05
 gam= 0.153 trial= 0.543  step= 0.501 mean= 0.543
 gam= 0.214 g(H,U,f)=  0.191E-02 0.185E-03 0.410E-22 ort(H,U,f) =-0.124E-03 0.125E-03-0.350E-22
CGA:   4    -0.202697584659E+04   -0.24543E-02   -0.24544E-02  1304   0.209E-02 0.130E-05
 gam= 0.214 trial= 0.541  step= 0.552 mean= 0.541
 gam= 0.220 g(H,U,f)=  0.402E-03 0.583E-04 0.806E-23 ort(H,U,f) =-0.933E-04 0.970E-04 0.235E-22
CGA:   5    -0.202697642443E+04   -0.57784E-03   -0.57782E-03  1304   0.461E-03 0.369E-05
 gam= 0.220 trial= 0.542  step= 0.715 mean= 0.542
 gam= 0.341 g(H,U,f)=  0.139E-03 0.183E-04 0.104E-23 ort(H,U,f) =-0.442E-04 0.416E-04 0.656E-23
CGA:   6    -0.202697658923E+04   -0.16480E-03   -0.16503E-03  1304   0.157E-03-0.259E-05
 gam= 0.341 trial= 0.551  step= 0.751 mean= 0.551
 gam= 0.353 g(H,U,f)=  0.517E-04 0.370E-05 0.265E-23 ort(H,U,f) =-0.120E-04 0.130E-04 0.606E-23
CGA:   7    -0.202697664788E+04   -0.58650E-04   -0.58553E-04  1304   0.554E-04 0.968E-06
 gam= 0.353 trial= 0.561  step= 0.695 mean= 0.561
 gam= 0.275 g(H,U,f)=  0.147E-04 0.557E-06 0.129E-24 ort(H,U,f) =-0.117E-05 0.179E-05 0.122E-23
CGA:   8    -0.202697666728E+04   -0.19398E-04   -0.19356E-04  1304   0.152E-04 0.622E-06
 gam= 0.275 trial= 0.567  step= 0.686 mean= 0.567
 gam= 0.255 g(H,U,f)=  0.372E-05 0.168E-06 0.294E-26 ort(H,U,f) =-0.328E-06-0.168E-07-0.750E-25
CGA:   9    -0.202697667254E+04   -0.52639E-05   -0.52843E-05  1304   0.388E-05-0.345E-06
 gam= 0.255 trial= 0.573  step= 0.665 mean= 0.573
 gam= 0.258 g(H,U,f)=  0.946E-06 0.562E-07 0.448E-26 ort(H,U,f) = 0.324E-06-0.716E-07-0.205E-25
CGA:  10    -0.202697667382E+04   -0.12730E-05   -0.12614E-05  1304   0.100E-05 0.253E-06
 gam= 0.258 trial= 0.578  step= 0.982 mean= 0.578
 gam= 0.685 g(H,U,f)=  0.659E-06 0.280E-07 0.141E-26 ort(H,U,f) =-0.242E-06-0.120E-07 0.514E-27
CGA:  11    -0.202697667429E+04   -0.47284E-06   -0.52422E-06  1304   0.687E-06-0.254E-06
 gam= 0.685 trial= 0.598  step= 0.402 mean= 0.598
 gam= 0.391 g(H,U,f)=  0.258E-06 0.102E-07 0.272E-27 ort(H,U,f) = 0.153E-06 0.107E-07-0.776E-27
CGA:  12    -0.202697667438E+04   -0.86540E-07   -0.10294E-06  1304   0.269E-06 0.164E-06
 gam= 0.391 trial= 0.588  step= 0.451 mean= 0.588
 final diagonalization
  52 F= -.20484251E+04 E0= -.20484251E+04  d E =-.208121E-02
 trial-energy change:   -0.002081  1 .order   -0.002088   -0.002856   -0.001319
 step:   0.6922(harm=  0.6764)  dis= 0.00541  next Energy= -2048.425696 (dE=-0.267E-02)
 bond charge predicted
       N       E                     dE             d eps       ncg     rms          ort
 gam= 0.000 g(H,U,f)=  0.175E+00 0.161E-01 0.304E-22 ort(H,U,f) = 0.000E+00 0.000E+00 0.000E+00
SDA:   1    -0.202690454757E+04    0.72127E-01    0.00000E+00  1304   0.191E+00 0.000E+00
 gam= 0.000 trial= 0.581  step= 0.574 mean= 0.581
 gam= 0.273 g(H,U,f)=  0.489E-01 0.315E-02 0.199E-20 ort(H,U,f) = 0.313E-02-0.313E-02-0.275E-21
CGA:   2    -0.202695925523E+04   -0.54708E-01   -0.54708E-01  1304   0.521E-01 0.900E-05
 gam= 0.273 trial= 0.581  step= 0.586 mean= 0.581
 gam= 0.153 g(H,U,f)=  0.770E-02 0.270E-03 0.145E-20 ort(H,U,f) =-0.340E-03 0.332E-03-0.224E-20
CGA:   3    -0.202697450493E+04   -0.15250E-01   -0.15250E-01  1304   0.797E-02-0.795E-05
 gam= 0.153 trial= 0.581  step= 0.501 mean= 0.581
 gam= 0.214 g(H,U,f)=  0.155E-02 0.151E-03 0.412E-21 ort(H,U,f) =-0.101E-03 0.102E-03-0.344E-21
CGA:   4    -0.202697650132E+04   -0.19964E-02   -0.19964E-02  1304   0.170E-02 0.105E-05
 gam= 0.214 trial= 0.577  step= 0.552 mean= 0.577
 gam= 0.220 g(H,U,f)=  0.328E-03 0.474E-04 0.749E-22 ort(H,U,f) =-0.758E-04 0.789E-04 0.218E-21
CGA:   5    -0.202697697168E+04   -0.47036E-03   -0.47040E-03  1304   0.375E-03 0.310E-05
 gam= 0.220 trial= 0.576  step= 0.715 mean= 0.576
 gam= 0.341 g(H,U,f)=  0.113E-03 0.149E-04 0.939E-23 ort(H,U,f) =-0.360E-04 0.338E-04 0.582E-22
CGA:   6    -0.202697710577E+04   -0.13410E-03   -0.13425E-03  1304   0.128E-03-0.220E-05
 gam= 0.341 trial= 0.583  step= 0.749 mean= 0.583
 gam= 0.354 g(H,U,f)=  0.423E-04 0.303E-05 0.224E-22 ort(H,U,f) =-0.981E-05 0.106E-04 0.517E-22
CGA:   7    -0.202697715345E+04   -0.47676E-04   -0.47611E-04  1304   0.453E-04 0.791E-06
 gam= 0.354 trial= 0.591  step= 0.692 mean= 0.591
 gam= 0.275 g(H,U,f)=  0.120E-04 0.457E-06 0.106E-23 ort(H,U,f) =-0.926E-06 0.147E-05 0.101E-22
CGA:   8    -0.202697716924E+04   -0.15794E-04   -0.15766E-04  1304   0.125E-04 0.547E-06
 gam= 0.275 trial= 0.596  step= 0.685 mean= 0.596
 gam= 0.259 g(H,U,f)=  0.310E-05 0.135E-06 0.106E-25 ort(H,U,f) =-0.297E-06-0.757E-08-0.405E-24
CGA:   9    -0.202697717356E+04   -0.43130E-05   -0.43268E-05  1304   0.323E-05-0.305E-06
 gam= 0.259 trial= 0.601  step= 0.651 mean= 0.601
 gam= 0.267 g(H,U,f)=  0.821E-06 0.431E-07 0.555E-25 ort(H,U,f) = 0.273E-06-0.548E-07-0.222E-24
CGA:  10    -0.202697717459E+04   -0.10317E-05   -0.10261E-05  1304   0.864E-06 0.218E-06
 gam= 0.267 trial= 0.603  step= 0.899 mean= 0.603
 gam= 0.705 g(H,U,f)=  0.590E-06 0.191E-07 0.226E-25 ort(H,U,f) =-0.185E-06-0.597E-08 0.303E-26
CGA:  11    -0.202697717498E+04   -0.38616E-06   -0.41439E-06  1304   0.609E-06-0.191E-06
 gam= 0.705 trial= 0.618  step= 0.401 mean= 0.618
 gam= 0.361 g(H,U,f)=  0.211E-06 0.855E-08 0.145E-26 ort(H,U,f) = 0.109E-06 0.742E-08-0.620E-26
CGA:  12    -0.202697717506E+04   -0.82364E-07   -0.95174E-07  1304   0.220E-06 0.116E-06
 gam= 0.361 trial= 0.607  step= 0.480 mean= 0.607
 final diagonalization
  53 F= -.20484257E+04 E0= -.20484257E+04  d E =-.263997E-02
 curvature:  -2.72 expect dE=-0.196E-01 dE for cont linesearch -0.123E-05
 trial: gam= 0.93333 g(F)=  0.690E-02 g(S)=  0.329E-03 ort =-0.169E-03 (trialstep = 0.430E+00)
 search vector abs. value=  0.620E-01
 bond charge predicted
       N       E                     dE             d eps       ncg     rms          ort
 gam= 0.000 g(H,U,f)=  0.281E+00 0.270E-01 0.258E-20 ort(H,U,f) = 0.000E+00 0.000E+00 0.000E+00
SDA:   1    -0.202686010568E+04    0.11707E+00    0.00000E+00  1304   0.308E+00 0.000E+00
 gam= 0.000 trial= 0.601  step= 0.566 mean= 0.601
 gam= 0.271 g(H,U,f)=  0.782E-01 0.501E-02 0.158E-19 ort(H,U,f) = 0.496E-02-0.492E-02 0.288E-19
CGA:   2    -0.202694723496E+04   -0.87129E-01   -0.87130E-01  1304   0.832E-01 0.442E-04
 gam= 0.271 trial= 0.599  step= 0.588 mean= 0.599
 gam= 0.162 g(H,U,f)=  0.131E-01 0.470E-03 0.671E-20 ort(H,U,f) =-0.597E-03 0.572E-03-0.911E-20
CGA:   3    -0.202697171159E+04   -0.24477E-01   -0.24477E-01  1304   0.135E-01-0.251E-04
 gam= 0.162 trial= 0.598  step= 0.483 mean= 0.598
 gam= 0.226 g(H,U,f)=  0.283E-02 0.231E-03 0.343E-20 ort(H,U,f) =-0.159E-03 0.187E-03-0.239E-20
CGA:   4    -0.202697497474E+04   -0.32631E-02   -0.32647E-02  1304   0.306E-02 0.282E-04
 gam= 0.226 trial= 0.593  step= 0.512 mean= 0.593
 gam= 0.263 g(H,U,f)=  0.715E-03 0.887E-04 0.288E-20 ort(H,U,f) =-0.165E-03 0.150E-03 0.318E-20
CGA:   5    -0.202697575984E+04   -0.78510E-03   -0.78450E-03  1304   0.804E-03-0.152E-04
 gam= 0.263 trial= 0.589  step= 0.535 mean= 0.589
 gam= 0.400 g(H,U,f)=  0.286E-03 0.360E-04 0.471E-21 ort(H,U,f) =-0.635E-04 0.726E-04 0.193E-20
CGA:   6    -0.202697597359E+04   -0.21375E-03   -0.21399E-03  1304   0.322E-03 0.907E-05
 gam= 0.400 trial= 0.586  step= 0.582 mean= 0.586
 gam= 0.386 g(H,U,f)=  0.112E-03 0.126E-04 0.324E-21 ort(H,U,f) =-0.373E-04 0.316E-04 0.120E-20
CGA:   7    -0.202697606826E+04   -0.94676E-04   -0.94664E-04  1304   0.124E-03-0.572E-05
 gam= 0.386 trial= 0.586  step= 0.636 mean= 0.586
 gam= 0.268 g(H,U,f)=  0.316E-04 0.163E-05 0.140E-21 ort(H,U,f) =-0.283E-05 0.792E-05 0.579E-21
CGA:   8    -0.202697610715E+04   -0.38889E-04   -0.38762E-04  1304   0.333E-04 0.509E-05
 gam= 0.268 trial= 0.588  step= 0.678 mean= 0.588
 gam= 0.368 g(H,U,f)=  0.120E-04 0.295E-06 0.422E-22 ort(H,U,f) =-0.269E-05 0.859E-06 0.173E-21
CGA:   9    -0.202697611881E+04   -0.11661E-04   -0.11743E-04  1304   0.123E-04-0.183E-05
 gam= 0.368 trial= 0.593  step= 0.416 mean= 0.593
 gam= 0.272 g(H,U,f)=  0.327E-05 0.622E-07 0.193E-24 ort(H,U,f) = 0.118E-05 0.963E-07 0.722E-23
CGA:  10    -0.202697612111E+04   -0.22929E-05   -0.24057E-05  1304   0.333E-05 0.127E-05
 gam= 0.272 trial= 0.584  step= 0.645 mean= 0.584
 gam= 0.345 g(H,U,f)=  0.110E-05 0.508E-07 0.439E-24 ort(H,U,f) =-0.235E-06-0.128E-07-0.331E-23
CGA:  11    -0.202697612228E+04   -0.11775E-05   -0.11850E-05  1304   0.115E-05-0.248E-06
 gam= 0.345 trial= 0.587  step= 0.726 mean= 0.587
 gam= 0.392 g(H,U,f)=  0.429E-06 0.211E-07 0.203E-23 ort(H,U,f) =-0.900E-10-0.143E-07 0.155E-23
CGA:  12    -0.202697612267E+04   -0.38527E-06   -0.38628E-06  1304   0.451E-06-0.144E-07
 gam= 0.392 trial= 0.594  step= 0.539 mean= 0.594
 gam= 0.299 g(H,U,f)=  0.128E-06 0.719E-08 0.104E-23 ort(H,U,f) = 0.699E-07 0.346E-08-0.191E-23
CGA:  13    -0.202697612279E+04   -0.11811E-06   -0.12001E-06  1304   0.135E-06 0.733E-07
 gam= 0.299 trial= 0.591  step= 1.838 mean= 0.591
 gam= 0.000 g(H,U,f)=  0.689E-06 0.260E-07 0.601E-24 ort(H,U,f) =-0.248E-06-0.438E-08-0.356E-24
CGA:  14    -0.202697612278E+04    0.12595E-07   -0.14399E-06  1304   0.715E-06-0.252E-06
 gam= 0.000 trial= 0.654  step= 0.296 mean= 0.654
 gam= 0.152 g(H,U,f)=  0.107E-06 0.127E-08 0.966E-26 ort(H,U,f) = 0.179E-06 0.367E-08 0.759E-25
CGA:  15    -0.202697612285E+04   -0.73407E-07   -0.10590E-06  1304   0.109E-06 0.182E-06
 gam= 0.152 trial= 0.636  step= 0.480 mean= 0.636
 final diagonalization
  54 F= -.20484276E+04 E0= -.20484276E+04  d E =-.188775E-02
 trial-energy change:   -0.001888  1 .order   -0.001908   -0.003036   -0.000781
 step:   0.5904(harm=  0.5783)  dis= 0.00436  next Energy= -2048.427698 (dE=-0.203E-02)
 bond charge predicted
       N       E                     dE             d eps       ncg     rms          ort
 gam= 0.000 g(H,U,f)=  0.393E-01 0.378E-02 0.388E-20 ort(H,U,f) = 0.000E+00 0.000E+00 0.000E+00
SDA:   1    -0.202695890044E+04    0.17222E-01    0.00000E+00  1304   0.431E-01 0.000E+00
 gam= 0.000 trial= 0.628  step= 0.566 mean= 0.628
 gam= 0.270 g(H,U,f)=  0.109E-01 0.702E-03 0.517E-20 ort(H,U,f) = 0.707E-03-0.687E-03 0.779E-20
CGA:   2    -0.202697109899E+04   -0.12199E-01   -0.12199E-01  1304   0.116E-01 0.193E-04
 gam= 0.270 trial= 0.625  step= 0.589 mean= 0.625
 gam= 0.163 g(H,U,f)=  0.183E-02 0.659E-04 0.363E-20 ort(H,U,f) =-0.907E-04 0.801E-04-0.504E-20
CGA:   3    -0.202697452848E+04   -0.34295E-02   -0.34293E-02  1304   0.190E-02-0.105E-04
 gam= 0.163 trial= 0.623  step= 0.481 mean= 0.623
 gam= 0.225 g(H,U,f)=  0.394E-03 0.323E-04 0.353E-20 ort(H,U,f) =-0.164E-04 0.264E-04-0.237E-20
CGA:   4    -0.202697498339E+04   -0.45491E-03   -0.45561E-03  1304   0.426E-03 0.100E-04
 gam= 0.225 trial= 0.616  step= 0.518 mean= 0.616
 gam= 0.269 g(H,U,f)=  0.102E-03 0.125E-04 0.245E-20 ort(H,U,f) =-0.266E-04 0.210E-04 0.269E-20
CGA:   5    -0.202697509452E+04   -0.11113E-03   -0.11085E-03  1304   0.115E-03-0.561E-05
 gam= 0.269 trial= 0.611  step= 0.521 mean= 0.611
 gam= 0.382 g(H,U,f)=  0.387E-04 0.508E-05 0.339E-21 ort(H,U,f) =-0.714E-05 0.104E-04 0.131E-20
CGA:   6    -0.202697512384E+04   -0.29327E-04   -0.29472E-04  1304   0.437E-04 0.325E-05
 gam= 0.382 trial= 0.607  step= 0.608 mean= 0.607
 gam= 0.419 g(H,U,f)=  0.165E-04 0.180E-05 0.178E-21 ort(H,U,f) =-0.635E-05 0.426E-05 0.651E-21
CGA:   7    -0.202697513753E+04   -0.13684E-04   -0.13685E-04  1304   0.183E-04-0.209E-05
 gam= 0.419 trial= 0.607  step= 0.582 mean= 0.607
 gam= 0.243 g(H,U,f)=  0.421E-05 0.235E-06 0.574E-22 ort(H,U,f) = 0.506E-06 0.123E-05 0.269E-21
CGA:   8    -0.202697514259E+04   -0.50598E-05   -0.50808E-05  1304   0.445E-05 0.174E-05
 gam= 0.243 trial= 0.605  step= 0.734 mean= 0.605
 gam= 0.403 g(H,U,f)=  0.175E-05 0.474E-07 0.192E-22 ort(H,U,f) =-0.612E-06 0.118E-06 0.737E-22
CGA:   9    -0.202697514434E+04   -0.17561E-05   -0.17880E-05  1304   0.179E-05-0.494E-06
 gam= 0.403 trial= 0.612  step= 0.389 mean= 0.612
 gam= 0.276 g(H,U,f)=  0.489E-06 0.676E-08 0.746E-24 ort(H,U,f) = 0.336E-06 0.191E-07 0.975E-23
CGA:  10    -0.202697514461E+04   -0.27007E-06   -0.30980E-06  1304   0.495E-06 0.355E-06
 gam= 0.276 trial= 0.601  step= 0.532 mean= 0.601
 gam= 0.337 g(H,U,f)=  0.158E-06 0.912E-08 0.307E-24 ort(H,U,f) = 0.212E-07-0.679E-09-0.222E-23
CGA:  11    -0.202697514477E+04   -0.15715E-06   -0.15796E-06  1304   0.167E-06 0.205E-07
 gam= 0.337 trial= 0.597  step= 2.223 mean= 0.597
 gam= 0.000 g(H,U,f)=  0.195E-05 0.948E-07 0.113E-22 ort(H,U,f) =-0.449E-06-0.270E-07 0.285E-23
CGA:  12    -0.202697514458E+04    0.19345E-06   -0.19306E-06  1304   0.205E-05-0.475E-06
 gam= 0.000 trial= 0.679  step= 0.263 mean= 0.679
 gam= 0.125 g(H,U,f)=  0.247E-06 0.899E-08 0.725E-25 ort(H,U,f) = 0.381E-06 0.209E-07-0.910E-24
CGA:  13    -0.202697514476E+04   -0.18613E-06   -0.26949E-06  1304   0.256E-06 0.402E-06
 gam= 0.125 trial= 0.658  step= 0.447 mean= 0.658
 gam= 0.334 g(H,U,f)=  0.804E-07 0.496E-08 0.297E-23 ort(H,U,f) = 0.339E-07-0.193E-08-0.268E-24
CGA:  14    -0.202697514483E+04   -0.65171E-07   -0.68448E-07  1304   0.854E-07 0.320E-07
 gam= 0.334 trial= 0.647  step=-4.780 mean= 0.647
 BOPT < 0, no correction made
 gam= 0.000 g(H,U,f)=  0.735E-07 0.186E-08 0.453E-26 ort(H,U,f) =-0.469E-07 0.478E-09 0.113E-24
CGA:  15    -0.202697514489E+04   -0.66386E-07    0.22967E-06  1304   0.754E-07-0.464E-07
 gam= 0.000 trial= 0.647  step= 0.130 mean= 0.647
 final diagonalization
  55 F= -.20484277E+04 E0= -.20484277E+04  d E =-.201091E-02
 curvature:  -2.52 expect dE=-0.159E-01 dE for cont linesearch -0.144E-05
 trial: gam= 0.86312 g(F)=  0.626E-02 g(S)=  0.669E-04 ort =-0.188E-03 (trialstep = 0.462E+00)
 search vector abs. value=  0.522E-01
 bond charge predicted
       N       E                     dE             d eps       ncg     rms          ort
 gam= 0.000 g(H,U,f)=  0.264E+00 0.266E-01 0.704E-20 ort(H,U,f) = 0.000E+00 0.000E+00 0.000E+00
SDA:   1    -0.202686605472E+04    0.10909E+00    0.00000E+00  1304   0.291E+00 0.000E+00
 gam= 0.000 trial= 0.621  step= 0.564 mean= 0.621
 gam= 0.273 g(H,U,f)=  0.744E-01 0.517E-02 0.162E-17 ort(H,U,f) = 0.519E-02-0.514E-02 0.267E-18
CGA:   2    -0.202694818076E+04   -0.82126E-01   -0.82127E-01  1304   0.796E-01 0.498E-04
 gam= 0.273 trial= 0.619  step= 0.585 mean= 0.619
 gam= 0.170 g(H,U,f)=  0.130E-01 0.487E-03 0.111E-18 ort(H,U,f) =-0.516E-03 0.498E-03 0.861E-19
CGA:   3    -0.202697144409E+04   -0.23263E-01   -0.23263E-01  1304   0.135E-01-0.183E-04
 gam= 0.170 trial= 0.617  step= 0.474 mean= 0.617
 gam= 0.230 g(H,U,f)=  0.288E-02 0.225E-03 0.251E-21 ort(H,U,f) =-0.161E-03 0.187E-03-0.262E-20
CGA:   4    -0.202697463812E+04   -0.31940E-02   -0.31958E-02  1304   0.310E-02 0.258E-04
 gam= 0.230 trial= 0.610  step= 0.509 mean= 0.610
 gam= 0.266 g(H,U,f)=  0.736E-03 0.895E-04 0.176E-22 ort(H,U,f) =-0.165E-03 0.150E-03 0.796E-22
CGA:   5    -0.202697542979E+04   -0.79167E-03   -0.79094E-03  1304   0.826E-03-0.147E-04
 gam= 0.266 trial= 0.605  step= 0.526 mean= 0.605
 gam= 0.393 g(H,U,f)=  0.288E-03 0.367E-04 0.771E-22 ort(H,U,f) =-0.619E-04 0.719E-04 0.729E-22
CGA:   6    -0.202697564565E+04   -0.21586E-03   -0.21625E-03  1304   0.324E-03 0.100E-04
 gam= 0.393 trial= 0.601  step= 0.594 mean= 0.601
 gam= 0.373 g(H,U,f)=  0.109E-03 0.119E-04 0.306E-23 ort(H,U,f) =-0.351E-04 0.301E-04-0.183E-22
CGA:   7    -0.202697574323E+04   -0.97582E-04   -0.97566E-04  1304   0.121E-03-0.493E-05
 gam= 0.373 trial= 0.600  step= 0.646 mean= 0.600
 gam= 0.271 g(H,U,f)=  0.312E-04 0.162E-05 0.795E-23 ort(H,U,f) =-0.276E-05 0.766E-05 0.591E-23
CGA:   8    -0.202697578183E+04   -0.38605E-04   -0.38493E-04  1304   0.328E-04 0.490E-05
 gam= 0.271 trial= 0.603  step= 0.658 mean= 0.603
 gam= 0.399 g(H,U,f)=  0.127E-04 0.356E-06 0.653E-23 ort(H,U,f) =-0.279E-05 0.888E-06-0.828E-23
CGA:   9    -0.202697579303E+04   -0.11191E-04   -0.11244E-04  1304   0.131E-04-0.190E-05
 gam= 0.399 trial= 0.605  step= 0.403 mean= 0.605
 gam= 0.254 g(H,U,f)=  0.327E-05 0.557E-07 0.143E-26 ort(H,U,f) = 0.108E-05 0.135E-06-0.242E-25
CGA:  10    -0.202697579539E+04   -0.23637E-05   -0.24870E-05  1304   0.333E-05 0.122E-05
 gam= 0.254 trial= 0.595  step= 0.639 mean= 0.595
 gam= 0.325 g(H,U,f)=  0.103E-05 0.551E-07 0.409E-23 ort(H,U,f) =-0.114E-06-0.109E-07-0.606E-24
CGA:  11    -0.202697579655E+04   -0.11597E-05   -0.11623E-05  1304   0.108E-05-0.125E-06
 gam= 0.325 trial= 0.598  step= 0.850 mean= 0.598
 gam= 0.623 g(H,U,f)=  0.641E-06 0.332E-07 0.273E-23 ort(H,U,f) =-0.197E-06-0.266E-07-0.312E-23
CGA:  12    -0.202697579696E+04   -0.41495E-06   -0.44297E-06  1304   0.674E-06-0.224E-06
 gam= 0.623 trial= 0.610  step= 0.359 mean= 0.610
 gam= 0.348 g(H,U,f)=  0.224E-06 0.106E-07 0.988E-25 ort(H,U,f) = 0.158E-06 0.358E-08 0.150E-24
CGA:  13    -0.202697579704E+04   -0.75750E-07   -0.95999E-07  1304   0.234E-06 0.162E-06
 gam= 0.348 trial= 0.598  step= 0.408 mean= 0.598
 final diagonalization
  56 F= -.20484295E+04 E0= -.20484295E+04  d E =-.184790E-02
 trial-energy change:   -0.001848  1 .order   -0.001863   -0.002847   -0.000878
 step:   0.6823(harm=  0.6676)  dis= 0.00431  next Energy= -2048.429732 (dE=-0.206E-02)
 bond charge predicted
       N       E                     dE             d eps       ncg     rms          ort
 gam= 0.000 g(H,U,f)=  0.603E-01 0.607E-02 0.556E-22 ort(H,U,f) = 0.000E+00 0.000E+00 0.000E+00
SDA:   1    -0.202695039089E+04    0.25406E-01    0.00000E+00  1304   0.663E-01 0.000E+00
 gam= 0.000 trial= 0.588  step= 0.564 mean= 0.588
 gam= 0.273 g(H,U,f)=  0.169E-01 0.118E-02 0.350E-20 ort(H,U,f) = 0.120E-02-0.117E-02 0.713E-21
CGA:   2    -0.202696911316E+04   -0.18722E-01   -0.18723E-01  1304   0.181E-01 0.287E-04
 gam= 0.273 trial= 0.587  step= 0.585 mean= 0.587
 gam= 0.169 g(H,U,f)=  0.296E-02 0.110E-03 0.131E-20 ort(H,U,f) =-0.122E-03 0.112E-03 0.996E-21
CGA:   3    -0.202697441867E+04   -0.53055E-02   -0.53055E-02  1304   0.307E-02-0.102E-04
 gam= 0.169 trial= 0.587  step= 0.473 mean= 0.587
 gam= 0.228 g(H,U,f)=  0.651E-03 0.510E-04 0.713E-23 ort(H,U,f) =-0.297E-04 0.423E-04-0.727E-22
CGA:   4    -0.202697514454E+04   -0.72588E-03   -0.72658E-03  1304   0.702E-03 0.125E-04
 gam= 0.228 trial= 0.581  step= 0.515 mean= 0.581
 gam= 0.270 g(H,U,f)=  0.169E-03 0.202E-04 0.668E-24 ort(H,U,f) =-0.412E-04 0.338E-04 0.272E-23
CGA:   5    -0.202697532600E+04   -0.18146E-03   -0.18121E-03  1304   0.189E-03-0.738E-05
 gam= 0.270 trial= 0.578  step= 0.517 mean= 0.578
 gam= 0.381 g(H,U,f)=  0.637E-04 0.830E-05 0.257E-23 ort(H,U,f) =-0.115E-04 0.165E-04 0.262E-23
CGA:   6    -0.202697537422E+04   -0.48222E-04   -0.48372E-04  1304   0.720E-04 0.495E-05
 gam= 0.381 trial= 0.575  step= 0.611 mean= 0.575
 gam= 0.397 g(H,U,f)=  0.258E-04 0.274E-05 0.174E-24 ort(H,U,f) =-0.909E-05 0.662E-05-0.866E-24
CGA:   7    -0.202697539676E+04   -0.22539E-04   -0.22584E-04  1304   0.286E-04-0.248E-05
 gam= 0.397 trial= 0.577  step= 0.607 mean= 0.577
 gam= 0.251 g(H,U,f)=  0.679E-05 0.374E-06 0.336E-24 ort(H,U,f) = 0.475E-06 0.186E-05 0.241E-24
CGA:   8    -0.202697540517E+04   -0.84074E-05   -0.83719E-05  1304   0.716E-05 0.234E-05
 gam= 0.251 trial= 0.578  step= 0.717 mean= 0.578
 gam= 0.443 g(H,U,f)=  0.309E-05 0.865E-07 0.324E-24 ort(H,U,f) =-0.101E-05 0.189E-06-0.383E-24
CGA:   9    -0.202697540789E+04   -0.27197E-05   -0.27763E-05  1304   0.317E-05-0.821E-06
 gam= 0.443 trial= 0.585  step= 0.367 mean= 0.585
 gam= 0.264 g(H,U,f)=  0.828E-06 0.101E-07 0.312E-26 ort(H,U,f) = 0.491E-06 0.361E-07 0.152E-25
CGA:  10    -0.202697540835E+04   -0.45801E-06   -0.51560E-06  1304   0.838E-06 0.527E-06
 gam= 0.264 trial= 0.574  step= 0.508 mean= 0.574
 gam= 0.353 g(H,U,f)=  0.282E-06 0.144E-07 0.153E-24 ort(H,U,f) = 0.864E-07-0.210E-08-0.501E-25
CGA:  11    -0.202697540859E+04   -0.24535E-06   -0.24801E-06  1304   0.296E-06 0.843E-07
 gam= 0.353 trial= 0.571  step= 1.469 mean= 0.571
 gam= 0.000 g(H,U,f)=  0.219E-05 0.609E-07 0.375E-24 ort(H,U,f) =-0.608E-06-0.225E-07-0.212E-24
CGA:  12    -0.202697540855E+04    0.43881E-07   -0.23942E-06  1304   0.225E-05-0.630E-06
 gam= 0.000 trial= 0.616  step= 0.222 mean= 0.616
 gam= 0.100 g(H,U,f)=  0.220E-06 0.611E-08 0.156E-25 ort(H,U,f) = 0.438E-06 0.136E-07 0.770E-25
CGA:  13    -0.202697540871E+04   -0.16084E-06   -0.24973E-06  1304   0.226E-06 0.452E-06
 gam= 0.100 trial= 0.596  step= 0.294 mean= 0.596
 gam= 0.377 g(H,U,f)=  0.823E-07 0.277E-08 0.117E-25 ort(H,U,f) = 0.828E-07 0.182E-08-0.203E-25
CGA:  14    -0.202697540874E+04   -0.27132E-07   -0.39841E-07  1304   0.851E-07 0.847E-07
 gam= 0.377 trial= 0.581  step= 1.161 mean= 0.581
 final diagonalization
slurmstepd: error:  mpi/pmix_v2: _errhandler: tcn368 [0]: pmixp_client_v2.c:211: Error handler invoked: status = -25, source = [slurm.pmix.409849.0:36]
slurmstepd: error: *** STEP 409849.0 ON tcn368 CANCELLED AT 2022-02-01T22:50:20 ***
srun: Job step aborted: Waiting up to 32 seconds for job step to finish.
slurmstepd: error: Detected 1 oom-kill event(s) in StepId=409849.0 cgroup. Some of your processes may have been killed by the cgroup out-of-memory handler.
slurmstepd: error:  mpi/pmix_v2: _errhandler: tcn368 [0]: pmixp_client_v2.c:211: Error handler invoked: status = -25, source = [slurm.pmix.409849.0:72]
srun: error: tcn368: tasks 0-127: Out Of Memory
srun: launch/slurm: _step_signal: Terminating StepId=409849.0
slurmstepd: error: Detected 1 oom-kill event(s) in StepId=409849.batch cgroup. Some of your processes may have been killed by the cgroup out-of-memory handler.

JOB STATISTICS
==============
Job ID: 409849
Cluster: snellius
User/Group: srinidhi/srinidhi
State: RUNNING
Nodes: 1
Cores per node: 128
CPU Utilized: 00:00:00
CPU Efficiency: 0.000f 38-07:45:04 core-walltime
Job Wall-clock time: 07:11:08
Memory Utilized: 0.00 MB (estimated maximum)
Memory Efficiency: 0.000f 234.38 GB (1.83 GB/core)
WARNING: Efficiency statistics may be misleading for RUNNING jobs.
