submit directory /gpfs/home3/srinidhi/BEC_work/highthroughput/mof_calcs/02-02-2022_Zn/HOPDIB_FSR
 running on  128 total cores
 distrk:  each k-point on   32 cores,    4 groups
 distr:  one band on   16 cores,    2 groups
 using from now: INCAR     
 vasp.5.4.4.18Apr17-6-g9f103f2a35 (build Oct 14 2021 09:59:43) complex           
 POSCAR found type information on POSCAR  Zn H  C  N  O 
 POSCAR found :  5 types and     294 ions
 scaLAPACK will be used

 ----------------------------------------------------------------------------- 
|                                                                             |
|           W    W    AA    RRRRR   N    N  II  N    N   GGGG   !!!           |
|           W    W   A  A   R    R  NN   N  II  NN   N  G    G  !!!           |
|           W    W  A    A  R    R  N N  N  II  N N  N  G       !!!           |
|           W WW W  AAAAAA  RRRRR   N  N N  II  N  N N  G  GGG   !            |
|           WW  WW  A    A  R   R   N   NN  II  N   NN  G    G                |
|           W    W  A    A  R    R  N    N  II  N    N   GGGG   !!!           |
|                                                                             |
|      You have enabled k-point parallelism (KPAR>1).                         |
|      This developmental code was originally  written by Paul Kent at ORNL,  |
|      and carefully double checked in Vienna.                                |
|      GW as well as linear response parallelism added by Martijn Marsman     |
|      and Georg Kresse.                                                      |
|      Carefully verify results versus KPAR=1.                                |
|      Report problems to Paul Kent and Vienna.                               |
|                                                                             |
 ----------------------------------------------------------------------------- 


 ----------------------------------------------------------------------------- 
|                                                                             |
|  ADVICE TO THIS USER RUNNING 'VASP/VAMP'   (HEAR YOUR MASTER'S VOICE ...):  |
|                                                                             |
|      You have a (more or less) 'large supercell' and for larger cells       |
|      it might be more efficient to use real space projection opertators     |
|      So try LREAL= Auto  in the INCAR   file.                               |
|      Mind:          For very  accurate calculation you might also keep the  |
|      reciprocal projection scheme          (i.e. LREAL=.FALSE.)             |
|                                                                             |
 ----------------------------------------------------------------------------- 

 LDA part: xc-table for Pade appr. of Perdew
 POSCAR, INCAR and KPOINTS ok, starting setup
 FFT: planning ...
 WAVECAR not read
 entering main loop
       N       E                     dE             d eps       ncg     rms          ort
DAV:   1     0.694689595181E+04    0.69469E+04   -0.49952E+05  1304   0.144E+03
DAV:   2    -0.114817654269E+04   -0.80951E+04   -0.77192E+04  1304   0.330E+02
DAV:   3    -0.215463980173E+04   -0.10065E+04   -0.99389E+03  1304   0.129E+02
DAV:   4    -0.219412919327E+04   -0.39489E+02   -0.39200E+02  1304   0.302E+01
DAV:   5    -0.219571891744E+04   -0.15897E+01   -0.15873E+01  1304   0.561E+00
 gam= 0.000 g(H,U,f)=  0.686E+03 0.622E+02 0.149E-45 ort(H,U,f) = 0.000E+00 0.000E+00 0.000E+00
SDA:   6    -0.187515196330E+04    0.32057E+03   -0.15873E+01  1304   0.748E+03 0.000E+00
 gam= 0.000 trial= 0.400  step= 0.348 mean= 0.400
 gam= 0.076 g(H,U,f)=  0.492E+02 0.761E+01 0.114E-27 ort(H,U,f) =-0.266E+02 0.203E+02 0.271E-27
CGA:   7    -0.200570599526E+04   -0.13055E+03   -0.12999E+03  1304   0.568E+02-0.632E+01
 gam= 0.076 trial= 0.397  step= 0.487 mean= 0.397
 gam= 0.298 g(H,U,f)=  0.136E+02 0.336E+01 0.181E-47 ort(H,U,f) =-0.552E+01 0.552E+01 0.335E-47
CGA:   8    -0.201941164214E+04   -0.13706E+02   -0.13704E+02  1304   0.170E+02-0.236E-02
 gam= 0.298 trial= 0.402  step= 0.574 mean= 0.402
 gam= 0.346 g(H,U,f)=  0.468E+01 0.119E+01 0.609E-38 ort(H,U,f) =-0.288E+01 0.286E+01 0.138E-37
CGA:   9    -0.202427833623E+04   -0.48667E+01   -0.48665E+01  1304   0.587E+01-0.206E-01
 gam= 0.346 trial= 0.410  step= 0.588 mean= 0.410
 gam= 0.399 g(H,U,f)=  0.196E+01 0.385E+00 0.216E-49 ort(H,U,f) =-0.121E+01 0.113E+01 0.718E-49
CGA:  10    -0.202599318970E+04   -0.17149E+01   -0.17235E+01  1304   0.234E+01-0.824E-01
 gam= 0.399 trial= 0.419  step= 0.587 mean= 0.419
 gam= 0.302 g(H,U,f)=  0.644E+00 0.632E-01 0.157E-24 ort(H,U,f) =-0.310E+00 0.298E+00 0.737E-24
CGA:  11    -0.202666998981E+04   -0.67680E+00   -0.67814E+00  1304   0.707E+00-0.126E-01
 gam= 0.302 trial= 0.428  step= 0.611 mean= 0.428
 gam= 0.303 g(H,U,f)=  0.202E+00 0.122E-01 0.565E-18 ort(H,U,f) =-0.582E-01 0.550E-01 0.246E-17
CGA:  12    -0.202688473902E+04   -0.21475E+00   -0.21509E+00  1304   0.214E+00-0.317E-02
 gam= 0.303 trial= 0.437  step= 0.544 mean= 0.437
 gam= 0.295 g(H,U,f)=  0.609E-01 0.232E-02 0.185E-71 ort(H,U,f) =-0.541E-02 0.501E-02 0.816E-71
CGA:  13    -0.202694263537E+04   -0.57896E-01   -0.57924E-01  1304   0.632E-01-0.406E-03
 gam= 0.295 trial= 0.442  step= 0.545 mean= 0.442
 gam= 0.266 g(H,U,f)=  0.162E-01 0.544E-03 0.469E-14 ort(H,U,f) =-0.505E-03 0.791E-03 0.156E-13
CGA:  14    -0.202695984076E+04   -0.17205E-01   -0.17191E-01  1304   0.168E-01 0.286E-03
 gam= 0.266 trial= 0.447  step= 0.587 mean= 0.447
 gam= 0.270 g(H,U,f)=  0.419E-02 0.331E-03 0.330E-21 ort(H,U,f) =-0.699E-04 0.154E-03 0.876E-21
CGA:  15    -0.202696479345E+04   -0.49527E-02   -0.49469E-02  1304   0.453E-02 0.841E-04
 gam= 0.270 trial= 0.454  step= 0.606 mean= 0.454
 gam= 0.333 g(H,U,f)=  0.140E-02 0.102E-03 0.526E-19 ort(H,U,f) =-0.381E-04 0.123E-03 0.129E-18
CGA:  16    -0.202696617679E+04   -0.13833E-02   -0.13769E-02  1304   0.151E-02 0.850E-04
 gam= 0.333 trial= 0.462  step= 0.608 mean= 0.462
 gam= 0.352 g(H,U,f)=  0.489E-03 0.413E-04 0.592E-19 ort(H,U,f) =-0.664E-04 0.738E-04 0.108E-18
CGA:  17    -0.202696664397E+04   -0.46718E-03   -0.46665E-03  1304   0.530E-03 0.736E-05
 gam= 0.352 trial= 0.469  step= 0.597 mean= 0.469
 gam= 0.345 g(H,U,f)=  0.174E-03 0.922E-05 0.253E-17 ort(H,U,f) = 0.283E-05 0.235E-04 0.531E-17
CGA:  18    -0.202696680483E+04   -0.16086E-03   -0.15918E-03  1304   0.183E-03 0.264E-04
 gam= 0.345 trial= 0.476  step= 0.671 mean= 0.476
 gam= 0.334 g(H,U,f)=  0.576E-04 0.335E-05 0.124E-21 ort(H,U,f) =-0.896E-05 0.781E-05 0.395E-21
CGA:  19    -0.202696686904E+04   -0.64208E-04   -0.64323E-04  1304   0.610E-04-0.115E-05
 gam= 0.334 trial= 0.485  step= 0.683 mean= 0.485
 gam= 0.380 g(H,U,f)=  0.225E-04 0.601E-06 0.980E-19 ort(H,U,f) = 0.679E-06 0.719E-07 0.343E-18
CGA:  20    -0.202696688981E+04   -0.20772E-04   -0.20698E-04  1304   0.231E-04 0.751E-06
 gam= 0.380 trial= 0.495  step= 0.694 mean= 0.495
 gam= 0.539 g(H,U,f)=  0.121E-04 0.372E-06 0.291E-16 ort(H,U,f) =-0.334E-05-0.235E-06 0.135E-15
CGA:  21    -0.202696689759E+04   -0.77756E-05   -0.81316E-05  1304   0.125E-04-0.357E-05
 gam= 0.539 trial= 0.505  step= 0.493 mean= 0.505
 gam= 0.280 g(H,U,f)=  0.332E-05 0.167E-06 0.250E-22 ort(H,U,f) = 0.110E-05-0.295E-07 0.395E-21
CGA:  22    -0.202696690018E+04   -0.25940E-05   -0.26007E-05  1304   0.349E-05 0.107E-05
 gam= 0.280 trial= 0.505  step= 0.678 mean= 0.505
 gam= 0.473 g(H,U,f)=  0.154E-05 0.114E-06 0.230E-21 ort(H,U,f) = 0.270E-06 0.764E-07-0.119E-20
CGA:  23    -0.202696690149E+04   -0.13130E-05   -0.12831E-05  1304   0.165E-05 0.346E-06
 gam= 0.473 trial= 0.513  step= 0.693 mean= 0.513
 gam= 0.000 g(H,U,f)=  0.211E-05 0.547E-07 0.894E-20 ort(H,U,f) =-0.960E-06 0.319E-07-0.354E-20
CGA:  24    -0.202696690204E+04   -0.54491E-06   -0.62828E-06  1304   0.217E-05-0.928E-06
 gam= 0.000 trial= 0.522  step= 0.236 mean= 0.522
 gam= 0.133 g(H,U,f)=  0.262E-06 0.259E-07 0.150E-19 ort(H,U,f) = 0.464E-06 0.266E-07 0.102E-19
CGA:  25    -0.202696690222E+04   -0.18544E-06   -0.25552E-06  1304   0.288E-06 0.490E-06
 gam= 0.133 trial= 0.508  step= 0.408 mean= 0.508
 gam= 0.662 g(H,U,f)=  0.172E-06 0.185E-07 0.280E-18 ort(H,U,f) = 0.784E-07 0.212E-07 0.449E-21
CGA:  26    -0.202696690229E+04   -0.66902E-07   -0.71904E-07  1304   0.191E-06 0.996E-07
 gam= 0.662 trial= 0.503  step=****** mean= 0.503
 BOPT < 0, no correction made
 gam= 0.451 g(H,U,f)=  0.813E-07 0.466E-08 0.143E-16 ort(H,U,f) =-0.481E-08 0.147E-07-0.184E-17
CGA:  27    -0.202696690242E+04   -0.13118E-06    0.18830E-05  1304   0.860E-07 0.994E-08
 gam= 0.451 trial= 0.503  step=-0.559 mean= 0.503
 BOPT < 0, no correction made
 gam= 0.658 g(H,U,f)=  0.553E-07 0.128E-08 0.723E-76 ort(H,U,f) = 0.273E-07 0.462E-08 0.206E-75
CGA:  28    -0.202696690249E+04   -0.65949E-07    0.25311E-07  1304   0.566E-07 0.319E-07
 gam= 0.658 trial= 0.503  step= 0.589 mean= 0.503
 final diagonalization
   1 F= -.20484206E+04 E0= -.20484206E+04  d E =-.204842E+04
 curvature:   0.00 expect dE= 0.000E+00 dE for cont linesearch  0.000E+00
 trial: gam= 0.00000 g(F)=  0.388E-02 g(S)=  0.182E-03 ort = 0.000E+00 (trialstep = 0.100E+01)
 search vector abs. value=  0.406E-02
 bond charge predicted
       N       E                     dE             d eps       ncg     rms          ort
 gam= 0.000 g(H,U,f)=  0.138E+00 0.831E-02 0.939E-73 ort(H,U,f) = 0.000E+00 0.000E+00 0.000E+00
SDA:   1    -0.202690826692E+04    0.58636E-01    0.00000E+00  1304   0.146E+00 0.000E+00
 gam= 0.000 trial= 0.507  step= 0.649 mean= 0.507
 gam= 0.277 g(H,U,f)=  0.387E-01 0.177E-02 0.101E-72 ort(H,U,f) = 0.183E-02-0.183E-02 0.742E-73
CGA:   2    -0.202695556861E+04   -0.47302E-01   -0.47301E-01  1304   0.404E-01-0.203E-05
 gam= 0.277 trial= 0.514  step= 0.589 mean= 0.514
 gam= 0.175 g(H,U,f)=  0.684E-02 0.241E-03 0.531E-71 ort(H,U,f) =-0.196E-03 0.217E-03 0.307E-70
CGA:   3    -0.202696746718E+04   -0.11899E-01   -0.11898E-01  1304   0.708E-02 0.206E-04
 gam= 0.175 trial= 0.518  step= 0.471 mean= 0.518
 gam= 0.212 g(H,U,f)=  0.143E-02 0.639E-04 0.120E-67 ort(H,U,f) =-0.113E-03 0.904E-04-0.214E-67
CGA:   4    -0.202696913790E+04   -0.16707E-02   -0.16702E-02  1304   0.150E-02-0.226E-04
 gam= 0.212 trial= 0.516  step= 0.467 mean= 0.516
 gam= 0.293 g(H,U,f)=  0.399E-03 0.397E-04 0.103E-64 ort(H,U,f) =-0.353E-04 0.565E-04 0.218E-64
CGA:   5    -0.202696948651E+04   -0.34861E-03   -0.34912E-03  1304   0.439E-03 0.212E-04
 gam= 0.293 trial= 0.513  step= 0.531 mean= 0.513
 gam= 0.370 g(H,U,f)=  0.145E-03 0.173E-04 0.215E-60 ort(H,U,f) =-0.398E-04 0.344E-04 0.541E-60
CGA:   6    -0.202696960468E+04   -0.11817E-03   -0.11822E-03  1304   0.162E-03-0.544E-05
 gam= 0.370 trial= 0.514  step= 0.635 mean= 0.514
 gam= 0.382 g(H,U,f)=  0.571E-04 0.493E-05 0.798E-55 ort(H,U,f) =-0.113E-04 0.126E-04 0.137E-54
CGA:   7    -0.202696965574E+04   -0.51059E-04   -0.50978E-04  1304   0.620E-04 0.133E-05
 gam= 0.382 trial= 0.520  step= 0.696 mean= 0.520
 gam= 0.386 g(H,U,f)=  0.232E-04 0.794E-06 0.112E-49 ort(H,U,f) =-0.545E-05 0.280E-05 0.236E-49
CGA:   8    -0.202696967728E+04   -0.21541E-04   -0.21775E-04  1304   0.239E-04-0.266E-05
 gam= 0.386 trial= 0.529  step= 0.482 mean= 0.529
 gam= 0.319 g(H,U,f)=  0.748E-05 0.151E-06 0.631E-48 ort(H,U,f) = 0.102E-05 0.452E-06 0.679E-47
CGA:   9    -0.202696968277E+04   -0.54882E-05   -0.55230E-05  1304   0.763E-05 0.147E-05
 gam= 0.319 trial= 0.527  step= 0.567 mean= 0.527
 gam= 0.331 g(H,U,f)=  0.247E-05 0.574E-07 0.139E-44 ort(H,U,f) =-0.830E-06-0.707E-07 0.582E-44
CGA:  10    -0.202696968505E+04   -0.22782E-05   -0.22961E-05  1304   0.252E-05-0.900E-06
 gam= 0.331 trial= 0.529  step= 0.507 mean= 0.529
 gam= 0.286 g(H,U,f)=  0.694E-06 0.294E-07 0.427E-42 ort(H,U,f) = 0.170E-06-0.131E-07 0.115E-41
CGA:  11    -0.202696968561E+04   -0.56252E-06   -0.56422E-06  1304   0.723E-06 0.157E-06
 gam= 0.286 trial= 0.528  step= 0.820 mean= 0.528
 gam= 0.835 g(H,U,f)=  0.579E-06 0.249E-07 0.154E-38 ort(H,U,f) =-0.321E-06-0.257E-09-0.345E-38
CGA:  12    -0.202696968588E+04   -0.26758E-06   -0.31459E-06  1304   0.603E-06-0.322E-06
 gam= 0.835 trial= 0.542  step= 0.295 mean= 0.542
 gam= 0.488 g(H,U,f)=  0.282E-06 0.122E-07 0.131E-37 ort(H,U,f) = 0.677E-07 0.165E-07-0.143E-37
CGA:  13    -0.202696968592E+04   -0.38868E-07   -0.49445E-07  1304   0.294E-06 0.842E-07
 gam= 0.488 trial= 0.530  step= 0.265 mean= 0.530
 final diagonalization
   2 F= -.20484196E+04 E0= -.20484196E+04  d E =0.980641E-03
 trial-energy change:    0.000981  1 .order    0.000991   -0.004062    0.006043
 step:   0.4034(harm=  0.4020)  dis= 0.00064  next Energy= -2048.421449 (dE=-0.820E-03)
 bond charge predicted
       N       E                     dE             d eps       ncg     rms          ort
 gam= 0.000 g(H,U,f)=  0.490E-01 0.293E-02 0.178E-33 ort(H,U,f) = 0.000E+00 0.000E+00 0.000E+00
SDA:   1    -0.202694737856E+04    0.22307E-01    0.00000E+00  1304   0.519E-01 0.000E+00
 gam= 0.000 trial= 0.517  step= 0.649 mean= 0.517
 gam= 0.277 g(H,U,f)=  0.137E-01 0.628E-03 0.145E-30 ort(H,U,f) = 0.661E-03-0.646E-03 0.143E-30
CGA:   2    -0.202696422372E+04   -0.16845E-01   -0.16844E-01  1304   0.143E-01 0.152E-04
 gam= 0.277 trial= 0.523  step= 0.589 mean= 0.523
 gam= 0.175 g(H,U,f)=  0.243E-02 0.852E-04 0.459E-29 ort(H,U,f) =-0.878E-04 0.757E-04 0.213E-28
CGA:   3    -0.202696845185E+04   -0.42281E-02   -0.42285E-02  1304   0.252E-02-0.121E-04
 gam= 0.175 trial= 0.527  step= 0.470 mean= 0.527
 gam= 0.204 g(H,U,f)=  0.492E-03 0.224E-04 0.311E-27 ort(H,U,f) =-0.189E-04 0.324E-04-0.829E-27
CGA:   4    -0.202696904190E+04   -0.59005E-03   -0.59043E-03  1304   0.514E-03 0.136E-04
 gam= 0.204 trial= 0.524  step= 0.496 mean= 0.524
 gam= 0.324 g(H,U,f)=  0.153E-03 0.143E-04 0.732E-27 ort(H,U,f) =-0.319E-04 0.195E-04 0.224E-26
CGA:   5    -0.202696917023E+04   -0.12833E-03   -0.12815E-03  1304   0.167E-03-0.125E-04
 gam= 0.324 trial= 0.522  step= 0.491 mean= 0.522
 gam= 0.330 g(H,U,f)=  0.490E-04 0.607E-05 0.139E-25 ort(H,U,f) =-0.882E-05 0.126E-04 0.587E-25
CGA:   6    -0.202696921012E+04   -0.39890E-04   -0.39950E-04  1304   0.551E-04 0.382E-05
 gam= 0.330 trial= 0.521  step= 0.661 mean= 0.521
 gam= 0.399 g(H,U,f)=  0.202E-04 0.178E-05 0.195E-21 ort(H,U,f) =-0.450E-05 0.415E-05 0.637E-22
CGA:   7    -0.202696922870E+04   -0.18580E-04   -0.18605E-04  1304   0.220E-04-0.356E-06
 gam= 0.399 trial= 0.528  step= 0.662 mean= 0.528
 gam= 0.293 g(H,U,f)=  0.616E-05 0.279E-06 0.322E-19 ort(H,U,f) =-0.352E-07 0.113E-05 0.332E-19
CGA:   8    -0.202696923599E+04   -0.72951E-05   -0.72214E-05  1304   0.644E-05 0.110E-05
 gam= 0.293 trial= 0.534  step= 0.681 mean= 0.534
 gam= 0.502 g(H,U,f)=  0.317E-05 0.614E-07 0.652E-22 ort(H,U,f) =-0.811E-06 0.991E-07 0.545E-21
CGA:   9    -0.202696923824E+04   -0.22481E-05   -0.23004E-05  1304   0.323E-05-0.712E-06
 gam= 0.502 trial= 0.542  step= 0.338 mean= 0.542
 gam= 0.229 g(H,U,f)=  0.731E-06 0.890E-08 0.619E-21 ort(H,U,f) = 0.465E-06 0.179E-08 0.273E-20
CGA:  10    -0.202696923868E+04   -0.43774E-06   -0.48529E-06  1304   0.740E-06 0.467E-06
 gam= 0.229 trial= 0.532  step= 0.425 mean= 0.532
 gam= 0.372 g(H,U,f)=  0.264E-06 0.114E-07 0.106E-19 ort(H,U,f) = 0.197E-06-0.166E-08 0.159E-19
CGA:  11    -0.202696923885E+04   -0.16962E-06   -0.17996E-06  1304   0.276E-06 0.195E-06
 gam= 0.372 trial= 0.526  step= 0.607 mean= 0.526
 gam= 0.960 g(H,U,f)=  0.258E-06 0.695E-08 0.235E-32 ort(H,U,f) =-0.124E-06 0.197E-08 0.904E-31
CGA:  12    -0.202696923895E+04   -0.10063E-06   -0.10568E-06  1304   0.265E-06-0.122E-06
 gam= 0.960 trial= 0.530  step= 0.261 mean= 0.530
 gam= 0.652 g(H,U,f)=  0.169E-06 0.374E-08 0.713E-30 ort(H,U,f) = 0.337E-07 0.435E-08-0.363E-29
CGA:  13    -0.202696923896E+04   -0.14224E-07   -0.19268E-07  1304   0.173E-06 0.381E-07
 gam= 0.652 trial= 0.517  step= 0.186 mean= 0.517
 final diagonalization
   3 F= -.20484214E+04 E0= -.20484214E+04  d E =-.820347E-03
 curvature:  -0.20 expect dE=-0.335E-03 dE for cont linesearch -0.135E-07
 trial: gam= 0.41452 g(F)=  0.165E-02 g(S)=  0.173E-04 ort =-0.165E-04 (trialstep = 0.881E+00)
 search vector abs. value=  0.235E-02
 bond charge predicted
       N       E                     dE             d eps       ncg     rms          ort
 gam= 0.000 g(H,U,f)=  0.485E-01 0.241E-02 0.740E-24 ort(H,U,f) = 0.000E+00 0.000E+00 0.000E+00
SDA:   1    -0.202694922036E+04    0.20019E-01    0.00000E+00  1304   0.509E-01 0.000E+00
 gam= 0.000 trial= 0.500  step= 0.681 mean= 0.500
 gam= 0.318 g(H,U,f)=  0.152E-01 0.967E-03 0.532E-24 ort(H,U,f) = 0.683E-03-0.697E-03-0.991E-24
CGA:   2    -0.202696656259E+04   -0.17342E-01   -0.17343E-01  1304   0.162E-01-0.134E-04
 gam= 0.318 trial= 0.509  step= 0.528 mean= 0.509
 gam= 0.167 g(H,U,f)=  0.255E-02 0.152E-03 0.520E-22 ort(H,U,f) = 0.271E-04-0.148E-04-0.180E-22
CGA:   3    -0.202697084206E+04   -0.42795E-02   -0.42794E-02  1304   0.270E-02 0.123E-04
 gam= 0.167 trial= 0.510  step= 0.477 mean= 0.510
 gam= 0.190 g(H,U,f)=  0.481E-03 0.306E-04 0.561E-23 ort(H,U,f) =-0.353E-04 0.239E-04-0.444E-22
CGA:   4    -0.202697148705E+04   -0.64500E-03   -0.64481E-03  1304   0.512E-03-0.115E-04
 gam= 0.190 trial= 0.509  step= 0.566 mean= 0.509
 gam= 0.255 g(H,U,f)=  0.117E-03 0.134E-04 0.101E-20 ort(H,U,f) =-0.208E-04 0.192E-04 0.350E-21
CGA:   5    -0.202697163122E+04   -0.14417E-03   -0.14422E-03  1304   0.130E-03-0.167E-05
 gam= 0.255 trial= 0.511  step= 0.592 mean= 0.511
 gam= 0.399 g(H,U,f)=  0.466E-04 0.542E-05 0.147E-19 ort(H,U,f) =-0.670E-05 0.106E-04 0.313E-19
CGA:   6    -0.202697166984E+04   -0.38616E-04   -0.38459E-04  1304   0.520E-04 0.389E-05
 gam= 0.399 trial= 0.515  step= 0.591 mean= 0.515
 gam= 0.478 g(H,U,f)=  0.231E-04 0.176E-05 0.404E-20 ort(H,U,f) =-0.558E-05 0.417E-05-0.931E-19
CGA:   7    -0.202697168562E+04   -0.15777E-04   -0.15831E-04  1304   0.249E-04-0.142E-05
 gam= 0.478 trial= 0.519  step= 0.577 mean= 0.519
 gam= 0.283 g(H,U,f)=  0.679E-05 0.243E-06 0.215E-20 ort(H,U,f) =-0.494E-06 0.123E-05-0.176E-21
CGA:   8    -0.202697169261E+04   -0.69949E-05   -0.69739E-05  1304   0.703E-05 0.738E-06
 gam= 0.283 trial= 0.522  step= 0.686 mean= 0.522
 gam= 0.336 g(H,U,f)=  0.229E-05 0.690E-07 0.715E-19 ort(H,U,f) =-0.572E-06 0.370E-07-0.474E-19
CGA:   9    -0.202697169505E+04   -0.24402E-05   -0.24841E-05  1304   0.236E-05-0.535E-06
 gam= 0.336 trial= 0.530  step= 0.462 mean= 0.530
 gam= 0.280 g(H,U,f)=  0.652E-06 0.879E-08 0.595E-18 ort(H,U,f) = 0.291E-06-0.168E-07-0.213E-18
CGA:  10    -0.202697169555E+04   -0.49530E-06   -0.50456E-06  1304   0.661E-06 0.275E-06
 gam= 0.280 trial= 0.527  step= 0.679 mean= 0.527
 gam= 0.480 g(H,U,f)=  0.300E-06 0.164E-07 0.154E-76 ort(H,U,f) =-0.112E-06-0.545E-08 0.417E-76
CGA:  11    -0.202697169579E+04   -0.24142E-06   -0.25054E-06  1304   0.317E-06-0.117E-06
 gam= 0.480 trial= 0.535  step= 0.425 mean= 0.535
 gam= 0.361 g(H,U,f)=  0.108E-06 0.642E-08 0.345E-75 ort(H,U,f) = 0.677E-07 0.533E-08 0.158E-74
CGA:  12    -0.202697169584E+04   -0.51587E-07   -0.55431E-07  1304   0.114E-06 0.730E-07
 gam= 0.361 trial= 0.529  step= 0.629 mean= 0.529
 final diagonalization
   4 F= -.20484215E+04 E0= -.20484215E+04  d E =-.507513E-04
 trial-energy change:   -0.000051  1 .order   -0.000044   -0.001462    0.001374
 step:   0.4572(harm=  0.4540)  dis= 0.00048  next Energy= -2048.421830 (dE=-0.380E-03)
 bond charge predicted
       N       E                     dE             d eps       ncg     rms          ort
 gam= 0.000 g(H,U,f)=  0.112E-01 0.557E-03 0.736E-67 ort(H,U,f) = 0.000E+00 0.000E+00 0.000E+00
SDA:   1    -0.202696567310E+04    0.60227E-02    0.00000E+00  1304   0.118E-01 0.000E+00
 gam= 0.000 trial= 0.534  step= 0.680 mean= 0.534
 gam= 0.318 g(H,U,f)=  0.352E-02 0.223E-03 0.916E-64 ort(H,U,f) = 0.168E-03-0.160E-03-0.168E-63
CGA:   2    -0.202696968086E+04   -0.40078E-02   -0.40072E-02  1304   0.375E-02 0.824E-05
 gam= 0.318 trial= 0.541  step= 0.530 mean= 0.541
 gam= 0.168 g(H,U,f)=  0.594E-03 0.352E-04 0.370E-61 ort(H,U,f) =-0.195E-05-0.357E-05-0.129E-61
CGA:   3    -0.202697067362E+04   -0.99277E-03   -0.99274E-03  1304   0.629E-03-0.552E-05
 gam= 0.168 trial= 0.541  step= 0.469 mean= 0.541
 gam= 0.186 g(H,U,f)=  0.110E-03 0.699E-05 0.450E-60 ort(H,U,f) =-0.975E-06 0.604E-05-0.402E-59
CGA:   4    -0.202697082074E+04   -0.14711E-03   -0.14729E-03  1304   0.117E-03 0.507E-05
 gam= 0.186 trial= 0.537  step= 0.561 mean= 0.537
 gam= 0.257 g(H,U,f)=  0.269E-04 0.318E-05 0.844E-57 ort(H,U,f) =-0.350E-05 0.456E-05 0.376E-57
CGA:   5    -0.202697085379E+04   -0.33051E-04   -0.33038E-04  1304   0.301E-04 0.106E-05
 gam= 0.257 trial= 0.538  step= 0.650 mean= 0.538
 gam= 0.496 g(H,U,f)=  0.137E-04 0.124E-05 0.796E-54 ort(H,U,f) =-0.441E-05 0.233E-05 0.153E-53
CGA:   6    -0.202697086354E+04   -0.97490E-05   -0.98653E-05  1304   0.149E-04-0.208E-05
 gam= 0.496 trial= 0.544  step= 0.491 mean= 0.544
 gam= 0.342 g(H,U,f)=  0.473E-05 0.369E-06 0.440E-54 ort(H,U,f) =-0.331E-06 0.110E-05 0.197E-52
CGA:   7    -0.202697086693E+04   -0.33903E-05   -0.34106E-05  1304   0.510E-05 0.773E-06
 gam= 0.342 trial= 0.541  step= 0.658 mean= 0.541
 gam= 0.319 g(H,U,f)=  0.156E-05 0.656E-07 0.597E-50 ort(H,U,f) =-0.294E-06 0.247E-06 0.264E-49
CGA:   8    -0.202697086869E+04   -0.17611E-05   -0.17639E-05  1304   0.163E-05-0.474E-07
 gam= 0.319 trial= 0.547  step= 0.662 mean= 0.547
 gam= 0.248 g(H,U,f)=  0.389E-06 0.137E-07 0.405E-48 ort(H,U,f) = 0.178E-07 0.119E-07 0.275E-47
CGA:   9    -0.202697086922E+04   -0.53502E-06   -0.53335E-06  1304   0.403E-06 0.297E-07
 gam= 0.248 trial= 0.553  step= 0.703 mean= 0.553
 gam= 0.347 g(H,U,f)=  0.134E-06 0.625E-08 0.318E-46 ort(H,U,f) =-0.273E-07-0.772E-08 0.189E-45
CGA:  10    -0.202697086936E+04   -0.14147E-06   -0.14414E-06  1304   0.140E-06-0.350E-07
 gam= 0.347 trial= 0.560  step= 0.743 mean= 0.560
 gam= 0.440 g(H,U,f)=  0.572E-07 0.432E-08 0.582E-45 ort(H,U,f) =-0.189E-07-0.298E-08 0.673E-44
CGA:  11    -0.202697086941E+04   -0.45664E-07   -0.47453E-07  1304   0.615E-07-0.219E-07
 gam= 0.440 trial= 0.570  step= 0.344 mean= 0.570
 final diagonalization
   5 F= -.20484218E+04 E0= -.20484218E+04  d E =-.381941E-03
 curvature:  -0.32 expect dE=-0.367E-03 dE for cont linesearch -0.144E-07
 trial: gam= 0.68637 g(F)=  0.113E-02 g(S)=  0.131E-04 ort =-0.103E-04 (trialstep = 0.796E+00)
 search vector abs. value=  0.224E-02
 bond charge predicted
       N       E                     dE             d eps       ncg     rms          ort
 gam= 0.000 g(H,U,f)=  0.357E-01 0.230E-02 0.310E-38 ort(H,U,f) = 0.000E+00 0.000E+00 0.000E+00
SDA:   1    -0.202695518021E+04    0.15689E-01    0.00000E+00  1304   0.380E-01 0.000E+00
 gam= 0.000 trial= 0.558  step= 0.661 mean= 0.558
 gam= 0.291 g(H,U,f)=  0.105E-01 0.614E-03 0.116E-35 ort(H,U,f) = 0.481E-03-0.469E-03-0.641E-36
CGA:   2    -0.202696774101E+04   -0.12561E-01   -0.12560E-01  1304   0.111E-01 0.124E-04
 gam= 0.291 trial= 0.563  step= 0.553 mean= 0.563
 gam= 0.152 g(H,U,f)=  0.163E-02 0.513E-04 0.212E-34 ort(H,U,f) =-0.746E-04 0.676E-04-0.219E-34
CGA:   3    -0.202697080660E+04   -0.30656E-02   -0.30656E-02  1304   0.168E-02-0.704E-05
 gam= 0.152 trial= 0.563  step= 0.490 mean= 0.563
 gam= 0.219 g(H,U,f)=  0.345E-03 0.228E-04 0.590E-36 ort(H,U,f) =-0.223E-04 0.328E-04 0.342E-34
CGA:   4    -0.202697121805E+04   -0.41145E-03   -0.41183E-03  1304   0.368E-03 0.104E-04
 gam= 0.219 trial= 0.559  step= 0.514 mean= 0.559
 gam= 0.299 g(H,U,f)=  0.978E-04 0.123E-04 0.168E-31 ort(H,U,f) =-0.252E-04 0.187E-04 0.128E-31
CGA:   5    -0.202697131346E+04   -0.95410E-04   -0.95265E-04  1304   0.110E-03-0.646E-05
 gam= 0.299 trial= 0.557  step= 0.522 mean= 0.557
 gam= 0.373 g(H,U,f)=  0.358E-04 0.519E-05 0.536E-30 ort(H,U,f) =-0.783E-05 0.110E-04 0.107E-29
CGA:   6    -0.202697134161E+04   -0.28148E-04   -0.28205E-04  1304   0.410E-04 0.321E-05
 gam= 0.373 trial= 0.555  step= 0.616 mean= 0.555
 gam= 0.440 g(H,U,f)=  0.166E-04 0.152E-05 0.564E-31 ort(H,U,f) =-0.554E-05 0.411E-05 0.341E-29
CGA:   7    -0.202697135457E+04   -0.12963E-04   -0.13007E-04  1304   0.181E-04-0.143E-05
 gam= 0.440 trial= 0.558  step= 0.580 mean= 0.558
 gam= 0.274 g(H,U,f)=  0.472E-05 0.233E-06 0.101E-26 ort(H,U,f) =-0.386E-07 0.123E-05 0.163E-26
CGA:   8    -0.202697135965E+04   -0.50764E-05   -0.50630E-05  1304   0.496E-05 0.119E-05
 gam= 0.274 trial= 0.559  step= 0.700 mean= 0.559
 gam= 0.444 g(H,U,f)=  0.216E-05 0.431E-07 0.902E-27 ort(H,U,f) =-0.894E-06 0.976E-07 0.126E-25
CGA:   9    -0.202697136144E+04   -0.17918E-05   -0.18476E-05  1304   0.220E-05-0.796E-06
 gam= 0.444 trial= 0.566  step= 0.362 mean= 0.566
 gam= 0.269 g(H,U,f)=  0.585E-06 0.524E-08 0.117E-26 ort(H,U,f) = 0.319E-06 0.232E-08 0.203E-25
CGA:  10    -0.202697136174E+04   -0.30101E-06   -0.33398E-06  1304   0.591E-06 0.321E-06
 gam= 0.269 trial= 0.556  step= 0.471 mean= 0.556
 gam= 0.327 g(H,U,f)=  0.185E-06 0.853E-08 0.218E-24 ort(H,U,f) = 0.612E-07-0.667E-08 0.304E-24
CGA:  11    -0.202697136190E+04   -0.15715E-06   -0.15946E-06  1304   0.193E-06 0.545E-07
 gam= 0.327 trial= 0.552  step= 1.510 mean= 0.552
 gam= 0.000 g(H,U,f)=  0.200E-05 0.372E-07 0.463E-22 ort(H,U,f) =-0.486E-06-0.102E-07-0.139E-21
CGA:  12    -0.202697136182E+04    0.78595E-07   -0.15938E-06  1304   0.204E-05-0.497E-06
 gam= 0.000 trial= 0.600  step= 0.204 mean= 0.600
 gam= 0.092 g(H,U,f)=  0.184E-06 0.350E-08 0.721E-23 ort(H,U,f) = 0.352E-06 0.682E-08 0.255E-22
CGA:  13    -0.202697136195E+04   -0.13745E-06   -0.20833E-06  1304   0.187E-06 0.359E-06
 gam= 0.092 trial= 0.580  step= 0.298 mean= 0.580
 gam= 0.403 g(H,U,f)=  0.734E-07 0.191E-08 0.598E-24 ort(H,U,f) = 0.649E-07 0.138E-08-0.387E-23
CGA:  14    -0.202697136198E+04   -0.23509E-07   -0.32822E-07  1304   0.753E-07 0.663E-07
 gam= 0.403 trial= 0.566  step= 0.928 mean= 0.566
 final diagonalization
   6 F= -.20484221E+04 E0= -.20484221E+04  d E =-.292855E-03
 trial-energy change:   -0.000293  1 .order   -0.000294   -0.000904    0.000316
 step:   0.5897(harm=  0.5897)  dis= 0.00055  next Energy= -2048.422167 (dE=-0.335E-03)
 bond charge predicted
       N       E                     dE             d eps       ncg     rms          ort
 gam= 0.000 g(H,U,f)=  0.240E-02 0.154E-03 0.239E-17 ort(H,U,f) = 0.000E+00 0.000E+00 0.000E+00
SDA:   1    -0.202697026476E+04    0.10972E-02    0.00000E+00  1304   0.255E-02 0.000E+00
 gam= 0.000 trial= 0.584  step= 0.663 mean= 0.584
 gam= 0.292 g(H,U,f)=  0.703E-03 0.413E-04 0.216E-20 ort(H,U,f) = 0.288E-04-0.315E-04-0.800E-21
CGA:   2    -0.202697110951E+04   -0.84475E-03   -0.84486E-03  1304   0.744E-03-0.274E-05
 gam= 0.292 trial= 0.588  step= 0.552 mean= 0.588
 gam= 0.147 g(H,U,f)=  0.106E-03 0.344E-05 0.225E-18 ort(H,U,f) =-0.317E-05 0.459E-05-0.563E-19
CGA:   3    -0.202697131469E+04   -0.20518E-03   -0.20520E-03  1304   0.110E-03 0.142E-05
 gam= 0.147 trial= 0.586  step= 0.512 mean= 0.586
 gam= 0.228 g(H,U,f)=  0.235E-04 0.150E-05 0.974E-20 ort(H,U,f) =-0.443E-05 0.214E-05 0.118E-18
CGA:   4    -0.202697134290E+04   -0.28204E-04   -0.28119E-04  1304   0.250E-04-0.229E-05
 gam= 0.228 trial= 0.582  step= 0.482 mean= 0.582
 gam= 0.239 g(H,U,f)=  0.519E-05 0.787E-06 0.308E-29 ort(H,U,f) = 0.895E-07 0.130E-05 0.185E-29
CGA:   5    -0.202697134873E+04   -0.58277E-05   -0.58973E-05  1304   0.598E-05 0.139E-05
 gam= 0.239 trial= 0.577  step= 0.675 mean= 0.577
 gam= 0.559 g(H,U,f)=  0.304E-05 0.300E-06 0.462E-28 ort(H,U,f) =-0.130E-05 0.608E-06 0.108E-27
CGA:   6    -0.202697135082E+04   -0.20971E-05   -0.21308E-05  1304   0.334E-05-0.692E-06
 gam= 0.559 trial= 0.582  step= 0.456 mean= 0.582
 gam= 0.327 g(H,U,f)=  0.101E-05 0.873E-07 0.294E-28 ort(H,U,f) = 0.742E-07 0.327E-06 0.323E-27
CGA:   7    -0.202697135147E+04   -0.64888E-06   -0.67405E-06  1304   0.109E-05 0.401E-06
 gam= 0.327 trial= 0.576  step= 0.692 mean= 0.576
 gam= 0.437 g(H,U,f)=  0.464E-06 0.146E-07 0.814E-26 ort(H,U,f) =-0.233E-06 0.586E-07 0.155E-25
CGA:   8    -0.202697135189E+04   -0.41346E-06   -0.42374E-06  1304   0.479E-06-0.174E-06
 gam= 0.437 trial= 0.582  step= 0.744 mean= 0.582
 gam= 0.491 g(H,U,f)=  0.232E-06 0.348E-08 0.675E-26 ort(H,U,f) =-0.101E-06-0.106E-07 0.888E-25
CGA:   9    -0.202697135203E+04   -0.14068E-06   -0.14971E-06  1304   0.235E-06-0.112E-06
 gam= 0.491 trial= 0.590  step= 0.191 mean= 0.590
 gam= 0.430 g(H,U,f)=  0.987E-07 0.248E-08 0.682E-27 ort(H,U,f) = 0.906E-07-0.520E-08 0.245E-25
CGA:  10    -0.202697135203E+04   -0.30559E-09   -0.17210E-07  1304   0.101E-06 0.854E-07
 gam= 0.430 trial= 0.570  step= 0.160 mean= 0.570
 final diagonalization
   7 F= -.20484222E+04 E0= -.20484222E+04  d E =-.334773E-03
 curvature:  -0.58 expect dE=-0.546E-03 dE for cont linesearch -0.760E-09
 trial: gam= 0.80936 g(F)=  0.925E-03 g(S)=  0.156E-04 ort = 0.171E-05 (trialstep = 0.701E+00)
 search vector abs. value=  0.241E-02
 bond charge predicted
       N       E                     dE             d eps       ncg     rms          ort
 gam= 0.000 g(H,U,f)=  0.300E-01 0.240E-02 0.132E-19 ort(H,U,f) = 0.000E+00 0.000E+00 0.000E+00
SDA:   1    -0.202695869577E+04    0.12656E-01    0.00000E+00  1304   0.324E-01 0.000E+00
 gam= 0.000 trial= 0.549  step= 0.605 mean= 0.549
 gam= 0.281 g(H,U,f)=  0.857E-02 0.535E-03 0.686E-19 ort(H,U,f) = 0.453E-03-0.441E-03-0.596E-19
CGA:   2    -0.202696850922E+04   -0.98135E-02   -0.98131E-02  1304   0.910E-02 0.114E-04
 gam= 0.281 trial= 0.552  step= 0.572 mean= 0.552
 gam= 0.167 g(H,U,f)=  0.147E-02 0.501E-04 0.842E-18 ort(H,U,f) =-0.469E-04 0.315E-04-0.117E-17
CGA:   3    -0.202697111314E+04   -0.26039E-02   -0.26041E-02  1304   0.152E-02-0.155E-04
 gam= 0.167 trial= 0.553  step= 0.476 mean= 0.553
 gam= 0.216 g(H,U,f)=  0.309E-03 0.193E-04 0.394E-17 ort(H,U,f) =-0.858E-05 0.179E-04-0.389E-17
CGA:   4    -0.202697147365E+04   -0.36051E-03   -0.36087E-03  1304   0.328E-03 0.930E-05
 gam= 0.216 trial= 0.549  step= 0.514 mean= 0.549
 gam= 0.270 g(H,U,f)=  0.796E-04 0.909E-05 0.349E-17 ort(H,U,f) =-0.190E-04 0.135E-04 0.125E-16
CGA:   5    -0.202697155859E+04   -0.84937E-04   -0.84840E-04  1304   0.887E-04-0.549E-05
 gam= 0.270 trial= 0.548  step= 0.514 mean= 0.548
 gam= 0.360 g(H,U,f)=  0.281E-04 0.388E-05 0.110E-20 ort(H,U,f) =-0.455E-05 0.764E-05 0.154E-19
CGA:   6    -0.202697158093E+04   -0.22342E-04   -0.22395E-04  1304   0.320E-04 0.309E-05
 gam= 0.360 trial= 0.546  step= 0.635 mean= 0.546
 gam= 0.457 g(H,U,f)=  0.133E-04 0.131E-05 0.159E-18 ort(H,U,f) =-0.517E-05 0.290E-05 0.306E-18
CGA:   7    -0.202697159134E+04   -0.10411E-04   -0.10512E-04  1304   0.146E-04-0.227E-05
 gam= 0.457 trial= 0.550  step= 0.562 mean= 0.550
 gam= 0.250 g(H,U,f)=  0.346E-05 0.193E-06 0.326E-80 ort(H,U,f) = 0.420E-06 0.965E-06 0.482E-78
CGA:   8    -0.202697159516E+04   -0.38219E-05   -0.38140E-05  1304   0.365E-05 0.139E-05
 gam= 0.250 trial= 0.551  step= 0.728 mean= 0.551
 gam= 0.404 g(H,U,f)=  0.143E-05 0.421E-07 0.505E-74 ort(H,U,f) =-0.587E-06 0.979E-07-0.653E-74
CGA:   9    -0.202697159657E+04   -0.14106E-05   -0.14540E-05  1304   0.148E-05-0.489E-06
 gam= 0.404 trial= 0.560  step= 0.403 mean= 0.560
 gam= 0.278 g(H,U,f)=  0.406E-06 0.405E-08 0.139E-73 ort(H,U,f) = 0.252E-06 0.107E-07 0.233E-73
CGA:  10    -0.202697159681E+04   -0.23691E-06   -0.25752E-06  1304   0.410E-06 0.262E-06
 gam= 0.278 trial= 0.552  step= 0.538 mean= 0.552
 gam= 0.324 g(H,U,f)=  0.125E-06 0.753E-08 0.505E-74 ort(H,U,f) =-0.429E-08-0.409E-08 0.111E-72
CGA:  11    -0.202697159694E+04   -0.12994E-06   -0.12995E-06  1304   0.133E-06-0.838E-08
 gam= 0.324 trial= 0.551  step= 3.161 mean= 0.551
 gam= 0.324 trial= 3.583  step= 3.583 mean= 0.870
 gam= 0.000 g(H,U,f)=  0.384E-05 0.220E-06 0.268E-59 ort(H,U,f) =-0.607E-06-0.328E-07 0.312E-60
CGA:  12    -0.202697159620E+04    0.74105E-06    0.25337E+03  1304   0.406E-05-0.640E-06
 gam= 0.000 trial= 1.005  step= 0.332 mean= 1.005
 gam= 0.147 g(H,U,f)=  0.581E-06 0.141E-07 0.373E-60 ort(H,U,f) = 0.355E-06 0.172E-07-0.170E-59
CGA:  13    -0.202697159675E+04   -0.54867E-06   -0.67377E-06  1304   0.595E-06 0.372E-06
 gam= 0.147 trial= 0.972  step= 0.646 mean= 0.972
 gam= 0.450 g(H,U,f)=  0.251E-06 0.165E-07 0.137E-58 ort(H,U,f) =-0.141E-06-0.102E-07 0.221E-59
CGA:  14    -0.202697159698E+04   -0.23429E-06   -0.20978E-06  1304   0.268E-06-0.151E-06
 gam= 0.450 trial= 0.955  step= 0.369 mean= 0.955
 gam= 0.313 g(H,U,f)=  0.810E-07 0.279E-08 0.324E-59 ort(H,U,f) = 0.487E-07 0.471E-08 0.133E-58
CGA:  15    -0.202697159700E+04   -0.21289E-07   -0.36790E-07  1304   0.837E-07 0.534E-07
 gam= 0.313 trial= 0.926  step= 0.315 mean= 0.926
 final diagonalization
   8 F= -.20484225E+04 E0= -.20484225E+04  d E =-.309371E-03
 trial-energy change:   -0.000309  1 .order   -0.000313   -0.000660    0.000034
 step:   0.6657(harm=  0.6667)  dis= 0.00071  next Energy= -2048.422477 (dE=-0.310E-03)
 bond charge predicted
       N       E                     dE             d eps       ncg     rms          ort
 gam= 0.000 g(H,U,f)=  0.759E-04 0.611E-05 0.252E-56 ort(H,U,f) = 0.000E+00 0.000E+00 0.000E+00
SDA:   1    -0.202697156866E+04    0.28320E-04    0.00000E+00  1304   0.820E-04 0.000E+00
 gam= 0.000 trial= 0.896  step= 0.608 mean= 0.896
 gam= 0.285 g(H,U,f)=  0.220E-04 0.138E-05 0.233E-55 ort(H,U,f) = 0.727E-06-0.113E-05-0.211E-55
CGA:   2    -0.202697159364E+04   -0.24982E-04   -0.24925E-04  1304   0.234E-04-0.400E-06
 gam= 0.285 trial= 0.881  step= 0.552 mean= 0.881
 gam= 0.159 g(H,U,f)=  0.360E-05 0.128E-06 0.935E-55 ort(H,U,f) = 0.420E-06 0.124E-06-0.140E-54
CGA:   3    -0.202697159998E+04   -0.63347E-05   -0.64244E-05  1304   0.373E-05 0.544E-06
 gam= 0.159 trial= 0.865  step= 0.525 mean= 0.865
 gam= 0.304 g(H,U,f)=  0.108E-05 0.572E-07 0.243E-53 ort(H,U,f) =-0.408E-06 0.441E-07-0.189E-53
CGA:   4    -0.202697160104E+04   -0.10637E-05   -0.10020E-05  1304   0.113E-05-0.364E-06
 gam= 0.304 trial= 0.848  step= 0.365 mean= 0.848
 gam= 0.198 g(H,U,f)=  0.201E-06 0.243E-07 0.529E-53 ort(H,U,f) = 0.145E-06 0.462E-07 0.924E-53
CGA:   5    -0.202697160118E+04   -0.14096E-06   -0.18697E-06  1304   0.225E-06 0.191E-06
 gam= 0.198 trial= 0.824  step= 0.512 mean= 0.824
 gam= 0.436 g(H,U,f)=  0.841E-07 0.141E-07 0.303E-52 ort(H,U,f) =-0.126E-07 0.203E-07-0.958E-52
CGA:   6    -0.202697160125E+04   -0.65993E-07   -0.67366E-07  1304   0.982E-07 0.776E-08
 gam= 0.436 trial= 0.808  step= 1.150 mean= 0.808
 final diagonalization
   9 F= -.20484225E+04 E0= -.20484225E+04  d E =-.310406E-03
 curvature:  -0.85 expect dE=-0.106E-02 dE for cont linesearch -0.266E-09
 trial: gam= 1.33090 g(F)=  0.123E-02 g(S)=  0.778E-05 ort = 0.867E-06 (trialstep = 0.303E+00)
 search vector abs. value=  0.551E-02
 bond charge predicted
       N       E                     dE             d eps       ncg     rms          ort
 gam= 0.000 g(H,U,f)=  0.135E-01 0.114E-02 0.178E-46 ort(H,U,f) = 0.000E+00 0.000E+00 0.000E+00
SDA:   1    -0.202696620826E+04    0.53929E-02    0.00000E+00  1304   0.147E-01 0.000E+00
 gam= 0.000 trial= 0.825  step= 0.590 mean= 0.825
 gam= 0.268 g(H,U,f)=  0.371E-02 0.226E-03 0.122E-44 ort(H,U,f) = 0.183E-03-0.181E-03-0.464E-45
CGA:   2    -0.202697053038E+04   -0.43221E-02   -0.43224E-02  1304   0.393E-02 0.244E-05
 gam= 0.268 trial= 0.813  step= 0.580 mean= 0.813
 gam= 0.152 g(H,U,f)=  0.581E-03 0.154E-04 0.616E-46 ort(H,U,f) =-0.239E-04 0.198E-04 0.269E-45
CGA:   3    -0.202697167080E+04   -0.11404E-02   -0.11399E-02  1304   0.597E-03-0.418E-05
 gam= 0.152 trial= 0.802  step= 0.502 mean= 0.802
 gam= 0.210 g(H,U,f)=  0.117E-03 0.808E-05 0.770E-41 ort(H,U,f) =-0.648E-05 0.854E-05 0.886E-42
CGA:   4    -0.202697182000E+04   -0.14920E-03   -0.14951E-03  1304   0.125E-03 0.206E-05
 gam= 0.210 trial= 0.787  step= 0.535 mean= 0.787
 gam= 0.249 g(H,U,f)=  0.275E-04 0.368E-05 0.769E-40 ort(H,U,f) =-0.712E-05 0.557E-05 0.205E-39
CGA:   5    -0.202697185380E+04   -0.33794E-04   -0.33600E-04  1304   0.311E-04-0.155E-05
 gam= 0.249 trial= 0.774  step= 0.587 mean= 0.774
 gam= 0.369 g(H,U,f)=  0.101E-04 0.139E-05 0.266E-38 ort(H,U,f) =-0.191E-05 0.291E-05 0.628E-38
CGA:   6    -0.202697186273E+04   -0.89382E-05   -0.90314E-05  1304   0.115E-04 0.998E-06
 gam= 0.369 trial= 0.765  step= 0.635 mean= 0.765
 gam= 0.571 g(H,U,f)=  0.611E-05 0.452E-06 0.885E-37 ort(H,U,f) =-0.213E-05 0.113E-05 0.236E-36
CGA:   7    -0.202697186657E+04   -0.38306E-05   -0.37650E-05  1304   0.656E-05-0.100E-05
 gam= 0.571 trial= 0.758  step= 0.462 mean= 0.758
 gam= 0.244 g(H,U,f)=  0.153E-05 0.716E-07 0.247E-36 ort(H,U,f) = 0.248E-06 0.419E-06 0.153E-35
CGA:   8    -0.202697186785E+04   -0.12860E-05   -0.13848E-05  1304   0.160E-05 0.668E-06
 gam= 0.244 trial= 0.743  step= 0.636 mean= 0.743
 gam= 0.299 g(H,U,f)=  0.465E-06 0.137E-07 0.544E-36 ort(H,U,f) =-0.488E-07 0.502E-07 0.366E-35
CGA:   9    -0.202697186841E+04   -0.56091E-06   -0.56105E-06  1304   0.479E-06 0.139E-08
 gam= 0.299 trial= 0.738  step= 0.844 mean= 0.738
 gam= 0.000 g(H,U,f)=  0.556E-06 0.170E-07 0.255E-38 ort(H,U,f) =-0.254E-06-0.131E-07 0.366E-36
CGA:  10    -0.202697186860E+04   -0.18803E-06   -0.20222E-06  1304   0.573E-06-0.267E-06
 gam= 0.000 trial= 0.743  step= 0.198 mean= 0.743
 gam= 0.149 g(H,U,f)=  0.827E-07 0.290E-08 0.251E-37 ort(H,U,f) = 0.172E-06 0.593E-08 0.882E-38
CGA:  11    -0.202697186861E+04   -0.81782E-08   -0.56732E-07  1304   0.856E-07 0.178E-06
 gam= 0.149 trial= 0.716  step= 0.182 mean= 0.716
 final diagonalization
  10 F= -.20484228E+04 E0= -.20484228E+04  d E =-.327869E-03
 trial-energy change:   -0.000328  1 .order   -0.000330   -0.000377   -0.000282
 step:   1.2102(harm=  1.2102)  dis= 0.00223  next Energy= -2048.423229 (dE=-0.752E-03)
 bond charge predicted
       N       E                     dE             d eps       ncg     rms          ort
 gam= 0.000 g(H,U,f)=  0.121E+00 0.102E-01 0.226E-31 ort(H,U,f) = 0.000E+00 0.000E+00 0.000E+00
SDA:   1    -0.202692150337E+04    0.50365E-01    0.00000E+00  1304   0.131E+00 0.000E+00
 gam= 0.000 trial= 0.689  step= 0.590 mean= 0.689
 gam= 0.268 g(H,U,f)=  0.331E-01 0.201E-02 0.209E-30 ort(H,U,f) = 0.162E-02-0.162E-02-0.701E-31
CGA:   2    -0.202696016239E+04   -0.38659E-01   -0.38659E-01  1304   0.351E-01 0.884E-05
 gam= 0.268 trial= 0.684  step= 0.580 mean= 0.684
 gam= 0.150 g(H,U,f)=  0.512E-02 0.135E-03 0.587E-32 ort(H,U,f) =-0.193E-03 0.179E-03 0.838E-31
CGA:   3    -0.202697034733E+04   -0.10185E-01   -0.10184E-01  1304   0.526E-02-0.137E-04
 gam= 0.150 trial= 0.679  step= 0.508 mean= 0.679
 gam= 0.209 g(H,U,f)=  0.103E-02 0.721E-04 0.177E-28 ort(H,U,f) =-0.704E-04 0.768E-04 0.269E-29
CGA:   4    -0.202697168170E+04   -0.13344E-02   -0.13349E-02  1304   0.110E-02 0.642E-05
 gam= 0.209 trial= 0.671  step= 0.537 mean= 0.671
 gam= 0.241 g(H,U,f)=  0.232E-03 0.324E-04 0.462E-28 ort(H,U,f) =-0.537E-04 0.493E-04 0.124E-27
CGA:   5    -0.202697197691E+04   -0.29521E-03   -0.29492E-03  1304   0.264E-03-0.442E-05
 gam= 0.241 trial= 0.664  step= 0.626 mean= 0.664
 gam= 0.376 g(H,U,f)=  0.878E-04 0.117E-04 0.382E-27 ort(H,U,f) =-0.217E-04 0.246E-04 0.872E-27
CGA:   6    -0.202697205922E+04   -0.82311E-04   -0.82364E-04  1304   0.994E-04 0.284E-05
 gam= 0.376 trial= 0.662  step= 0.619 mean= 0.662
 gam= 0.514 g(H,U,f)=  0.475E-04 0.361E-05 0.174E-26 ort(H,U,f) =-0.128E-04 0.983E-05 0.520E-26
CGA:   7    -0.202697209040E+04   -0.31176E-04   -0.31112E-04  1304   0.511E-04-0.301E-05
 gam= 0.514 trial= 0.660  step= 0.499 mean= 0.660
 gam= 0.278 g(H,U,f)=  0.136E-04 0.645E-06 0.196E-26 ort(H,U,f) =-0.806E-06 0.321E-05 0.117E-25
CGA:   8    -0.202697210258E+04   -0.12186E-04   -0.12379E-04  1304   0.142E-04 0.240E-05
 gam= 0.278 trial= 0.652  step= 0.665 mean= 0.652
 gam= 0.252 g(H,U,f)=  0.351E-05 0.751E-07 0.305E-26 ort(H,U,f) =-0.987E-06 0.330E-06 0.178E-25
CGA:   9    -0.202697210754E+04   -0.49526E-05   -0.49569E-05  1304   0.359E-05-0.657E-06
 gam= 0.252 trial= 0.653  step= 0.623 mean= 0.653
 gam= 0.229 g(H,U,f)=  0.796E-06 0.260E-07 0.179E-27 ort(H,U,f) = 0.245E-06-0.230E-07-0.402E-26
CGA:  10    -0.202697210860E+04   -0.10626E-05   -0.10660E-05  1304   0.822E-06 0.222E-06
 gam= 0.229 trial= 0.651  step= 0.663 mean= 0.651
 gam= 0.479 g(H,U,f)=  0.381E-06 0.129E-07 0.733E-26 ort(H,U,f) =-0.282E-07-0.650E-08 0.100E-25
CGA:  11    -0.202697210889E+04   -0.28894E-06   -0.28927E-06  1304   0.394E-06-0.347E-07
 gam= 0.479 trial= 0.652  step= 0.465 mean= 0.652
 gam= 0.359 g(H,U,f)=  0.136E-06 0.487E-08 0.829E-27 ort(H,U,f) = 0.404E-07 0.935E-09 0.646E-26
CGA:  12    -0.202697210897E+04   -0.83630E-07   -0.87648E-07  1304   0.141E-06 0.413E-07
 gam= 0.359 trial= 0.642  step= 0.759 mean= 0.642
 final diagonalization
  11 F= -.20484232E+04 E0= -.20484232E+04  d E =-.748853E-03
 curvature:  -2.68 expect dE=-0.972E-02 dE for cont linesearch -0.329E-07
 trial: gam= 2.90793 g(F)=  0.356E-02 g(S)=  0.573E-04 ort = 0.822E-05 (trialstep = 0.531E-01)
 search vector abs. value=  0.503E-01
 bond charge predicted
       N       E                     dE             d eps       ncg     rms          ort
 gam= 0.000 g(H,U,f)=  0.382E-02 0.330E-03 0.392E-22 ort(H,U,f) = 0.000E+00 0.000E+00 0.000E+00
SDA:   1    -0.202697080114E+04    0.13077E-02    0.00000E+00  1304   0.415E-02 0.000E+00
 gam= 0.000 trial= 0.648  step= 0.582 mean= 0.648
 gam= 0.263 g(H,U,f)=  0.103E-02 0.623E-04 0.434E-22 ort(H,U,f) = 0.497E-04-0.495E-04-0.593E-22
CGA:   2    -0.202697200696E+04   -0.12058E-02   -0.12058E-02  1304   0.109E-02 0.251E-06
 gam= 0.263 trial= 0.645  step= 0.585 mean= 0.645
 gam= 0.150 g(H,U,f)=  0.159E-03 0.425E-05 0.187E-21 ort(H,U,f) =-0.627E-05 0.539E-05-0.103E-21
CGA:   3    -0.202697232628E+04   -0.31932E-03   -0.31929E-03  1304   0.164E-03-0.878E-06
 gam= 0.150 trial= 0.642  step= 0.508 mean= 0.642
 gam= 0.208 g(H,U,f)=  0.317E-04 0.227E-05 0.466E-21 ort(H,U,f) =-0.231E-05 0.230E-05-0.444E-21
CGA:   4    -0.202697236780E+04   -0.41522E-04   -0.41520E-04  1304   0.340E-04-0.165E-07
 gam= 0.208 trial= 0.635  step= 0.545 mean= 0.635
 gam= 0.229 g(H,U,f)=  0.678E-05 0.980E-06 0.428E-23 ort(H,U,f) =-0.161E-05 0.149E-05-0.725E-22
CGA:   5    -0.202697237706E+04   -0.92565E-05   -0.92507E-05  1304   0.776E-05-0.127E-06
 gam= 0.229 trial= 0.631  step= 0.661 mean= 0.631
 gam= 0.346 g(H,U,f)=  0.235E-05 0.336E-06 0.255E-21 ort(H,U,f) =-0.632E-06 0.712E-06 0.205E-21
CGA:   6    -0.202697237961E+04   -0.25575E-05   -0.25562E-05  1304   0.269E-05 0.807E-07
 gam= 0.346 trial= 0.632  step= 0.734 mean= 0.632
 gam= 0.551 g(H,U,f)=  0.140E-05 0.786E-07 0.218E-21 ort(H,U,f) =-0.434E-06 0.231E-06 0.687E-21
CGA:   7    -0.202697238060E+04   -0.98521E-06   -0.99555E-06  1304   0.148E-05-0.203E-06
 gam= 0.551 trial= 0.637  step= 0.410 mean= 0.637
 gam= 0.277 g(H,U,f)=  0.394E-06 0.161E-07 0.447E-22 ort(H,U,f) = 0.129E-06 0.883E-07 0.415E-21
CGA:   8    -0.202697238086E+04   -0.25595E-06   -0.28060E-06  1304   0.410E-06 0.218E-06
 gam= 0.277 trial= 0.626  step= 0.636 mean= 0.626
 gam= 0.342 g(H,U,f)=  0.137E-06 0.300E-08 0.144E-21 ort(H,U,f) =-0.453E-07 0.996E-08 0.532E-21
CGA:   9    -0.202697238101E+04   -0.14951E-06   -0.14953E-06  1304   0.140E-06-0.353E-07
 gam= 0.342 trial= 0.626  step= 0.824 mean= 0.626
 gam= 1.062 g(H,U,f)=  0.145E-06 0.381E-08 0.599E-21 ort(H,U,f) =-0.646E-07-0.467E-08-0.138E-20
CGA:  10    -0.202697238105E+04   -0.45788E-07   -0.52875E-07  1304   0.149E-06-0.693E-07
 gam= 1.062 trial= 0.636  step= 0.165 mean= 0.636
 final diagonalization
  12 F= -.20484234E+04 E0= -.20484234E+04  d E =-.188672E-03
 ZBRENT: can't locate minimum, use default step
 trial-energy change:   -0.000189  1 .order   -0.000188   -0.000194   -0.000182
 step:   0.2125(harm=  0.8727)  dis= 0.00126  next Energy= -2048.424816 (dE=-0.159E-02)
 bond charge predicted
       N       E                     dE             d eps       ncg     rms          ort
 gam= 0.000 g(H,U,f)=  0.343E-01 0.297E-02 0.261E-16 ort(H,U,f) = 0.000E+00 0.000E+00 0.000E+00
SDA:   1    -0.202695890870E+04    0.13472E-01    0.00000E+00  1304   0.373E-01 0.000E+00
 gam= 0.000 trial= 0.613  step= 0.582 mean= 0.613
 gam= 0.263 g(H,U,f)=  0.926E-02 0.562E-03 0.208E-16 ort(H,U,f) = 0.446E-03-0.445E-03-0.286E-16
CGA:   2    -0.202696976291E+04   -0.10854E-01   -0.10854E-01  1304   0.983E-02 0.113E-05
 gam= 0.263 trial= 0.611  step= 0.585 mean= 0.611
 gam= 0.149 g(H,U,f)=  0.143E-02 0.388E-04 0.771E-16 ort(H,U,f) =-0.519E-04 0.491E-04-0.419E-16
CGA:   3    -0.202697263647E+04   -0.28736E-02   -0.28735E-02  1304   0.147E-02-0.285E-05
 gam= 0.149 trial= 0.610  step= 0.508 mean= 0.610
 gam= 0.209 g(H,U,f)=  0.286E-03 0.207E-04 0.130E-15 ort(H,U,f) =-0.208E-04 0.209E-04-0.123E-15
CGA:   4    -0.202697300938E+04   -0.37291E-03   -0.37292E-03  1304   0.307E-03 0.956E-07
 gam= 0.209 trial= 0.605  step= 0.541 mean= 0.605
 gam= 0.229 g(H,U,f)=  0.614E-04 0.892E-05 0.161E-20 ort(H,U,f) =-0.141E-04 0.137E-04 0.172E-19
CGA:   5    -0.202697309228E+04   -0.82904E-04   -0.82890E-04  1304   0.703E-04-0.430E-06
 gam= 0.229 trial= 0.602  step= 0.661 mean= 0.602
 gam= 0.354 g(H,U,f)=  0.218E-04 0.306E-05 0.307E-19 ort(H,U,f) =-0.625E-05 0.655E-05 0.412E-19
CGA:   6    -0.202697311551E+04   -0.23228E-04   -0.23219E-04  1304   0.249E-04 0.297E-06
 gam= 0.354 trial= 0.604  step= 0.687 mean= 0.604
 gam= 0.494 g(H,U,f)=  0.115E-04 0.785E-06 0.391E-19 ort(H,U,f) =-0.294E-05 0.233E-05 0.927E-19
CGA:   7    -0.202697312407E+04   -0.85541E-05   -0.85795E-05  1304   0.123E-04-0.616E-06
 gam= 0.494 trial= 0.609  step= 0.478 mean= 0.609
 gam= 0.317 g(H,U,f)=  0.373E-05 0.162E-06 0.181E-19 ort(H,U,f) =-0.147E-07 0.766E-06 0.612E-19
CGA:   8    -0.202697312688E+04   -0.28117E-05   -0.28607E-05  1304   0.389E-05 0.752E-06
 gam= 0.317 trial= 0.602  step= 0.632 mean= 0.602
 gam= 0.279 g(H,U,f)=  0.106E-05 0.205E-07 0.232E-19 ort(H,U,f) =-0.416E-06 0.819E-07 0.160E-19
CGA:   9    -0.202697312818E+04   -0.13011E-05   -0.13061E-05  1304   0.109E-05-0.334E-06
 gam= 0.279 trial= 0.604  step= 0.544 mean= 0.604
 gam= 0.214 g(H,U,f)=  0.227E-06 0.466E-08 0.568E-32 ort(H,U,f) = 0.143E-06-0.560E-08-0.653E-31
CGA:  10    -0.202697312844E+04   -0.26578E-06   -0.27006E-06  1304   0.232E-06 0.137E-06
 gam= 0.214 trial= 0.601  step= 0.907 mean= 0.601
 gam= 0.880 g(H,U,f)=  0.199E-06 0.529E-08 0.557E-33 ort(H,U,f) =-0.103E-06-0.310E-08 0.630E-32
CGA:  11    -0.202697312855E+04   -0.10210E-06   -0.11859E-06  1304   0.204E-06-0.106E-06
 gam= 0.880 trial= 0.616  step= 0.236 mean= 0.616
 gam= 0.608 g(H,U,f)=  0.121E-06 0.300E-08 0.137E-33 ort(H,U,f) = 0.467E-07 0.983E-09 0.351E-32
CGA:  12    -0.202697312855E+04   -0.38999E-08   -0.13028E-07  1304   0.124E-06 0.477E-07
 gam= 0.608 trial= 0.597  step= 0.236 mean= 0.597
 final diagonalization
  13 F= -.20484239E+04 E0= -.20484239E+04  d E =-.686215E-03
 curvature:  -2.11 expect dE=-0.505E-02 dE for cont linesearch -0.331E-03
 ZBRENT: increasing intervall
 opt :   0.5313  next Energy= -2048.424610 (dE=-0.138E-02)
 bond charge predicted
       N       E                     dE             d eps       ncg     rms          ort
 gam= 0.000 g(H,U,f)=  0.137E+00 0.119E-01 0.410E-25 ort(H,U,f) = 0.000E+00 0.000E+00 0.000E+00
SDA:   1    -0.202691744612E+04    0.55682E-01    0.00000E+00  1304   0.149E+00 0.000E+00
 gam= 0.000 trial= 0.579  step= 0.582 mean= 0.579
 gam= 0.263 g(H,U,f)=  0.370E-01 0.225E-02 0.165E-25 ort(H,U,f) = 0.178E-02-0.178E-02-0.227E-25
CGA:   2    -0.202696086108E+04   -0.43415E-01   -0.43415E-01  1304   0.393E-01 0.351E-05
 gam= 0.263 trial= 0.579  step= 0.585 mean= 0.579
 gam= 0.149 g(H,U,f)=  0.570E-02 0.155E-03 0.595E-25 ort(H,U,f) =-0.203E-03 0.197E-03-0.324E-25
CGA:   3    -0.202697234979E+04   -0.11489E-01   -0.11489E-01  1304   0.586E-02-0.576E-05
 gam= 0.149 trial= 0.579  step= 0.509 mean= 0.579
 gam= 0.209 g(H,U,f)=  0.114E-02 0.830E-04 0.606E-25 ort(H,U,f) =-0.839E-04 0.839E-04-0.570E-25
CGA:   4    -0.202697383989E+04   -0.14901E-02   -0.14901E-02  1304   0.122E-02 0.545E-07
 gam= 0.209 trial= 0.576  step= 0.542 mean= 0.576
 gam= 0.227 g(H,U,f)=  0.242E-03 0.356E-04 0.885E-27 ort(H,U,f) =-0.551E-04 0.547E-04-0.181E-25
CGA:   5    -0.202697417124E+04   -0.33136E-03   -0.33135E-03  1304   0.277E-03-0.436E-06
 gam= 0.227 trial= 0.574  step= 0.673 mean= 0.574
 gam= 0.347 g(H,U,f)=  0.842E-04 0.120E-04 0.875E-25 ort(H,U,f) =-0.255E-04 0.258E-04 0.747E-25
CGA:   6    -0.202697426462E+04   -0.93373E-04   -0.93362E-04  1304   0.962E-04 0.238E-06
 gam= 0.347 trial= 0.579  step= 0.708 mean= 0.579
 gam= 0.447 g(H,U,f)=  0.402E-04 0.281E-05 0.861E-25 ort(H,U,f) =-0.958E-05 0.882E-05 0.279E-24
CGA:   7    -0.202697429866E+04   -0.34043E-04   -0.34093E-04  1304   0.430E-04-0.765E-06
 gam= 0.447 trial= 0.586  step= 0.523 mean= 0.586
 gam= 0.368 g(H,U,f)=  0.152E-04 0.604E-06 0.155E-25 ort(H,U,f) =-0.116E-05 0.255E-05 0.164E-24
CGA:   8    -0.202697430977E+04   -0.11108E-04   -0.11152E-04  1304   0.158E-04 0.139E-05
 gam= 0.368 trial= 0.582  step= 0.557 mean= 0.582
 gam= 0.268 g(H,U,f)=  0.416E-05 0.773E-07 0.502E-25 ort(H,U,f) =-0.111E-05 0.321E-06 0.238E-24
CGA:   9    -0.202697431433E+04   -0.45579E-05   -0.45479E-05  1304   0.424E-05-0.793E-06
 gam= 0.268 trial= 0.581  step= 0.548 mean= 0.581
 gam= 0.235 g(H,U,f)=  0.973E-06 0.214E-07 0.327E-26 ort(H,U,f) = 0.362E-06-0.224E-07-0.469E-25
CGA:  10    -0.202697431542E+04   -0.10964E-05   -0.11022E-05  1304   0.994E-06 0.340E-06
 gam= 0.235 trial= 0.579  step= 0.758 mean= 0.579
 gam= 0.666 g(H,U,f)=  0.644E-06 0.182E-07 0.536E-26 ort(H,U,f) =-0.230E-06-0.115E-07-0.180E-25
CGA:  11    -0.202697431581E+04   -0.38552E-06   -0.40724E-06  1304   0.662E-06-0.241E-06
 gam= 0.666 trial= 0.588  step= 0.323 mean= 0.588
 gam= 0.370 g(H,U,f)=  0.237E-06 0.778E-08 0.579E-27 ort(H,U,f) = 0.139E-06 0.266E-08-0.267E-26
CGA:  12    -0.202697431587E+04   -0.62093E-07   -0.80878E-07  1304   0.245E-06 0.141E-06
 gam= 0.370 trial= 0.575  step= 0.370 mean= 0.575
 final diagonalization
  14 F= -.20484246E+04 E0= -.20484246E+04  d E =-.137597E-02
 curvature:  -4.45 expect dE=-0.106E-01 dE for cont linesearch -0.211E-03
 ZBRENT: increasing intervall
 opt :   1.1690  next Energy= -2048.424779 (dE=-0.155E-02)
 bond charge predicted
       N       E                     dE             d eps       ncg     rms          ort
 gam= 0.000 g(H,U,f)=  0.549E+00 0.475E-01 0.231E-19 ort(H,U,f) = 0.000E+00 0.000E+00 0.000E+00
SDA:   1    -0.202674799247E+04    0.22632E+00    0.00000E+00  1304   0.597E+00 0.000E+00
 gam= 0.000 trial= 0.565  step= 0.582 mean= 0.565
 gam= 0.263 g(H,U,f)=  0.148E+00 0.898E-02 0.317E-20 ort(H,U,f) = 0.711E-02-0.710E-02-0.439E-20
CGA:   2    -0.202692166110E+04   -0.17367E+00   -0.17367E+00  1304   0.157E+00 0.152E-04
 gam= 0.263 trial= 0.566  step= 0.585 mean= 0.566
 gam= 0.149 g(H,U,f)=  0.228E-01 0.621E-03 0.776E-20 ort(H,U,f) =-0.801E-03 0.789E-03-0.425E-20
CGA:   3    -0.202696760329E+04   -0.45942E-01   -0.45942E-01  1304   0.234E-01-0.119E-04
 gam= 0.149 trial= 0.567  step= 0.509 mean= 0.567
 gam= 0.208 g(H,U,f)=  0.455E-02 0.332E-03 0.279E-20 ort(H,U,f) =-0.335E-03 0.336E-03-0.263E-20
CGA:   4    -0.202697356377E+04   -0.59605E-02   -0.59605E-02  1304   0.488E-02 0.122E-05
 gam= 0.208 trial= 0.564  step= 0.543 mean= 0.564
 gam= 0.227 g(H,U,f)=  0.965E-03 0.142E-03 0.916E-22 ort(H,U,f) =-0.219E-03 0.219E-03-0.169E-20
CGA:   5    -0.202697488801E+04   -0.13242E-02   -0.13242E-02  1304   0.111E-02-0.430E-06
 gam= 0.227 trial= 0.563  step= 0.675 mean= 0.563
 gam= 0.346 g(H,U,f)=  0.335E-03 0.479E-04 0.667E-20 ort(H,U,f) =-0.102E-03 0.103E-03 0.547E-20
CGA:   6    -0.202697526163E+04   -0.37362E-03   -0.37360E-03  1304   0.383E-03 0.354E-06
 gam= 0.346 trial= 0.568  step= 0.708 mean= 0.568
 gam= 0.438 g(H,U,f)=  0.157E-03 0.111E-04 0.577E-20 ort(H,U,f) =-0.362E-04 0.352E-04 0.195E-19
CGA:   7    -0.202697539740E+04   -0.13577E-03   -0.13584E-03  1304   0.168E-03-0.106E-05
 gam= 0.438 trial= 0.575  step= 0.539 mean= 0.575
 gam= 0.385 g(H,U,f)=  0.623E-04 0.239E-05 0.100E-20 ort(H,U,f) =-0.707E-05 0.978E-05 0.109E-19
CGA:   8    -0.202697544249E+04   -0.45087E-04   -0.45137E-04  1304   0.647E-04 0.271E-05
 gam= 0.385 trial= 0.574  step= 0.529 mean= 0.574
 gam= 0.251 g(H,U,f)=  0.160E-04 0.290E-06 0.280E-20 ort(H,U,f) =-0.286E-05 0.131E-05 0.138E-19
CGA:   9    -0.202697545992E+04   -0.17428E-04   -0.17394E-04  1304   0.163E-04-0.155E-05
 gam= 0.251 trial= 0.571  step= 0.585 mean= 0.571
 gam= 0.246 g(H,U,f)=  0.390E-05 0.103E-06 0.212E-21 ort(H,U,f) = 0.749E-06-0.111E-06-0.265E-20
CGA:  10    -0.202697546456E+04   -0.46470E-05   -0.46428E-05  1304   0.401E-05 0.637E-06
 gam= 0.246 trial= 0.572  step= 0.689 mean= 0.572
 gam= 0.544 g(H,U,f)=  0.212E-05 0.645E-07 0.151E-21 ort(H,U,f) =-0.438E-06-0.430E-07-0.575E-21
CGA:  11    -0.202697546597E+04   -0.14063E-05   -0.14345E-05  1304   0.218E-05-0.481E-06
 gam= 0.544 trial= 0.578  step= 0.396 mean= 0.578
 gam= 0.309 g(H,U,f)=  0.646E-06 0.263E-07 0.963E-23 ort(H,U,f) = 0.325E-06 0.805E-08-0.419E-22
CGA:  12    -0.202697546632E+04   -0.34994E-06   -0.38011E-06  1304   0.673E-06 0.333E-06
 gam= 0.309 trial= 0.569  step= 0.673 mean= 0.569
 gam= 0.513 g(H,U,f)=  0.325E-06 0.205E-07 0.150E-20 ort(H,U,f) =-0.497E-07 0.857E-08-0.158E-21
CGA:  13    -0.202697546658E+04   -0.25850E-06   -0.26071E-06  1304   0.345E-06-0.411E-07
 gam= 0.513 trial= 0.574  step= 0.864 mean= 0.574
 gam= 0.000 g(H,U,f)=  0.724E-06 0.163E-07 0.103E-20 ort(H,U,f) =-0.286E-06-0.126E-08 0.171E-20
CGA:  14    -0.202697546668E+04   -0.97956E-07   -0.13995E-06  1304   0.741E-06-0.287E-06
 gam= 0.000 trial= 0.588  step= 0.201 mean= 0.588
 final diagonalization
  15 F= -.20484248E+04 E0= -.20484248E+04  d E =-.153806E-02
 curvature:  -3.74 expect dE=-0.333E-01 dE for cont linesearch -0.753E-04
 ZBRENT: bracketing found
 ZBRENT: interpolating
 opt :   0.9173  next Energy= -2048.424890 (dE=-0.166E-02)
 bond charge predicted
       N       E                     dE             d eps       ncg     rms          ort
 gam= 0.000 g(H,U,f)=  0.856E-01 0.740E-02 0.114E-15 ort(H,U,f) = 0.000E+00 0.000E+00 0.000E+00
SDA:   1    -0.202693975804E+04    0.35709E-01    0.00000E+00  1304   0.930E-01 0.000E+00
 gam= 0.000 trial= 0.569  step= 0.582 mean= 0.569
 gam= 0.263 g(H,U,f)=  0.231E-01 0.141E-02 0.174E-15 ort(H,U,f) = 0.111E-02-0.111E-02-0.237E-15
CGA:   2    -0.202696681955E+04   -0.27062E-01   -0.27062E-01  1304   0.245E-01-0.115E-05
 gam= 0.263 trial= 0.570  step= 0.584 mean= 0.570
 gam= 0.149 g(H,U,f)=  0.355E-02 0.971E-04 0.833E-20 ort(H,U,f) =-0.120E-03 0.124E-03 0.502E-20
CGA:   3    -0.202697397921E+04   -0.71597E-02   -0.71596E-02  1304   0.365E-02 0.486E-05
 gam= 0.149 trial= 0.570  step= 0.509 mean= 0.570
 gam= 0.209 g(H,U,f)=  0.710E-03 0.519E-04 0.317E-18 ort(H,U,f) =-0.524E-04 0.529E-04-0.928E-19
CGA:   4    -0.202697490735E+04   -0.92813E-03   -0.92815E-03  1304   0.762E-03 0.525E-06
 gam= 0.209 trial= 0.567  step= 0.541 mean= 0.567
 gam= 0.227 g(H,U,f)=  0.150E-03 0.223E-04 0.346E-20 ort(H,U,f) =-0.337E-04 0.344E-04 0.373E-19
CGA:   5    -0.202697511353E+04   -0.20619E-03   -0.20620E-03  1304   0.173E-03 0.705E-06
 gam= 0.227 trial= 0.566  step= 0.676 mean= 0.566
 gam= 0.350 g(H,U,f)=  0.530E-04 0.751E-05 0.368E-19 ort(H,U,f) =-0.164E-04 0.161E-04 0.466E-19
CGA:   6    -0.202697517191E+04   -0.58375E-04   -0.58391E-04  1304   0.605E-04-0.293E-06
 gam= 0.350 trial= 0.572  step= 0.688 mean= 0.572
 gam= 0.428 g(H,U,f)=  0.241E-04 0.182E-05 0.188E-19 ort(H,U,f) =-0.479E-05 0.573E-05 0.486E-19
CGA:   7    -0.202697519272E+04   -0.20814E-04   -0.20759E-04  1304   0.259E-04 0.935E-06
 gam= 0.428 trial= 0.577  step= 0.577 mean= 0.577
 gam= 0.448 g(H,U,f)=  0.112E-04 0.396E-06 0.568E-20 ort(H,U,f) =-0.280E-05 0.145E-05 0.155E-19
CGA:   8    -0.202697520031E+04   -0.75933E-05   -0.75930E-05  1304   0.116E-04-0.135E-05
 gam= 0.448 trial= 0.577  step= 0.455 mean= 0.577
 gam= 0.199 g(H,U,f)=  0.228E-05 0.353E-07 0.595E-20 ort(H,U,f) = 0.482E-06 0.241E-06 0.594E-20
CGA:   9    -0.202697520278E+04   -0.24618E-05   -0.25060E-05  1304   0.231E-05 0.723E-06
 gam= 0.199 trial= 0.571  step= 0.681 mean= 0.571
 gam= 0.277 g(H,U,f)=  0.615E-06 0.248E-07 0.589E-20 ort(H,U,f) =-0.902E-07-0.233E-07 0.694E-20
CGA:  10    -0.202697520361E+04   -0.83103E-06   -0.83710E-06  1304   0.640E-06-0.114E-06
 gam= 0.277 trial= 0.577  step= 0.738 mean= 0.577
 gam= 0.368 g(H,U,f)=  0.223E-06 0.126E-07 0.456E-20 ort(H,U,f) =-0.170E-07-0.111E-07 0.659E-20
CGA:  11    -0.202697520383E+04   -0.22215E-06   -0.22438E-06  1304   0.235E-06-0.282E-07
 gam= 0.368 trial= 0.585  step= 0.515 mean= 0.585
 gam= 0.368 g(H,U,f)=  0.825E-07 0.409E-08 0.340E-20 ort(H,U,f) = 0.279E-07 0.120E-08 0.629E-20
CGA:  12    -0.202697520389E+04   -0.57022E-07   -0.57947E-07  1304   0.866E-07 0.291E-07
 gam= 0.368 trial= 0.581  step= 0.703 mean= 0.581
 final diagonalization
  16 F= -.20484249E+04 E0= -.20484249E+04  d E =-.166463E-02
 curvature:  -6.29 expect dE=-0.332E-01 dE for cont linesearch -0.101E-10
 trial: gam= 1.47599 g(F)=  0.522E-02 g(S)=  0.475E-04 ort = 0.284E-06 (trialstep = 0.990E-01)
 search vector abs. value=  0.115E+00
 bond charge predicted
       N       E                     dE             d eps       ncg     rms          ort
 gam= 0.000 g(H,U,f)=  0.304E-01 0.270E-02 0.317E-16 ort(H,U,f) = 0.000E+00 0.000E+00 0.000E+00
SDA:   1    -0.202696343056E+04    0.11773E-01    0.00000E+00  1304   0.331E-01 0.000E+00
 gam= 0.000 trial= 0.587  step= 0.576 mean= 0.587
 gam= 0.262 g(H,U,f)=  0.817E-02 0.499E-03 0.102E-16 ort(H,U,f) = 0.401E-03-0.400E-03 0.193E-16
CGA:   2    -0.202697298135E+04   -0.95508E-02   -0.95508E-02  1304   0.867E-02 0.818E-06
 gam= 0.262 trial= 0.587  step= 0.588 mean= 0.587
 gam= 0.153 g(H,U,f)=  0.129E-02 0.361E-04 0.487E-17 ort(H,U,f) =-0.389E-04 0.400E-04 0.115E-16
CGA:   3    -0.202697553143E+04   -0.25501E-02   -0.25501E-02  1304   0.132E-02 0.113E-05
 gam= 0.153 trial= 0.587  step= 0.505 mean= 0.587
 gam= 0.209 g(H,U,f)=  0.258E-03 0.190E-04 0.986E-17 ort(H,U,f) =-0.182E-04 0.174E-04-0.984E-17
CGA:   4    -0.202697586571E+04   -0.33428E-03   -0.33425E-03  1304   0.277E-03-0.810E-06
 gam= 0.209 trial= 0.583  step= 0.542 mean= 0.583
 gam= 0.220 g(H,U,f)=  0.533E-04 0.779E-05 0.679E-76 ort(H,U,f) =-0.108E-04 0.118E-04-0.349E-75
CGA:   5    -0.202697594077E+04   -0.75064E-04   -0.75082E-04  1304   0.611E-04 0.924E-06
 gam= 0.220 trial= 0.581  step= 0.699 mean= 0.581
 gam= 0.338 g(H,U,f)=  0.182E-04 0.246E-05 0.503E-75 ort(H,U,f) =-0.601E-05 0.539E-05 0.637E-76
CGA:   6    -0.202697596214E+04   -0.21369E-04   -0.21406E-04  1304   0.206E-04-0.618E-06
 gam= 0.338 trial= 0.587  step= 0.744 mean= 0.587
 gam= 0.336 g(H,U,f)=  0.644E-05 0.487E-06 0.376E-75 ort(H,U,f) =-0.128E-05 0.177E-05 0.131E-74
CGA:   7    -0.202697596978E+04   -0.76374E-05   -0.75988E-05  1304   0.693E-05 0.490E-06
 gam= 0.336 trial= 0.595  step= 0.747 mean= 0.595
 gam= 0.336 g(H,U,f)=  0.224E-05 0.791E-07 0.150E-74 ort(H,U,f) =-0.526E-06 0.283E-06 0.435E-74
CGA:   8    -0.202697597241E+04   -0.26289E-05   -0.26475E-05  1304   0.232E-05-0.243E-06
 gam= 0.336 trial= 0.602  step= 0.521 mean= 0.602
 gam= 0.276 g(H,U,f)=  0.632E-06 0.101E-07 0.627E-75 ort(H,U,f) = 0.170E-06 0.224E-07 0.356E-74
CGA:   9    -0.202697597299E+04   -0.57588E-06   -0.58372E-06  1304   0.643E-06 0.192E-06
 gam= 0.276 trial= 0.598  step= 0.751 mean= 0.598
 gam= 0.751 g(H,U,f)=  0.471E-06 0.123E-07 0.460E-75 ort(H,U,f) =-0.255E-06-0.130E-07-0.314E-74
CGA:  10    -0.202697597323E+04   -0.24081E-06   -0.26116E-06  1304   0.483E-06-0.268E-06
 gam= 0.751 trial= 0.606  step= 0.307 mean= 0.606
 gam= 0.434 g(H,U,f)=  0.203E-06 0.647E-08 0.145E-74 ort(H,U,f) = 0.765E-07-0.378E-08-0.456E-74
CGA:  11    -0.202697597326E+04   -0.32291E-07   -0.43205E-07  1304   0.209E-06 0.727E-07
 gam= 0.434 trial= 0.591  step= 0.252 mean= 0.591
 final diagonalization
  17 F= -.20484254E+04 E0= -.20484254E+04  d E =-.481262E-03
 ZBRENT: can't locate minimum, use default step
 trial-energy change:   -0.000481  1 .order   -0.000481   -0.000522   -0.000441
 step:   0.3958(harm=  0.6397)  dis= 0.00371  next Energy= -2048.426577 (dE=-0.169E-02)
 bond charge predicted
       N       E                     dE             d eps       ncg     rms          ort
 gam= 0.000 g(H,U,f)=  0.274E+00 0.243E-01 0.119E-68 ort(H,U,f) = 0.000E+00 0.000E+00 0.000E+00
SDA:   1    -0.202686490950E+04    0.11106E+00    0.00000E+00  1304   0.298E+00 0.000E+00
 gam= 0.000 trial= 0.574  step= 0.576 mean= 0.574
 gam= 0.262 g(H,U,f)=  0.736E-01 0.448E-02 0.960E-70 ort(H,U,f) = 0.361E-02-0.361E-02-0.278E-69
CGA:   2    -0.202695086764E+04   -0.85958E-01   -0.85958E-01  1304   0.781E-01 0.130E-05
 gam= 0.262 trial= 0.574  step= 0.588 mean= 0.574
 gam= 0.153 g(H,U,f)=  0.116E-01 0.322E-03 0.665E-69 ort(H,U,f) =-0.352E-03 0.355E-03-0.557E-70
CGA:   3    -0.202697382007E+04   -0.22952E-01   -0.22952E-01  1304   0.119E-01 0.366E-05
 gam= 0.153 trial= 0.575  step= 0.505 mean= 0.575
 gam= 0.209 g(H,U,f)=  0.232E-02 0.169E-03 0.250E-70 ort(H,U,f) =-0.156E-03 0.154E-03-0.405E-70
CGA:   4    -0.202697682526E+04   -0.30052E-02   -0.30051E-02  1304   0.249E-02-0.196E-05
 gam= 0.209 trial= 0.571  step= 0.544 mean= 0.571
 gam= 0.221 g(H,U,f)=  0.480E-03 0.695E-04 0.121E-70 ort(H,U,f) =-0.101E-03 0.104E-03-0.568E-70
CGA:   5    -0.202697750048E+04   -0.67522E-03   -0.67527E-03  1304   0.550E-03 0.338E-05
 gam= 0.221 trial= 0.570  step= 0.693 mean= 0.570
 gam= 0.333 g(H,U,f)=  0.161E-03 0.221E-04 0.672E-70 ort(H,U,f) =-0.505E-04 0.483E-04 0.292E-71
CGA:   6    -0.202697769117E+04   -0.19069E-03   -0.19083E-03  1304   0.183E-03-0.221E-05
 gam= 0.333 trial= 0.576  step= 0.756 mean= 0.576
 gam= 0.349 g(H,U,f)=  0.597E-04 0.431E-05 0.523E-70 ort(H,U,f) =-0.134E-04 0.155E-04 0.191E-69
CGA:   7    -0.202697776043E+04   -0.69256E-04   -0.69062E-04  1304   0.640E-04 0.215E-05
 gam= 0.349 trial= 0.585  step= 0.727 mean= 0.585
 gam= 0.327 g(H,U,f)=  0.203E-04 0.696E-06 0.248E-69 ort(H,U,f) =-0.395E-05 0.255E-05 0.695E-69
CGA:   8    -0.202697778387E+04   -0.23439E-04   -0.23538E-04  1304   0.210E-04-0.140E-05
 gam= 0.327 trial= 0.592  step= 0.529 mean= 0.592
 gam= 0.295 g(H,U,f)=  0.608E-05 0.964E-07 0.984E-70 ort(H,U,f) = 0.103E-05 0.181E-06 0.556E-69
CGA:   9    -0.202697778925E+04   -0.53848E-05   -0.54231E-05  1304   0.618E-05 0.121E-05
 gam= 0.295 trial= 0.589  step= 0.627 mean= 0.589
 gam= 0.443 g(H,U,f)=  0.266E-05 0.739E-07 0.225E-70 ort(H,U,f) =-0.103E-05-0.869E-07-0.237E-69
CGA:  10    -0.202697779128E+04   -0.20257E-05   -0.20468E-05  1304   0.273E-05-0.112E-05
 gam= 0.443 trial= 0.591  step= 0.441 mean= 0.591
 gam= 0.273 g(H,U,f)=  0.717E-06 0.307E-07 0.289E-70 ort(H,U,f) = 0.432E-06-0.136E-07-0.140E-69
CGA:  11    -0.202697779174E+04   -0.46239E-06   -0.49380E-06  1304   0.747E-06 0.419E-06
 gam= 0.273 trial= 0.583  step= 0.568 mean= 0.583
 gam= 0.423 g(H,U,f)=  0.300E-06 0.164E-07 0.431E-73 ort(H,U,f) = 0.568E-07 0.683E-08 0.540E-72
CGA:  12    -0.202697779198E+04   -0.24425E-06   -0.24475E-06  1304   0.316E-06 0.636E-07
 gam= 0.423 trial= 0.583  step= 2.215 mean= 0.583
 gam= 0.000 g(H,U,f)=  0.536E-05 0.990E-07 0.627E-67 ort(H,U,f) =-0.105E-05-0.157E-07-0.195E-68
CGA:  13    -0.202697779149E+04    0.49437E-06   -0.37977E-06  1304   0.545E-05-0.107E-05
 gam= 0.000 trial= 0.664  step= 0.243 mean= 0.664
 gam= 0.093 g(H,U,f)=  0.507E-06 0.321E-08 0.637E-68 ort(H,U,f) = 0.770E-06 0.502E-08 0.223E-67
CGA:  14    -0.202697779199E+04   -0.49891E-06   -0.66223E-06  1304   0.510E-06 0.775E-06
 gam= 0.093 trial= 0.643  step= 0.431 mean= 0.643
 gam= 0.370 g(H,U,f)=  0.183E-06 0.504E-08 0.186E-68 ort(H,U,f) = 0.125E-06-0.539E-09-0.557E-68
CGA:  15    -0.202697779210E+04   -0.11254E-06   -0.12555E-06  1304   0.189E-06 0.124E-06
 gam= 0.370 trial= 0.633  step= 1.129 mean= 0.633
 gam= 0.000 g(H,U,f)=  0.105E-05 0.157E-07 0.677E-68 ort(H,U,f) =-0.437E-06-0.408E-08 0.661E-69
CGA:  16    -0.202697779212E+04   -0.23043E-07   -0.13229E-06  1304   0.107E-05-0.441E-06
 gam= 0.000 trial= 0.657  step= 0.210 mean= 0.657
 gam= 0.133 g(H,U,f)=  0.142E-06 0.414E-09 0.580E-69 ort(H,U,f) = 0.289E-06 0.222E-08 0.216E-68
CGA:  17    -0.202697779217E+04   -0.46515E-07   -0.11178E-06  1304   0.142E-06 0.291E-06
 gam= 0.133 trial= 0.635  step= 0.215 mean= 0.635
 final diagonalization
  18 F= -.20484263E+04 E0= -.20484263E+04  d E =-.143925E-02
 curvature:  -5.55 expect dE=-0.153E-01 dE for cont linesearch -0.193E-03
 ZBRENT: increasing intervall
 opt :   0.9895  next Energy= -2048.426057 (dE=-0.117E-02)
 bond charge predicted
       N       E                     dE             d eps       ncg     rms          ort
 gam= 0.000 g(H,U,f)=  0.110E+01 0.972E-01 0.208E-61 ort(H,U,f) = 0.000E+00 0.000E+00 0.000E+00
SDA:   1    -0.202652772248E+04    0.45007E+00    0.00000E+00  1304   0.119E+01 0.000E+00
 gam= 0.000 trial= 0.614  step= 0.576 mean= 0.614
 gam= 0.262 g(H,U,f)=  0.294E+00 0.179E-01 0.422E-63 ort(H,U,f) = 0.144E-01-0.144E-01-0.132E-62
CGA:   2    -0.202687155609E+04   -0.34383E+00   -0.34383E+00  1304   0.312E+00-0.830E-05
 gam= 0.262 trial= 0.612  step= 0.588 mean= 0.612
 gam= 0.153 g(H,U,f)=  0.464E-01 0.129E-02 0.340E-63 ort(H,U,f) =-0.142E-02 0.143E-02-0.319E-64
CGA:   3    -0.202696334122E+04   -0.91785E-01   -0.91785E-01  1304   0.477E-01 0.111E-04
 gam= 0.153 trial= 0.611  step= 0.504 mean= 0.611
 gam= 0.209 g(H,U,f)=  0.927E-02 0.678E-03 0.391E-66 ort(H,U,f) =-0.624E-03 0.624E-03-0.646E-66
CGA:   4    -0.202697536158E+04   -0.12020E-01   -0.12020E-01  1304   0.995E-02-0.774E-06
 gam= 0.209 trial= 0.606  step= 0.544 mean= 0.606
 gam= 0.222 g(H,U,f)=  0.193E-02 0.279E-03 0.877E-66 ort(H,U,f) =-0.413E-03 0.421E-03-0.376E-65
CGA:   5    -0.202697806710E+04   -0.27055E-02   -0.27057E-02  1304   0.221E-02 0.712E-05
 gam= 0.222 trial= 0.602  step= 0.691 mean= 0.602
 gam= 0.332 g(H,U,f)=  0.644E-03 0.889E-04 0.306E-65 ort(H,U,f) =-0.199E-03 0.195E-03-0.168E-66
CGA:   6    -0.202697882957E+04   -0.76246E-03   -0.76265E-03  1304   0.732E-03-0.429E-05
 gam= 0.332 trial= 0.607  step= 0.760 mean= 0.607
 gam= 0.356 g(H,U,f)=  0.243E-03 0.174E-04 0.317E-65 ort(H,U,f) =-0.575E-04 0.624E-04 0.110E-64
CGA:   7    -0.202697910759E+04   -0.27802E-03   -0.27765E-03  1304   0.261E-03 0.490E-05
 gam= 0.356 trial= 0.614  step= 0.709 mean= 0.614
 gam= 0.328 g(H,U,f)=  0.826E-04 0.289E-05 0.147E-64 ort(H,U,f) =-0.137E-04 0.106E-04 0.443E-64
CGA:   8    -0.202697920053E+04   -0.92943E-04   -0.93089E-04  1304   0.855E-04-0.308E-05
 gam= 0.328 trial= 0.619  step= 0.532 mean= 0.619
 gam= 0.312 g(H,U,f)=  0.263E-04 0.421E-06 0.903E-65 ort(H,U,f) = 0.193E-05 0.797E-06 0.443E-64
CGA:   9    -0.202697922289E+04   -0.22360E-04   -0.22479E-04  1304   0.267E-04 0.273E-05
 gam= 0.312 trial= 0.615  step= 0.568 mean= 0.615
 gam= 0.334 g(H,U,f)=  0.867E-05 0.242E-06 0.776E-66 ort(H,U,f) =-0.190E-05-0.302E-06-0.121E-64
CGA:  10    -0.202697923076E+04   -0.78713E-05   -0.78191E-05  1304   0.891E-05-0.220E-05
 gam= 0.334 trial= 0.612  step= 0.545 mean= 0.612
 gam= 0.274 g(H,U,f)=  0.233E-05 0.111E-06 0.575E-66 ort(H,U,f) = 0.896E-06-0.558E-07-0.455E-65
CGA:  11    -0.202697923296E+04   -0.21995E-05   -0.22279E-05  1304   0.245E-05 0.840E-06
 gam= 0.274 trial= 0.609  step= 0.851 mean= 0.609
 gam= 0.557 g(H,U,f)=  0.130E-05 0.623E-07 0.684E-66 ort(H,U,f) =-0.502E-06 0.151E-08 0.147E-65
CGA:  12    -0.202697923404E+04   -0.10788E-05   -0.11393E-05  1304   0.136E-05-0.500E-06
 gam= 0.557 trial= 0.621  step= 0.571 mean= 0.621
 gam= 0.338 g(H,U,f)=  0.444E-06 0.165E-07 0.820E-64 ort(H,U,f) = 0.139E-06 0.296E-07-0.251E-64
CGA:  13    -0.202697923434E+04   -0.30520E-06   -0.30952E-06  1304   0.460E-06 0.169E-06
 gam= 0.338 trial= 0.619  step= 0.703 mean= 0.619
 gam= 0.395 g(H,U,f)=  0.174E-06 0.799E-08 0.290E-65 ort(H,U,f) =-0.965E-07 0.115E-07 0.212E-64
CGA:  14    -0.202697923452E+04   -0.17846E-06   -0.18188E-06  1304   0.182E-06-0.850E-07
 gam= 0.395 trial= 0.623  step= 0.580 mean= 0.623
 gam= 0.380 g(H,U,f)=  0.668E-07 0.233E-08 0.125E-65 ort(H,U,f) = 0.223E-07 0.195E-08 0.101E-64
CGA:  15    -0.202697923457E+04   -0.42433E-07   -0.43001E-07  1304   0.691E-07 0.242E-07
 gam= 0.380 trial= 0.621  step= 0.488 mean= 0.621
 final diagonalization
  19 F= -.20484261E+04 E0= -.20484261E+04  d E =-.116961E-02
 curvature:   7.85 expect dE= 0.109E+00 dE for cont linesearch  0.577E-03
 ZBRENT: bracketing found
 ZBRENT: interpolating
 opt :   0.6378  next Energy= -2048.426571 (dE=-0.168E-02)
 bond charge predicted
       N       E                     dE             d eps       ncg     rms          ort
 gam= 0.000 g(H,U,f)=  0.385E+00 0.341E-01 0.209E-58 ort(H,U,f) = 0.000E+00 0.000E+00 0.000E+00
SDA:   1    -0.202682027110E+04    0.15896E+00    0.00000E+00  1304   0.419E+00 0.000E+00
 gam= 0.000 trial= 0.614  step= 0.576 mean= 0.614
 gam= 0.262 g(H,U,f)=  0.103E+00 0.632E-02 0.850E-59 ort(H,U,f) = 0.509E-02-0.509E-02-0.219E-58
CGA:   2    -0.202694092630E+04   -0.12066E+00   -0.12066E+00  1304   0.110E+00 0.128E-05
 gam= 0.262 trial= 0.612  step= 0.588 mean= 0.612
 gam= 0.153 g(H,U,f)=  0.163E-01 0.453E-03 0.374E-56 ort(H,U,f) =-0.502E-03 0.500E-03-0.262E-57
CGA:   3    -0.202697315693E+04   -0.32231E-01   -0.32231E-01  1304   0.167E-01-0.150E-05
 gam= 0.153 trial= 0.611  step= 0.504 mean= 0.611
 gam= 0.209 g(H,U,f)=  0.325E-02 0.238E-03 0.121E-54 ort(H,U,f) =-0.214E-03 0.218E-03-0.194E-54
CGA:   4    -0.202697737344E+04   -0.42165E-02   -0.42167E-02  1304   0.349E-02 0.397E-05
 gam= 0.209 trial= 0.606  step= 0.545 mean= 0.606
 gam= 0.222 g(H,U,f)=  0.677E-03 0.979E-04 0.691E-57 ort(H,U,f) =-0.149E-03 0.147E-03-0.344E-56
CGA:   5    -0.202697832425E+04   -0.95081E-03   -0.95074E-03  1304   0.775E-03-0.240E-05
 gam= 0.222 trial= 0.603  step= 0.688 mean= 0.603
 gam= 0.327 g(H,U,f)=  0.222E-03 0.312E-04 0.176E-56 ort(H,U,f) =-0.663E-04 0.683E-04 0.179E-57
CGA:   6    -0.202697859077E+04   -0.26653E-03   -0.26644E-03  1304   0.253E-03 0.208E-05
 gam= 0.327 trial= 0.607  step= 0.777 mean= 0.607
 gam= 0.356 g(H,U,f)=  0.845E-04 0.576E-05 0.220E-57 ort(H,U,f) =-0.222E-04 0.212E-04 0.824E-57
CGA:   7    -0.202697868942E+04   -0.98648E-04   -0.98739E-04  1304   0.902E-04-0.106E-05
 gam= 0.356 trial= 0.615  step= 0.722 mean= 0.615
 gam= 0.270 g(H,U,f)=  0.235E-04 0.802E-06 0.269E-57 ort(H,U,f) =-0.294E-05 0.349E-05 0.742E-57
CGA:   8    -0.202697872189E+04   -0.32467E-04   -0.32438E-04  1304   0.243E-04 0.549E-06
 gam= 0.270 trial= 0.621  step= 0.669 mean= 0.621
 gam= 0.281 g(H,U,f)=  0.665E-05 0.190E-06 0.104E-58 ort(H,U,f) =-0.309E-06-0.311E-07 0.125E-57
CGA:   9    -0.202697873006E+04   -0.81764E-05   -0.81846E-05  1304   0.684E-05-0.340E-06
 gam= 0.281 trial= 0.623  step= 0.526 mean= 0.623
 gam= 0.318 g(H,U,f)=  0.211E-05 0.644E-07 0.135E-59 ort(H,U,f) = 0.660E-06-0.751E-07-0.213E-58
CGA:  10    -0.202697873181E+04   -0.17473E-05   -0.17756E-05  1304   0.218E-05 0.585E-06
 gam= 0.318 trial= 0.618  step= 0.703 mean= 0.618
 gam= 0.553 g(H,U,f)=  0.116E-05 0.447E-07 0.252E-59 ort(H,U,f) =-0.384E-06-0.151E-07 0.107E-58
CGA:  11    -0.202697873262E+04   -0.81451E-06   -0.83133E-06  1304   0.121E-05-0.399E-06
 gam= 0.553 trial= 0.623  step= 0.438 mean= 0.623
 gam= 0.326 g(H,U,f)=  0.377E-06 0.155E-07 0.167E-60 ort(H,U,f) = 0.223E-06 0.104E-07-0.263E-59
CGA:  12    -0.202697873282E+04   -0.19412E-06   -0.21573E-06  1304   0.392E-06 0.234E-06
 gam= 0.326 trial= 0.613  step= 0.486 mean= 0.613
 gam= 0.405 g(H,U,f)=  0.148E-06 0.104E-07 0.449E-58 ort(H,U,f) = 0.760E-07 0.113E-07-0.142E-58
CGA:  13    -0.202697873293E+04   -0.10827E-06   -0.11383E-06  1304   0.159E-06 0.873E-07
 gam= 0.405 trial= 0.607  step= 1.220 mean= 0.607
 gam= 0.000 g(H,U,f)=  0.658E-06 0.146E-07 0.258E-58 ort(H,U,f) =-0.255E-06-0.220E-08 0.499E-58
CGA:  14    -0.202697873297E+04   -0.40069E-07   -0.11837E-06  1304   0.672E-06-0.257E-06
 gam= 0.000 trial= 0.638  step= 0.231 mean= 0.638
 final diagonalization
  20 F= -.20484266E+04 E0= -.20484266E+04  d E =-.168013E-02
 curvature:  -3.29 expect dE=-0.169E-01 dE for cont linesearch -0.115E-07
 trial: gam= 0.96832 g(F)=  0.512E-02 g(S)=  0.226E-04 ort = 0.200E-04 (trialstep = 0.207E+00)
 search vector abs. value=  0.113E+00
 bond charge predicted
       N       E                     dE             d eps       ncg     rms          ort
 gam= 0.000 g(H,U,f)=  0.132E+00 0.121E-01 0.683E-54 ort(H,U,f) = 0.000E+00 0.000E+00 0.000E+00
SDA:   1    -0.202692620455E+04    0.52528E-01    0.00000E+00  1304   0.144E+00 0.000E+00
 gam= 0.000 trial= 0.617  step= 0.572 mean= 0.617
 gam= 0.258 g(H,U,f)=  0.352E-01 0.212E-02 0.510E-53 ort(H,U,f) = 0.183E-02-0.182E-02 0.557E-53
CGA:   2    -0.202696749144E+04   -0.41287E-01   -0.41287E-01  1304   0.373E-01 0.780E-05
 gam= 0.258 trial= 0.615  step= 0.596 mean= 0.615
 gam= 0.149 g(H,U,f)=  0.542E-02 0.137E-03 0.464E-53 ort(H,U,f) =-0.193E-03 0.195E-03 0.175E-53
CGA:   3    -0.202697860347E+04   -0.11112E-01   -0.11112E-01  1304   0.555E-02 0.250E-05
 gam= 0.149 trial= 0.614  step= 0.510 mean= 0.614
 gam= 0.209 g(H,U,f)=  0.109E-02 0.730E-04 0.118E-53 ort(H,U,f) =-0.791E-04 0.827E-04-0.157E-53
CGA:   4    -0.202698001966E+04   -0.14162E-02   -0.14164E-02  1304   0.116E-02 0.354E-05
 gam= 0.209 trial= 0.609  step= 0.540 mean= 0.609
 gam= 0.231 g(H,U,f)=  0.235E-03 0.325E-04 0.157E-57 ort(H,U,f) =-0.523E-04 0.508E-04-0.174E-55
CGA:   5    -0.202698033311E+04   -0.31345E-03   -0.31340E-03  1304   0.267E-03-0.154E-05
 gam= 0.231 trial= 0.605  step= 0.657 mean= 0.605
 gam= 0.351 g(H,U,f)=  0.827E-04 0.111E-04 0.664E-54 ort(H,U,f) =-0.221E-04 0.240E-04 0.513E-54
CGA:   6    -0.202698042088E+04   -0.87771E-04   -0.87724E-04  1304   0.938E-04 0.184E-05
 gam= 0.351 trial= 0.608  step= 0.688 mean= 0.608
 gam= 0.487 g(H,U,f)=  0.428E-04 0.283E-05 0.478E-54 ort(H,U,f) =-0.101E-04 0.839E-05 0.132E-53
CGA:   7    -0.202698045332E+04   -0.32434E-04   -0.32503E-04  1304   0.456E-04-0.170E-05
 gam= 0.487 trial= 0.612  step= 0.490 mean= 0.612
 gam= 0.330 g(H,U,f)=  0.145E-04 0.584E-06 0.246E-54 ort(H,U,f) =-0.441E-06 0.273E-05 0.121E-53
CGA:   8    -0.202698046416E+04   -0.10846E-04   -0.10986E-04  1304   0.150E-04 0.229E-05
 gam= 0.330 trial= 0.606  step= 0.611 mean= 0.606
 gam= 0.273 g(H,U,f)=  0.403E-05 0.762E-07 0.606E-54 ort(H,U,f) =-0.137E-05 0.312E-06 0.153E-53
CGA:   9    -0.202698046899E+04   -0.48244E-05   -0.48270E-05  1304   0.410E-05-0.106E-05
 gam= 0.273 trial= 0.606  step= 0.566 mean= 0.606
 gam= 0.234 g(H,U,f)=  0.938E-06 0.216E-07 0.287E-56 ort(H,U,f) = 0.358E-06-0.278E-07-0.975E-55
CGA:  10    -0.202698047006E+04   -0.10731E-05   -0.10796E-05  1304   0.960E-06 0.330E-06
 gam= 0.234 trial= 0.604  step= 0.757 mean= 0.604
 gam= 0.666 g(H,U,f)=  0.622E-06 0.177E-07 0.124E-54 ort(H,U,f) =-0.237E-06-0.101E-07 0.190E-54
CGA:  11    -0.202698047044E+04   -0.37363E-06   -0.39217E-06  1304   0.639E-06-0.247E-06
 gam= 0.666 trial= 0.612  step= 0.344 mean= 0.612
 gam= 0.381 g(H,U,f)=  0.236E-06 0.785E-08 0.439E-55 ort(H,U,f) = 0.113E-06 0.277E-08 0.174E-54
CGA:  12    -0.202698047050E+04   -0.66168E-07   -0.81693E-07  1304   0.244E-06 0.116E-06
 gam= 0.381 trial= 0.598  step= 0.400 mean= 0.598
 final diagonalization
  21 F= -.20484274E+04 E0= -.20484274E+04  d E =-.871403E-03
 trial-energy change:   -0.000871  1 .order   -0.000875   -0.001066   -0.000685
 step:   0.6754(harm=  0.5775)  dis= 0.00636  next Energy= -2048.428171 (dE=-0.160E-02)
 bond charge predicted
       N       E                     dE             d eps       ncg     rms          ort
 gam= 0.000 g(H,U,f)=  0.680E+00 0.621E-01 0.202E-50 ort(H,U,f) = 0.000E+00 0.000E+00 0.000E+00
SDA:   1    -0.202670411777E+04    0.27635E+00    0.00000E+00  1304   0.742E+00 0.000E+00
 gam= 0.000 trial= 0.589  step= 0.572 mean= 0.589
 gam= 0.258 g(H,U,f)=  0.181E+00 0.109E-01 0.309E-48 ort(H,U,f) = 0.937E-02-0.937E-02 0.221E-48
CGA:   2    -0.202691628837E+04   -0.21217E+00   -0.21217E+00  1304   0.192E+00 0.156E-05
 gam= 0.258 trial= 0.588  step= 0.596 mean= 0.588
 gam= 0.149 g(H,U,f)=  0.278E-01 0.703E-03 0.606E-50 ort(H,U,f) =-0.991E-03 0.999E-03 0.227E-50
CGA:   3    -0.202697338710E+04   -0.57099E-01   -0.57099E-01  1304   0.285E-01 0.865E-05
 gam= 0.149 trial= 0.588  step= 0.510 mean= 0.588
 gam= 0.208 g(H,U,f)=  0.557E-02 0.374E-03 0.266E-51 ort(H,U,f) =-0.414E-03 0.423E-03-0.359E-51
CGA:   4    -0.202698066915E+04   -0.72821E-02   -0.72824E-02  1304   0.594E-02 0.950E-05
 gam= 0.208 trial= 0.584  step= 0.541 mean= 0.584
 gam= 0.230 g(H,U,f)=  0.120E-02 0.166E-03 0.956E-54 ort(H,U,f) =-0.263E-03 0.260E-03-0.434E-52
CGA:   5    -0.202698227663E+04   -0.16075E-02   -0.16074E-02  1304   0.137E-02-0.258E-05
 gam= 0.230 trial= 0.582  step= 0.664 mean= 0.582
 gam= 0.349 g(H,U,f)=  0.420E-03 0.562E-04 0.651E-51 ort(H,U,f) =-0.118E-03 0.122E-03 0.459E-51
CGA:   6    -0.202698272976E+04   -0.45313E-03   -0.45298E-03  1304   0.476E-03 0.380E-05
 gam= 0.349 trial= 0.586  step= 0.696 mean= 0.586
 gam= 0.457 g(H,U,f)=  0.204E-03 0.138E-04 0.631E-51 ort(H,U,f) =-0.451E-04 0.421E-04 0.195E-50
CGA:   7    -0.202698289573E+04   -0.16596E-03   -0.16613E-03  1304   0.218E-03-0.296E-05
 gam= 0.457 trial= 0.592  step= 0.521 mean= 0.592
 gam= 0.366 g(H,U,f)=  0.769E-04 0.292E-05 0.614E-51 ort(H,U,f) =-0.729E-05 0.126E-04 0.274E-50
CGA:   8    -0.202698295197E+04   -0.56242E-04   -0.56427E-04  1304   0.798E-04 0.526E-05
 gam= 0.366 trial= 0.588  step= 0.556 mean= 0.588
 gam= 0.256 g(H,U,f)=  0.201E-04 0.369E-06 0.162E-50 ort(H,U,f) =-0.439E-05 0.162E-05 0.429E-50
CGA:   9    -0.202698297474E+04   -0.22766E-04   -0.22722E-04  1304   0.205E-04-0.277E-05
 gam= 0.256 trial= 0.586  step= 0.582 mean= 0.586
 gam= 0.254 g(H,U,f)=  0.506E-05 0.128E-06 0.305E-53 ort(H,U,f) = 0.103E-05-0.140E-06-0.176E-51
CGA:  10    -0.202698298048E+04   -0.57381E-05   -0.57406E-05  1304   0.519E-05 0.895E-06
 gam= 0.254 trial= 0.586  step= 0.674 mean= 0.586
 gam= 0.542 g(H,U,f)=  0.273E-05 0.803E-07 0.290E-51 ort(H,U,f) =-0.628E-06-0.497E-07 0.595E-51
CGA:  11    -0.202698298227E+04   -0.17958E-05   -0.18256E-05  1304   0.281E-05-0.678E-06
 gam= 0.542 trial= 0.591  step= 0.417 mean= 0.591
 gam= 0.316 g(H,U,f)=  0.856E-06 0.336E-07 0.117E-51 ort(H,U,f) = 0.342E-06 0.867E-08 0.480E-51
CGA:  12    -0.202698298275E+04   -0.47973E-06   -0.51029E-06  1304   0.890E-06 0.351E-06
 gam= 0.316 trial= 0.582  step= 0.667 mean= 0.582
 gam= 0.442 g(H,U,f)=  0.370E-06 0.237E-07 0.583E-51 ort(H,U,f) =-0.592E-07 0.994E-08-0.809E-51
CGA:  13    -0.202698298308E+04   -0.33165E-06   -0.33386E-06  1304   0.393E-06-0.493E-07
 gam= 0.442 trial= 0.586  step= 0.970 mean= 0.586
 gam= 0.000 g(H,U,f)=  0.904E-06 0.234E-07 0.363E-51 ort(H,U,f) =-0.329E-06-0.268E-08-0.251E-51
CGA:  14    -0.202698298320E+04   -0.11643E-06   -0.18010E-06  1304   0.927E-06-0.332E-06
 gam= 0.000 trial= 0.605  step= 0.201 mean= 0.605
 gam= 0.113 g(H,U,f)=  0.102E-06 0.299E-08 0.832E-53 ort(H,U,f) = 0.216E-06 0.631E-08 0.587E-52
CGA:  15    -0.202698298325E+04   -0.48494E-07   -0.93279E-07  1304   0.105E-06 0.222E-06
 gam= 0.113 trial= 0.585  step= 0.224 mean= 0.585
 final diagonalization
  22 F= -.20484280E+04 E0= -.20484280E+04  d E =-.142908E-02
 curvature:  -5.87 expect dE=-0.361E-01 dE for cont linesearch -0.428E-04
 ZBRENT: interpolating
 opt :   0.5746  next Energy= -2048.428045 (dE=-0.147E-02)
 bond charge predicted
       N       E                     dE             d eps       ncg     rms          ort
 gam= 0.000 g(H,U,f)=  0.314E-01 0.287E-02 0.254E-48 ort(H,U,f) = 0.000E+00 0.000E+00 0.000E+00
SDA:   1    -0.202696972590E+04    0.13257E-01    0.00000E+00  1304   0.343E-01 0.000E+00
 gam= 0.000 trial= 0.567  step= 0.572 mean= 0.567
 gam= 0.258 g(H,U,f)=  0.836E-02 0.505E-03 0.626E-49 ort(H,U,f) = 0.430E-03-0.435E-03 0.915E-49
CGA:   2    -0.202697952794E+04   -0.98020E-02   -0.98021E-02  1304   0.886E-02-0.452E-05
 gam= 0.258 trial= 0.567  step= 0.596 mean= 0.567
 gam= 0.149 g(H,U,f)=  0.129E-02 0.327E-04 0.595E-47 ort(H,U,f) =-0.476E-04 0.465E-04 0.223E-47
CGA:   3    -0.202698216687E+04   -0.26389E-02   -0.26389E-02  1304   0.132E-02-0.115E-05
 gam= 0.149 trial= 0.569  step= 0.511 mean= 0.569
 gam= 0.210 g(H,U,f)=  0.260E-03 0.174E-04 0.118E-46 ort(H,U,f) =-0.213E-04 0.197E-04-0.154E-46
CGA:   4    -0.202698250375E+04   -0.33688E-03   -0.33683E-03  1304   0.277E-03-0.167E-05
 gam= 0.210 trial= 0.566  step= 0.535 mean= 0.566
 gam= 0.229 g(H,U,f)=  0.558E-04 0.774E-05 0.259E-50 ort(H,U,f) =-0.111E-04 0.122E-04 0.129E-48
CGA:   5    -0.202698257779E+04   -0.74041E-04   -0.74058E-04  1304   0.635E-04 0.108E-05
 gam= 0.229 trial= 0.564  step= 0.669 mean= 0.564
 gam= 0.379 g(H,U,f)=  0.214E-04 0.263E-05 0.862E-48 ort(H,U,f) =-0.676E-05 0.565E-05 0.758E-48
CGA:   6    -0.202698259906E+04   -0.21269E-04   -0.21327E-04  1304   0.241E-04-0.111E-05
 gam= 0.379 trial= 0.570  step= 0.611 mean= 0.570
 gam= 0.428 g(H,U,f)=  0.955E-05 0.755E-06 0.378E-48 ort(H,U,f) =-0.121E-05 0.226E-05 0.911E-48
CGA:   7    -0.202698260630E+04   -0.72410E-05   -0.72192E-05  1304   0.103E-04 0.105E-05
 gam= 0.428 trial= 0.572  step= 0.611 mean= 0.572
 gam= 0.491 g(H,U,f)=  0.490E-05 0.160E-06 0.439E-49 ort(H,U,f) =-0.190E-05 0.549E-06 0.312E-48
CGA:   8    -0.202698260956E+04   -0.32594E-05   -0.32859E-05  1304   0.506E-05-0.135E-05
 gam= 0.491 trial= 0.574  step= 0.426 mean= 0.574
 gam= 0.201 g(H,U,f)=  0.100E-05 0.129E-07 0.838E-49 ort(H,U,f) = 0.498E-06 0.981E-07 0.311E-48
CGA:   9    -0.202698261045E+04   -0.89308E-06   -0.93692E-06  1304   0.102E-05 0.596E-06
 gam= 0.201 trial= 0.566  step= 0.521 mean= 0.566
 gam= 0.291 g(H,U,f)=  0.288E-06 0.829E-08 0.238E-49 ort(H,U,f) = 0.115E-06-0.423E-08 0.930E-49
CGA:  10    -0.202698261074E+04   -0.29334E-06   -0.29591E-06  1304   0.296E-06 0.111E-06
 gam= 0.291 trial= 0.564  step= 1.240 mean= 0.564
 gam= 0.000 g(H,U,f)=  0.116E-05 0.280E-07 0.121E-48 ort(H,U,f) =-0.411E-06-0.121E-07-0.171E-48
CGA:  11    -0.202698261080E+04   -0.60645E-07   -0.20337E-06  1304   0.119E-05-0.423E-06
 gam= 0.000 trial= 0.598  step= 0.214 mean= 0.598
 gam= 0.122 g(H,U,f)=  0.141E-06 0.344E-08 0.172E-49 ort(H,U,f) = 0.291E-06 0.715E-08 0.487E-49
CGA:  12    -0.202698261087E+04   -0.69405E-07   -0.12689E-06  1304   0.145E-06 0.298E-06
 gam= 0.122 trial= 0.579  step= 0.229 mean= 0.579
 final diagonalization
  23 F= -.20484280E+04 E0= -.20484280E+04  d E =-.147611E-02
 curvature:  -6.26 expect dE=-0.272E-01 dE for cont linesearch -0.264E-09
 trial: gam= 0.84331 g(F)=  0.417E-02 g(S)=  0.174E-03 ort =-0.218E-05 (trialstep = 0.280E+00)
 search vector abs. value=  0.845E-01
 bond charge predicted
       N       E                     dE             d eps       ncg     rms          ort
 gam= 0.000 g(H,U,f)=  0.181E+00 0.166E-01 0.356E-44 ort(H,U,f) = 0.000E+00 0.000E+00 0.000E+00
SDA:   1    -0.202691005858E+04    0.72552E-01    0.00000E+00  1304   0.198E+00 0.000E+00
 gam= 0.000 trial= 0.561  step= 0.563 mean= 0.561
 gam= 0.256 g(H,U,f)=  0.477E-01 0.281E-02 0.246E-44 ort(H,U,f) = 0.236E-02-0.233E-02-0.321E-44
CGA:   2    -0.202696571536E+04   -0.55657E-01   -0.55657E-01  1304   0.505E-01 0.231E-04
 gam= 0.256 trial= 0.561  step= 0.600 mean= 0.561
 gam= 0.153 g(H,U,f)=  0.752E-02 0.202E-03 0.192E-44 ort(H,U,f) =-0.236E-03 0.222E-03-0.103E-44
CGA:   3    -0.202698085867E+04   -0.15143E-01   -0.15144E-01  1304   0.772E-02-0.147E-04
 gam= 0.153 trial= 0.563  step= 0.500 mean= 0.563
 gam= 0.216 g(H,U,f)=  0.156E-02 0.103E-03 0.225E-45 ort(H,U,f) =-0.829E-04 0.945E-04-0.276E-45
CGA:   4    -0.202698278884E+04   -0.19302E-02   -0.19305E-02  1304   0.167E-02 0.116E-04
 gam= 0.216 trial= 0.560  step= 0.521 mean= 0.560
 gam= 0.247 g(H,U,f)=  0.367E-03 0.448E-04 0.838E-47 ort(H,U,f) =-0.755E-04 0.673E-04 0.668E-46
CGA:   5    -0.202698322301E+04   -0.43417E-03   -0.43401E-03  1304   0.412E-03-0.819E-05
 gam= 0.247 trial= 0.558  step= 0.564 mean= 0.558
 gam= 0.391 g(H,U,f)=  0.144E-03 0.176E-04 0.769E-47 ort(H,U,f) =-0.292E-04 0.357E-04 0.354E-46
CGA:   6    -0.202698333868E+04   -0.11567E-03   -0.11565E-03  1304   0.161E-03 0.650E-05
 gam= 0.391 trial= 0.558  step= 0.580 mean= 0.558
 gam= 0.458 g(H,U,f)=  0.678E-04 0.611E-05 0.133E-45 ort(H,U,f) =-0.200E-04 0.153E-04 0.123E-45
CGA:   7    -0.202698338614E+04   -0.47462E-04   -0.47513E-04  1304   0.739E-04-0.466E-05
 gam= 0.458 trial= 0.559  step= 0.563 mean= 0.559
 gam= 0.269 g(H,U,f)=  0.189E-04 0.100E-05 0.644E-47 ort(H,U,f) =-0.123E-05 0.477E-05 0.617E-46
CGA:   8    -0.202698340633E+04   -0.20186E-04   -0.20180E-04  1304   0.199E-04 0.355E-05
 gam= 0.269 trial= 0.560  step= 0.691 mean= 0.560
 gam= 0.300 g(H,U,f)=  0.584E-05 0.135E-06 0.193E-47 ort(H,U,f) =-0.162E-05 0.552E-06 0.174E-46
CGA:   9    -0.202698341346E+04   -0.71393E-05   -0.72092E-05  1304   0.598E-05-0.107E-05
 gam= 0.300 trial= 0.566  step= 0.497 mean= 0.566
 gam= 0.301 g(H,U,f)=  0.177E-05 0.326E-07 0.117E-47 ort(H,U,f) = 0.557E-06 0.190E-07 0.658E-47
CGA:  10    -0.202698341485E+04   -0.13865E-05   -0.14064E-05  1304   0.180E-05 0.576E-06
 gam= 0.301 trial= 0.563  step= 0.606 mean= 0.563
 gam= 0.477 g(H,U,f)=  0.831E-06 0.269E-07 0.470E-48 ort(H,U,f) =-0.302E-06-0.132E-07-0.240E-47
CGA:  11    -0.202698341544E+04   -0.59023E-06   -0.59716E-06  1304   0.857E-06-0.315E-06
 gam= 0.477 trial= 0.565  step= 0.421 mean= 0.565
 gam= 0.324 g(H,U,f)=  0.269E-06 0.825E-08 0.168E-48 ort(H,U,f) = 0.146E-06 0.969E-09-0.453E-48
CGA:  12    -0.202698341558E+04   -0.13800E-06   -0.14873E-06  1304   0.278E-06 0.147E-06
 gam= 0.324 trial= 0.558  step= 0.572 mean= 0.558
 gam= 0.424 g(H,U,f)=  0.112E-06 0.517E-08 0.902E-49 ort(H,U,f) = 0.125E-07 0.712E-09 0.161E-49
CGA:  13    -0.202698341567E+04   -0.92994E-07   -0.92904E-07  1304   0.118E-06 0.132E-07
 gam= 0.424 trial= 0.558  step= 2.432 mean= 0.558
 gam= 0.000 g(H,U,f)=  0.326E-05 0.701E-07 0.275E-46 ort(H,U,f) =-0.512E-06-0.884E-08 0.281E-47
CGA:  14    -0.202698341533E+04    0.33837E-06   -0.14984E-06  1304   0.333E-05-0.521E-06
 gam= 0.000 trial= 0.652  step= 0.228 mean= 0.652
 gam= 0.079 g(H,U,f)=  0.260E-06 0.265E-08 0.260E-48 ort(H,U,f) = 0.385E-06 0.568E-08 0.276E-47
CGA:  15    -0.202698341563E+04   -0.29653E-06   -0.37932E-06  1304   0.262E-06 0.391E-06
 gam= 0.079 trial= 0.631  step= 0.449 mean= 0.631
 gam= 0.381 g(H,U,f)=  0.961E-07 0.382E-08 0.278E-47 ort(H,U,f) = 0.515E-07-0.121E-08-0.166E-47
CGA:  16    -0.202698341569E+04   -0.61213E-07   -0.65879E-07  1304   0.999E-07 0.503E-07
 gam= 0.381 trial= 0.622  step= 0.962 mean= 0.622
 final diagonalization
  24 F= -.20484290E+04 E0= -.20484290E+04  d E =-.959526E-03
 trial-energy change:   -0.000960  1 .order   -0.000974   -0.001216   -0.000731
 step:   0.7028(harm=  0.7028)  dis= 0.00588  next Energy= -2048.429571 (dE=-0.152E-02)
 bond charge predicted
       N       E                     dE             d eps       ncg     rms          ort
 gam= 0.000 g(H,U,f)=  0.411E+00 0.376E-01 0.112E-41 ort(H,U,f) = 0.000E+00 0.000E+00 0.000E+00
SDA:   1    -0.202681704675E+04    0.16637E+00    0.00000E+00  1304   0.449E+00 0.000E+00
 gam= 0.000 trial= 0.639  step= 0.563 mean= 0.639
 gam= 0.256 g(H,U,f)=  0.108E+00 0.637E-02 0.685E-42 ort(H,U,f) = 0.533E-02-0.531E-02-0.887E-42
CGA:   2    -0.202694348935E+04   -0.12644E+00   -0.12644E+00  1304   0.115E+00 0.279E-04
 gam= 0.256 trial= 0.635  step= 0.599 mean= 0.635
 gam= 0.153 g(H,U,f)=  0.171E-01 0.460E-03 0.276E-42 ort(H,U,f) =-0.522E-03 0.503E-03-0.147E-42
CGA:   3    -0.202697788375E+04   -0.34394E-01   -0.34394E-01  1304   0.176E-01-0.190E-04
 gam= 0.153 trial= 0.633  step= 0.500 mean= 0.633
 gam= 0.217 g(H,U,f)=  0.358E-02 0.233E-03 0.116E-43 ort(H,U,f) =-0.197E-03 0.214E-03-0.144E-43
CGA:   4    -0.202698226939E+04   -0.43856E-02   -0.43867E-02  1304   0.381E-02 0.166E-04
 gam= 0.217 trial= 0.627  step= 0.516 mean= 0.627
 gam= 0.248 g(H,U,f)=  0.841E-03 0.102E-03 0.787E-45 ort(H,U,f) =-0.165E-03 0.154E-03 0.575E-44
CGA:   5    -0.202698325470E+04   -0.98531E-03   -0.98470E-03  1304   0.943E-03-0.112E-04
 gam= 0.248 trial= 0.621  step= 0.563 mean= 0.621
 gam= 0.398 g(H,U,f)=  0.334E-03 0.404E-04 0.498E-45 ort(H,U,f) =-0.724E-04 0.814E-04 0.280E-44
CGA:   6    -0.202698351905E+04   -0.26435E-03   -0.26461E-03  1304   0.375E-03 0.898E-05
 gam= 0.398 trial= 0.618  step= 0.569 mean= 0.618
 gam= 0.437 g(H,U,f)=  0.150E-03 0.141E-04 0.124E-43 ort(H,U,f) =-0.419E-04 0.357E-04 0.112E-43
CGA:   7    -0.202698362695E+04   -0.10790E-03   -0.10775E-03  1304   0.164E-03-0.615E-05
 gam= 0.437 trial= 0.616  step= 0.587 mean= 0.616
 gam= 0.282 g(H,U,f)=  0.439E-04 0.232E-05 0.604E-45 ort(H,U,f) =-0.573E-05 0.106E-04 0.618E-44
CGA:   8    -0.202698367424E+04   -0.47287E-04   -0.47355E-04  1304   0.462E-04 0.482E-05
 gam= 0.282 trial= 0.614  step= 0.669 mean= 0.614
 gam= 0.301 g(H,U,f)=  0.136E-04 0.315E-06 0.352E-45 ort(H,U,f) =-0.290E-05 0.129E-05 0.251E-44
CGA:   9    -0.202698369011E+04   -0.15870E-04   -0.15914E-04  1304   0.139E-04-0.161E-05
 gam= 0.301 trial= 0.617  step= 0.484 mean= 0.617
 gam= 0.323 g(H,U,f)=  0.441E-05 0.799E-07 0.135E-45 ort(H,U,f) = 0.868E-06 0.597E-07 0.814E-45
CGA:  10    -0.202698369329E+04   -0.31817E-05   -0.32435E-05  1304   0.449E-05 0.927E-06
 gam= 0.323 trial= 0.610  step= 0.570 mean= 0.610
 gam= 0.381 g(H,U,f)=  0.166E-05 0.562E-07 0.581E-46 ort(H,U,f) =-0.445E-06-0.286E-07-0.311E-45
CGA:  11    -0.202698369466E+04   -0.13746E-05   -0.13648E-05  1304   0.171E-05-0.474E-06
 gam= 0.381 trial= 0.608  step= 0.505 mean= 0.608
 gam= 0.317 g(H,U,f)=  0.526E-06 0.163E-07 0.215E-47 ort(H,U,f) = 0.218E-06-0.203E-08-0.134E-46
CGA:  12    -0.202698369504E+04   -0.37503E-06   -0.38625E-06  1304   0.542E-06 0.216E-06
 gam= 0.317 trial= 0.603  step= 0.797 mean= 0.603
 gam= 0.502 g(H,U,f)=  0.263E-06 0.953E-08 0.649E-46 ort(H,U,f) =-0.121E-06 0.461E-09-0.148E-46
CGA:  13    -0.202698369527E+04   -0.23170E-06   -0.24336E-06  1304   0.272E-06-0.120E-06
 gam= 0.502 trial= 0.613  step= 0.573 mean= 0.613
 gam= 0.363 g(H,U,f)=  0.958E-07 0.310E-08 0.843E-46 ort(H,U,f) = 0.264E-07 0.440E-08 0.734E-46
CGA:  14    -0.202698369533E+04   -0.60340E-07   -0.60801E-07  1304   0.989E-07 0.308E-07
 gam= 0.363 trial= 0.611  step= 0.572 mean= 0.611
 final diagonalization
  25 F= -.20484295E+04 E0= -.20484295E+04  d E =-.147720E-02
 curvature:  -6.85 expect dE=-0.351E-01 dE for cont linesearch -0.310E-06
 trial: gam= 1.19054 g(F)=  0.511E-02 g(S)=  0.574E-05 ort =-0.619E-04 (trialstep = 0.247E+00)
 search vector abs. value=  0.125E+00
 bond charge predicted
       N       E                     dE             d eps       ncg     rms          ort
 gam= 0.000 g(H,U,f)=  0.210E+00 0.194E-01 0.392E-43 ort(H,U,f) = 0.000E+00 0.000E+00 0.000E+00
SDA:   1    -0.202689991137E+04    0.83784E-01    0.00000E+00  1304   0.230E+00 0.000E+00
 gam= 0.000 trial= 0.609  step= 0.559 mean= 0.609
 gam= 0.252 g(H,U,f)=  0.548E-01 0.303E-02 0.260E-40 ort(H,U,f) = 0.261E-02-0.259E-02-0.110E-41
CGA:   2    -0.202696409845E+04   -0.64187E-01   -0.64187E-01  1304   0.578E-01 0.215E-04
 gam= 0.252 trial= 0.606  step= 0.605 mean= 0.606
 gam= 0.149 g(H,U,f)=  0.844E-02 0.198E-03 0.238E-41 ort(H,U,f) =-0.321E-03 0.299E-03-0.390E-41
CGA:   3    -0.202698159585E+04   -0.17497E-01   -0.17497E-01  1304   0.864E-02-0.220E-04
 gam= 0.149 trial= 0.606  step= 0.506 mean= 0.606
 gam= 0.219 g(H,U,f)=  0.178E-02 0.108E-03 0.147E-40 ort(H,U,f) =-0.105E-03 0.123E-03-0.398E-41
CGA:   4    -0.202698377988E+04   -0.21840E-02   -0.21849E-02  1304   0.189E-02 0.172E-04
 gam= 0.219 trial= 0.601  step= 0.505 mean= 0.601
 gam= 0.263 g(H,U,f)=  0.445E-03 0.514E-04 0.107E-40 ort(H,U,f) =-0.893E-04 0.790E-04 0.224E-40
CGA:   5    -0.202698425832E+04   -0.47844E-03   -0.47795E-03  1304   0.497E-03-0.103E-04
 gam= 0.263 trial= 0.597  step= 0.532 mean= 0.597
 gam= 0.384 g(H,U,f)=  0.169E-03 0.212E-04 0.823E-41 ort(H,U,f) =-0.363E-04 0.431E-04 0.244E-40
CGA:   6    -0.202698438948E+04   -0.13116E-03   -0.13138E-03  1304   0.191E-03 0.686E-05
 gam= 0.384 trial= 0.593  step= 0.590 mean= 0.593
 gam= 0.430 g(H,U,f)=  0.749E-04 0.711E-05 0.173E-40 ort(H,U,f) =-0.230E-04 0.183E-04 0.400E-40
CGA:   7    -0.202698444650E+04   -0.57021E-04   -0.57013E-04  1304   0.820E-04-0.467E-05
 gam= 0.430 trial= 0.593  step= 0.592 mean= 0.593
 gam= 0.287 g(H,U,f)=  0.224E-04 0.118E-05 0.529E-41 ort(H,U,f) =-0.190E-05 0.534E-05 0.290E-40
CGA:   8    -0.202698447018E+04   -0.23681E-04   -0.23682E-04  1304   0.236E-04 0.344E-05
 gam= 0.287 trial= 0.593  step= 0.661 mean= 0.593
 gam= 0.336 g(H,U,f)=  0.774E-05 0.170E-06 0.323E-41 ort(H,U,f) =-0.194E-05 0.693E-06 0.144E-40
CGA:   9    -0.202698447825E+04   -0.80680E-05   -0.81102E-05  1304   0.791E-05-0.125E-05
 gam= 0.336 trial= 0.596  step= 0.438 mean= 0.596
 gam= 0.291 g(H,U,f)=  0.226E-05 0.402E-07 0.346E-42 ort(H,U,f) = 0.751E-06 0.576E-07 0.304E-41
CGA:  10    -0.202698447982E+04   -0.15750E-05   -0.16391E-05  1304   0.230E-05 0.809E-06
 gam= 0.291 trial= 0.589  step= 0.615 mean= 0.589
 gam= 0.359 g(H,U,f)=  0.796E-06 0.300E-07 0.137E-45 ort(H,U,f) =-0.245E-06-0.134E-07-0.104E-43
CGA:  11    -0.202698448060E+04   -0.77613E-06   -0.77958E-06  1304   0.826E-06-0.258E-06
 gam= 0.359 trial= 0.590  step= 0.569 mean= 0.590
 gam= 0.333 g(H,U,f)=  0.267E-06 0.806E-08 0.189E-42 ort(H,U,f) = 0.106E-06-0.233E-08 0.429E-42
CGA:  12    -0.202698448081E+04   -0.20741E-06   -0.20842E-06  1304   0.275E-06 0.104E-06
 gam= 0.333 trial= 0.589  step= 0.752 mean= 0.589
 gam= 0.540 g(H,U,f)=  0.144E-06 0.474E-08 0.211E-42 ort(H,U,f) =-0.638E-07 0.107E-08-0.405E-42
CGA:  13    -0.202698448092E+04   -0.11139E-06   -0.11650E-06  1304   0.149E-06-0.627E-07
 gam= 0.540 trial= 0.597  step= 0.485 mean= 0.597
 gam= 0.415 g(H,U,f)=  0.600E-07 0.167E-08 0.512E-43 ort(H,U,f) = 0.143E-07 0.264E-08-0.440E-44
CGA:  14    -0.202698448095E+04   -0.26936E-07   -0.27803E-07  1304   0.616E-07 0.170E-07
 gam= 0.415 trial= 0.591  step= 0.567 mean= 0.591
 final diagonalization
  26 F= -.20484305E+04 E0= -.20484305E+04  d E =-.978275E-03
 trial-energy change:   -0.000978  1 .order   -0.000986   -0.001247   -0.000726
 step:   0.7233(harm=  0.5916)  dis= 0.00720  next Energy= -2048.431143 (dE=-0.162E-02)
 bond charge predicted
       N       E                     dE             d eps       ncg     rms          ort
 gam= 0.000 g(H,U,f)=  0.780E+00 0.721E-01 0.227E-39 ort(H,U,f) = 0.000E+00 0.000E+00 0.000E+00
SDA:   1    -0.202667049981E+04    0.31398E+00    0.00000E+00  1304   0.852E+00 0.000E+00
 gam= 0.000 trial= 0.590  step= 0.559 mean= 0.590
 gam= 0.252 g(H,U,f)=  0.204E+00 0.113E-01 0.172E-35 ort(H,U,f) = 0.960E-02-0.959E-02 0.214E-36
CGA:   2    -0.202690885620E+04   -0.23836E+00   -0.23836E+00  1304   0.215E+00 0.140E-04
 gam= 0.252 trial= 0.589  step= 0.605 mean= 0.589
 gam= 0.149 g(H,U,f)=  0.313E-01 0.738E-03 0.443E-37 ort(H,U,f) =-0.115E-02 0.111E-02-0.718E-37
CGA:   3    -0.202697381008E+04   -0.64954E-01   -0.64954E-01  1304   0.320E-01-0.365E-04
 gam= 0.149 trial= 0.589  step= 0.507 mean= 0.589
 gam= 0.218 g(H,U,f)=  0.658E-02 0.400E-03 0.173E-36 ort(H,U,f) =-0.422E-03 0.457E-03-0.478E-37
CGA:   4    -0.202698192949E+04   -0.81194E-02   -0.81208E-02  1304   0.698E-02 0.348E-04
 gam= 0.218 trial= 0.585  step= 0.506 mean= 0.585
 gam= 0.260 g(H,U,f)=  0.163E-02 0.190E-03 0.285E-36 ort(H,U,f) =-0.313E-03 0.293E-03 0.610E-36
CGA:   5    -0.202698369782E+04   -0.17683E-02   -0.17676E-02  1304   0.182E-02-0.194E-04
 gam= 0.260 trial= 0.581  step= 0.540 mean= 0.581
 gam= 0.392 g(H,U,f)=  0.634E-03 0.780E-04 0.422E-36 ort(H,U,f) =-0.145E-03 0.158E-03 0.125E-35
CGA:   6    -0.202698418655E+04   -0.48873E-03   -0.48901E-03  1304   0.712E-03 0.136E-04
 gam= 0.392 trial= 0.579  step= 0.578 mean= 0.579
 gam= 0.419 g(H,U,f)=  0.272E-03 0.262E-04 0.143E-35 ort(H,U,f) =-0.780E-04 0.689E-04 0.335E-35
CGA:   7    -0.202698439390E+04   -0.20735E-03   -0.20734E-03  1304   0.299E-03-0.907E-05
 gam= 0.419 trial= 0.579  step= 0.608 mean= 0.579
 gam= 0.297 g(H,U,f)=  0.844E-04 0.437E-05 0.700E-36 ort(H,U,f) =-0.122E-04 0.193E-04 0.384E-35
CGA:   8    -0.202698448355E+04   -0.89657E-04   -0.89557E-04  1304   0.888E-04 0.705E-05
 gam= 0.297 trial= 0.581  step= 0.642 mean= 0.581
 gam= 0.315 g(H,U,f)=  0.274E-04 0.614E-06 0.625E-36 ort(H,U,f) =-0.515E-05 0.257E-05 0.267E-35
CGA:   9    -0.202698451267E+04   -0.29115E-04   -0.29195E-04  1304   0.280E-04-0.259E-05
 gam= 0.315 trial= 0.584  step= 0.462 mean= 0.584
 gam= 0.313 g(H,U,f)=  0.859E-05 0.169E-06 0.524E-37 ort(H,U,f) = 0.153E-05 0.168E-06 0.521E-36
CGA:  10    -0.202698451884E+04   -0.61745E-05   -0.62775E-05  1304   0.876E-05 0.169E-05
 gam= 0.313 trial= 0.578  step= 0.581 mean= 0.578
 gam= 0.348 g(H,U,f)=  0.295E-05 0.101E-06 0.219E-39 ort(H,U,f) =-0.653E-06-0.494E-07 0.162E-37
CGA:  11    -0.202698452154E+04   -0.27004E-05   -0.27016E-05  1304   0.305E-05-0.702E-06
 gam= 0.348 trial= 0.578  step= 0.547 mean= 0.578
 gam= 0.337 g(H,U,f)=  0.997E-06 0.307E-07 0.448E-37 ort(H,U,f) = 0.335E-06-0.570E-08 0.100E-36
CGA:  12    -0.202698452231E+04   -0.76378E-06   -0.76863E-06  1304   0.103E-05 0.329E-06
 gam= 0.337 trial= 0.576  step= 0.757 mean= 0.576
 gam= 0.582 g(H,U,f)=  0.580E-06 0.184E-07 0.426E-37 ort(H,U,f) =-0.234E-06 0.438E-08-0.916E-37
CGA:  13    -0.202698452272E+04   -0.41020E-06   -0.43086E-06  1304   0.598E-06-0.229E-06
 gam= 0.582 trial= 0.585  step= 0.413 mean= 0.585
 gam= 0.376 g(H,U,f)=  0.218E-06 0.653E-08 0.151E-37 ort(H,U,f) = 0.744E-07 0.109E-07-0.700E-38
CGA:  14    -0.202698452281E+04   -0.88708E-07   -0.95909E-07  1304   0.225E-06 0.854E-07
 gam= 0.376 trial= 0.577  step= 0.526 mean= 0.577
 final diagonalization
  27 F= -.20484309E+04 E0= -.20484309E+04  d E =-.139806E-02
 curvature:  -6.25 expect dE=-0.332E-01 dE for cont linesearch -0.625E-04
 ZBRENT: interpolating
 opt :   0.5921  next Energy= -2048.430995 (dE=-0.147E-02)
 bond charge predicted
       N       E                     dE             d eps       ncg     rms          ort
 gam= 0.000 g(H,U,f)=  0.592E-01 0.548E-02 0.334E-35 ort(H,U,f) = 0.000E+00 0.000E+00 0.000E+00
SDA:   1    -0.202696086263E+04    0.23660E-01    0.00000E+00  1304   0.647E-01 0.000E+00
 gam= 0.000 trial= 0.574  step= 0.560 mean= 0.574
 gam= 0.252 g(H,U,f)=  0.155E-01 0.858E-03 0.139E-34 ort(H,U,f) = 0.715E-03-0.729E-03-0.420E-35
CGA:   2    -0.202697896458E+04   -0.18102E-01   -0.18102E-01  1304   0.163E-01-0.138E-04
 gam= 0.252 trial= 0.573  step= 0.604 mean= 0.573
 gam= 0.150 g(H,U,f)=  0.238E-02 0.565E-04 0.113E-34 ort(H,U,f) =-0.731E-04 0.861E-04-0.201E-34
CGA:   3    -0.202698388973E+04   -0.49252E-02   -0.49250E-02  1304   0.244E-02 0.130E-04
 gam= 0.150 trial= 0.575  step= 0.507 mean= 0.575
 gam= 0.224 g(H,U,f)=  0.516E-03 0.307E-04 0.165E-33 ort(H,U,f) =-0.442E-04 0.348E-04-0.398E-34
CGA:   4    -0.202698450963E+04   -0.61990E-03   -0.61958E-03  1304   0.547E-03-0.938E-05
 gam= 0.224 trial= 0.572  step= 0.489 mean= 0.572
 gam= 0.254 g(H,U,f)=  0.124E-03 0.147E-04 0.290E-34 ort(H,U,f) =-0.168E-04 0.230E-04 0.574E-34
CGA:   5    -0.202698464247E+04   -0.13284E-03   -0.13310E-03  1304   0.139E-03 0.617E-05
 gam= 0.254 trial= 0.567  step= 0.556 mean= 0.567
 gam= 0.423 g(H,U,f)=  0.527E-04 0.601E-05 0.543E-35 ort(H,U,f) =-0.159E-04 0.120E-04 0.175E-34
CGA:   6    -0.202698468156E+04   -0.39086E-04   -0.39064E-04  1304   0.587E-04-0.382E-05
 gam= 0.423 trial= 0.567  step= 0.533 mean= 0.567
 gam= 0.353 g(H,U,f)=  0.187E-04 0.204E-05 0.456E-35 ort(H,U,f) =-0.313E-05 0.574E-05 0.115E-34
CGA:   7    -0.202698469673E+04   -0.15176E-04   -0.15220E-04  1304   0.207E-04 0.261E-05
 gam= 0.353 trial= 0.565  step= 0.717 mean= 0.565
 gam= 0.382 g(H,U,f)=  0.757E-05 0.342E-06 0.683E-36 ort(H,U,f) =-0.300E-05 0.126E-05 0.336E-35
CGA:   8    -0.202698470436E+04   -0.76272E-05   -0.77588E-05  1304   0.791E-05-0.174E-05
 gam= 0.382 trial= 0.573  step= 0.548 mean= 0.573
 gam= 0.240 g(H,U,f)=  0.186E-05 0.333E-07 0.255E-36 ort(H,U,f) = 0.463E-06 0.188E-06 0.125E-35
CGA:   9    -0.202698470634E+04   -0.19773E-05   -0.19855E-05  1304   0.190E-05 0.651E-06
 gam= 0.240 trial= 0.571  step= 0.626 mean= 0.571
 gam= 0.516 g(H,U,f)=  0.954E-06 0.232E-07 0.102E-38 ort(H,U,f) =-0.374E-06-0.125E-07-0.379E-37
CGA:  10    -0.202698470697E+04   -0.63200E-06   -0.64260E-06  1304   0.978E-06-0.386E-06
 gam= 0.516 trial= 0.574  step= 0.345 mean= 0.574
 gam= 0.303 g(H,U,f)=  0.288E-06 0.779E-08 0.658E-38 ort(H,U,f) = 0.168E-06-0.330E-08-0.498E-37
CGA:  11    -0.202698470709E+04   -0.11515E-06   -0.13407E-06  1304   0.296E-06 0.164E-06
 gam= 0.303 trial= 0.563  step= 0.415 mean= 0.563
 gam= 0.443 g(H,U,f)=  0.126E-06 0.495E-08 0.169E-38 ort(H,U,f) = 0.552E-07 0.393E-10 0.459E-38
CGA:  12    -0.202698470715E+04   -0.67535E-07   -0.71625E-07  1304   0.131E-06 0.552E-07
 gam= 0.443 trial= 0.555  step= 1.331 mean= 0.555
 gam= 0.000 g(H,U,f)=  0.986E-06 0.147E-07 0.426E-38 ort(H,U,f) =-0.336E-06-0.380E-08 0.713E-38
CGA:  13    -0.202698470713E+04    0.27678E-07   -0.10352E-06  1304   0.100E-05-0.340E-06
 gam= 0.000 trial= 0.594  step= 0.225 mean= 0.594
 gam= 0.132 g(H,U,f)=  0.131E-06 0.112E-08 0.477E-39 ort(H,U,f) = 0.234E-06 0.184E-08-0.146E-38
CGA:  14    -0.202698470720E+04   -0.69194E-07   -0.11275E-06  1304   0.132E-06 0.235E-06
 gam= 0.132 trial= 0.576  step= 0.289 mean= 0.576
 final diagonalization
  28 F= -.20484310E+04 E0= -.20484310E+04  d E =-.147744E-02
 curvature:  -7.33 expect dE=-0.253E-01 dE for cont linesearch -0.980E-09
 trial: gam= 0.64751 g(F)=  0.335E-02 g(S)=  0.956E-04 ort =-0.409E-05 (trialstep = 0.316E+00)
 search vector abs. value=  0.558E-01
 bond charge predicted
       N       E                     dE             d eps       ncg     rms          ort
 gam= 0.000 g(H,U,f)=  0.157E+00 0.148E-01 0.326E-32 ort(H,U,f) = 0.000E+00 0.000E+00 0.000E+00
SDA:   1    -0.202692333574E+04    0.61371E-01    0.00000E+00  1304   0.172E+00 0.000E+00
 gam= 0.000 trial= 0.561  step= 0.551 mean= 0.561
 gam= 0.247 g(H,U,f)=  0.404E-01 0.216E-02 0.153E-32 ort(H,U,f) = 0.182E-02-0.181E-02-0.194E-32
CGA:   2    -0.202697070774E+04   -0.47372E-01   -0.47372E-01  1304   0.425E-01 0.426E-05
 gam= 0.247 trial= 0.561  step= 0.612 mean= 0.561
 gam= 0.151 g(H,U,f)=  0.627E-02 0.164E-03 0.213E-32 ort(H,U,f) =-0.177E-03 0.171E-03-0.115E-32
CGA:   3    -0.202698372077E+04   -0.13013E-01   -0.13013E-01  1304   0.643E-02-0.619E-05
 gam= 0.151 trial= 0.563  step= 0.515 mean= 0.563
 gam= 0.207 g(H,U,f)=  0.124E-02 0.876E-04 0.192E-33 ort(H,U,f) =-0.734E-04 0.740E-04-0.257E-33
CGA:   4    -0.202698537673E+04   -0.16560E-02   -0.16560E-02  1304   0.133E-02 0.571E-06
 gam= 0.207 trial= 0.561  step= 0.541 mean= 0.561
 gam= 0.221 g(H,U,f)=  0.259E-03 0.344E-04 0.172E-34 ort(H,U,f) =-0.483E-04 0.498E-04-0.749E-34
CGA:   5    -0.202698573684E+04   -0.36012E-03   -0.36013E-03  1304   0.294E-03 0.149E-05
 gam= 0.221 trial= 0.560  step= 0.682 mean= 0.560
 gam= 0.340 g(H,U,f)=  0.884E-04 0.113E-04 0.862E-35 ort(H,U,f) =-0.248E-04 0.234E-04-0.550E-36
CGA:   6    -0.202698583702E+04   -0.10018E-03   -0.10027E-03  1304   0.997E-04-0.142E-05
 gam= 0.340 trial= 0.566  step= 0.747 mean= 0.566
 gam= 0.379 g(H,U,f)=  0.355E-04 0.229E-05 0.687E-37 ort(H,U,f) =-0.726E-05 0.770E-05-0.912E-36
CGA:   7    -0.202698587412E+04   -0.37099E-04   -0.37059E-04  1304   0.378E-04 0.438E-06
 gam= 0.379 trial= 0.575  step= 0.628 mean= 0.575
 gam= 0.383 g(H,U,f)=  0.140E-04 0.490E-06 0.194E-37 ort(H,U,f) =-0.962E-06 0.170E-05 0.172E-36
CGA:   8    -0.202698588607E+04   -0.11946E-04   -0.11926E-04  1304   0.145E-04 0.735E-06
 gam= 0.383 trial= 0.578  step= 0.522 mean= 0.578
 gam= 0.332 g(H,U,f)=  0.474E-05 0.756E-07 0.244E-39 ort(H,U,f) =-0.908E-06 0.174E-06 0.987E-38
CGA:   9    -0.202698588994E+04   -0.38705E-05   -0.38498E-05  1304   0.481E-05-0.734E-06
 gam= 0.332 trial= 0.575  step= 0.516 mean= 0.575
 gam= 0.227 g(H,U,f)=  0.107E-05 0.286E-07 0.297E-36 ort(H,U,f) = 0.249E-06-0.365E-07-0.140E-36
CGA:  10    -0.202698589111E+04   -0.11730E-05   -0.11792E-05  1304   0.109E-05 0.213E-06
 gam= 0.227 trial= 0.572  step= 0.768 mean= 0.572
 gam= 0.444 g(H,U,f)=  0.462E-06 0.235E-07 0.648E-38 ort(H,U,f) =-0.132E-06-0.117E-07 0.431E-37
CGA:  11    -0.202698589154E+04   -0.42473E-06   -0.43888E-06  1304   0.486E-06-0.144E-06
 gam= 0.444 trial= 0.582  step= 0.503 mean= 0.582
 gam= 0.344 g(H,U,f)=  0.160E-06 0.705E-08 0.315E-38 ort(H,U,f) = 0.803E-07 0.423E-08 0.190E-37
CGA:  12    -0.202698589164E+04   -0.10266E-06   -0.10610E-06  1304   0.167E-06 0.845E-07
 gam= 0.344 trial= 0.578  step= 1.315 mean= 0.578
 gam= 0.000 g(H,U,f)=  0.426E-06 0.109E-07 0.229E-36 ort(H,U,f) =-0.217E-06-0.698E-09 0.960E-37
CGA:  13    -0.202698589169E+04   -0.48240E-07   -0.12903E-06  1304   0.437E-06-0.218E-06
 gam= 0.000 trial= 0.615  step= 0.288 mean= 0.615
 final diagonalization
  29 F= -.20484318E+04 E0= -.20484318E+04  d E =-.834839E-03
 trial-energy change:   -0.000835  1 .order   -0.000837   -0.001089   -0.000586
 step:   0.7100(harm=  0.6840)  dis= 0.00437  next Energy= -2048.432196 (dE=-0.119E-02)
 bond charge predicted
       N       E                     dE             d eps       ncg     rms          ort
 gam= 0.000 g(H,U,f)=  0.244E+00 0.229E-01 0.135E-31 ort(H,U,f) = 0.000E+00 0.000E+00 0.000E+00
SDA:   1    -0.202688954433E+04    0.96347E-01    0.00000E+00  1304   0.267E+00 0.000E+00
 gam= 0.000 trial= 0.598  step= 0.551 mean= 0.598
 gam= 0.247 g(H,U,f)=  0.626E-01 0.335E-02 0.603E-32 ort(H,U,f) = 0.283E-02-0.282E-02-0.758E-32
CGA:   2    -0.202696309147E+04   -0.73547E-01   -0.73547E-01  1304   0.660E-01 0.331E-05
 gam= 0.247 trial= 0.596  step= 0.612 mean= 0.596
 gam= 0.151 g(H,U,f)=  0.973E-02 0.254E-03 0.774E-32 ort(H,U,f) =-0.272E-03 0.264E-03-0.417E-32
CGA:   3    -0.202698329384E+04   -0.20202E-01   -0.20202E-01  1304   0.999E-02-0.721E-05
 gam= 0.151 trial= 0.597  step= 0.515 mean= 0.597
 gam= 0.207 g(H,U,f)=  0.193E-02 0.136E-03 0.449E-33 ort(H,U,f) =-0.113E-03 0.114E-03-0.603E-33
CGA:   4    -0.202698586494E+04   -0.25711E-02   -0.25711E-02  1304   0.207E-02 0.950E-06
 gam= 0.207 trial= 0.593  step= 0.541 mean= 0.593
 gam= 0.221 g(H,U,f)=  0.403E-03 0.533E-04 0.527E-34 ort(H,U,f) =-0.753E-04 0.770E-04-0.224E-33
CGA:   5    -0.202698642412E+04   -0.55918E-03   -0.55922E-03  1304   0.456E-03 0.177E-05
 gam= 0.221 trial= 0.590  step= 0.680 mean= 0.590
 gam= 0.339 g(H,U,f)=  0.137E-03 0.175E-04 0.245E-34 ort(H,U,f) =-0.379E-04 0.363E-04-0.245E-35
CGA:   6    -0.202698657931E+04   -0.15519E-03   -0.15526E-03  1304   0.155E-03-0.161E-05
 gam= 0.339 trial= 0.595  step= 0.746 mean= 0.595
 gam= 0.385 g(H,U,f)=  0.559E-04 0.360E-05 0.204E-36 ort(H,U,f) =-0.115E-04 0.120E-04-0.267E-35
CGA:   7    -0.202698663676E+04   -0.57449E-04   -0.57412E-04  1304   0.595E-04 0.496E-06
 gam= 0.385 trial= 0.602  step= 0.621 mean= 0.602
 gam= 0.391 g(H,U,f)=  0.225E-04 0.781E-06 0.186E-37 ort(H,U,f) =-0.174E-05 0.268E-05 0.294E-36
CGA:   8    -0.202698665532E+04   -0.18563E-04   -0.18554E-04  1304   0.233E-04 0.941E-06
 gam= 0.391 trial= 0.603  step= 0.512 mean= 0.603
 gam= 0.313 g(H,U,f)=  0.717E-05 0.112E-06 0.252E-38 ort(H,U,f) =-0.118E-05 0.297E-06 0.540E-37
CGA:   9    -0.202698666141E+04   -0.60912E-05   -0.60509E-05  1304   0.729E-05-0.887E-06
 gam= 0.313 trial= 0.599  step= 0.538 mean= 0.599
 gam= 0.235 g(H,U,f)=  0.167E-05 0.467E-07 0.103E-35 ort(H,U,f) = 0.300E-06-0.563E-07-0.432E-36
CGA:  10    -0.202698666329E+04   -0.18781E-05   -0.18857E-05  1304   0.171E-05 0.244E-06
 gam= 0.235 trial= 0.596  step= 0.751 mean= 0.596
 gam= 0.456 g(H,U,f)=  0.746E-06 0.352E-07 0.180E-37 ort(H,U,f) =-0.182E-06-0.177E-07 0.136E-36
CGA:  11    -0.202698666394E+04   -0.64930E-06   -0.66463E-06  1304   0.782E-06-0.200E-06
 gam= 0.456 trial= 0.603  step= 0.479 mean= 0.603
 gam= 0.350 g(H,U,f)=  0.262E-06 0.113E-07 0.102E-37 ort(H,U,f) = 0.116E-06 0.702E-08 0.641E-37
CGA:  12    -0.202698666410E+04   -0.15750E-06   -0.16528E-06  1304   0.273E-06 0.123E-06
 gam= 0.350 trial= 0.597  step= 1.027 mean= 0.597
 gam= 0.000 g(H,U,f)=  0.335E-06 0.135E-07 0.513E-36 ort(H,U,f) =-0.203E-06 0.948E-09 0.263E-36
CGA:  13    -0.202698666422E+04   -0.11863E-06   -0.16253E-06  1304   0.348E-06-0.203E-06
 gam= 0.000 trial= 0.619  step= 0.292 mean= 0.619
 gam= 0.175 g(H,U,f)=  0.587E-07 0.219E-08 0.334E-37 ort(H,U,f) = 0.107E-06 0.336E-08 0.135E-36
CGA:  14    -0.202698666425E+04   -0.32880E-07   -0.50913E-07  1304   0.608E-07 0.110E-06
 gam= 0.175 trial= 0.602  step= 0.421 mean= 0.602
 final diagonalization
  30 F= -.20484322E+04 E0= -.20484322E+04  d E =-.117501E-02
 curvature:  -5.51 expect dE=-0.301E-01 dE for cont linesearch -0.146E-05
 trial: gam= 1.63169 g(F)=  0.538E-02 g(S)=  0.727E-04 ort =-0.122E-03 (trialstep = 0.143E+00)
 search vector abs. value=  0.154E+00
 bond charge predicted
       N       E                     dE             d eps       ncg     rms          ort
 gam= 0.000 g(H,U,f)=  0.904E-01 0.860E-02 0.748E-33 ort(H,U,f) = 0.000E+00 0.000E+00 0.000E+00
SDA:   1    -0.202695256977E+04    0.34094E-01    0.00000E+00  1304   0.990E-01 0.000E+00
 gam= 0.000 trial= 0.593  step= 0.546 mean= 0.593
 gam= 0.243 g(H,U,f)=  0.229E-01 0.119E-02 0.157E-32 ort(H,U,f) = 0.101E-02-0.101E-02-0.174E-32
CGA:   2    -0.202697957730E+04   -0.27008E-01   -0.27008E-01  1304   0.241E-01 0.238E-06
 gam= 0.243 trial= 0.591  step= 0.619 mean= 0.591
 gam= 0.150 g(H,U,f)=  0.351E-02 0.851E-04 0.738E-32 ort(H,U,f) =-0.981E-04 0.101E-03-0.186E-32
CGA:   3    -0.202698702158E+04   -0.74443E-02   -0.74442E-02  1304   0.360E-02 0.299E-05
 gam= 0.150 trial= 0.592  step= 0.521 mean= 0.592
 gam= 0.207 g(H,U,f)=  0.697E-03 0.470E-04 0.171E-32 ort(H,U,f) =-0.483E-04 0.456E-04-0.226E-32
CGA:   4    -0.202698795860E+04   -0.93702E-03   -0.93693E-03  1304   0.744E-03-0.264E-05
 gam= 0.207 trial= 0.589  step= 0.539 mean= 0.589
 gam= 0.224 g(H,U,f)=  0.148E-03 0.189E-04 0.200E-36 ort(H,U,f) =-0.257E-04 0.284E-04 0.187E-34
CGA:   5    -0.202698815892E+04   -0.20033E-03   -0.20039E-03  1304   0.167E-03 0.274E-05
 gam= 0.224 trial= 0.586  step= 0.678 mean= 0.586
 gam= 0.354 g(H,U,f)=  0.527E-04 0.641E-05 0.961E-34 ort(H,U,f) =-0.156E-04 0.132E-04 0.115E-33
CGA:   6    -0.202698821563E+04   -0.56708E-04   -0.56819E-04  1304   0.591E-04-0.244E-05
 gam= 0.354 trial= 0.591  step= 0.689 mean= 0.591
 gam= 0.377 g(H,U,f)=  0.208E-04 0.147E-05 0.150E-34 ort(H,U,f) =-0.228E-05 0.480E-05 0.647E-34
CGA:   7    -0.202698823582E+04   -0.20188E-04   -0.20065E-04  1304   0.223E-04 0.251E-05
 gam= 0.377 trial= 0.596  step= 0.657 mean= 0.596
 gam= 0.509 g(H,U,f)=  0.110E-04 0.362E-06 0.205E-34 ort(H,U,f) =-0.287E-05 0.971E-06 0.536E-34
CGA:   8    -0.202698824340E+04   -0.75780E-05   -0.76366E-05  1304   0.113E-04-0.190E-05
 gam= 0.509 trial= 0.599  step= 0.420 mean= 0.599
 gam= 0.210 g(H,U,f)=  0.236E-05 0.268E-07 0.583E-35 ort(H,U,f) = 0.865E-06 0.183E-06 0.278E-34
CGA:   9    -0.202698824548E+04   -0.20847E-05   -0.21783E-05  1304   0.238E-05 0.105E-05
 gam= 0.210 trial= 0.590  step= 0.623 mean= 0.590
 gam= 0.330 g(H,U,f)=  0.759E-06 0.280E-07 0.621E-36 ort(H,U,f) =-0.101E-07-0.204E-07-0.419E-35
CGA:  10    -0.202698824629E+04   -0.81075E-06   -0.81130E-06  1304   0.787E-06-0.305E-07
 gam= 0.330 trial= 0.592  step= 0.973 mean= 0.592
 gam= 0.000 g(H,U,f)=  0.170E-05 0.505E-07 0.327E-35 ort(H,U,f) =-0.640E-06-0.265E-07 0.198E-35
CGA:  11    -0.202698824654E+04   -0.25083E-06   -0.37806E-06  1304   0.175E-05-0.667E-06
 gam= 0.000 trial= 0.611  step= 0.210 mean= 0.611
 gam= 0.110 g(H,U,f)=  0.185E-06 0.818E-08 0.201E-36 ort(H,U,f) = 0.409E-06 0.154E-07 0.830E-36
CGA:  12    -0.202698824664E+04   -0.99477E-07   -0.18422E-06  1304   0.193E-06 0.424E-06
 gam= 0.110 trial= 0.591  step= 0.224 mean= 0.591
 final diagonalization
  31 F= -.20484328E+04 E0= -.20484328E+04  d E =-.671640E-03
 ZBRENT: can't locate minimum, use default step
 trial-energy change:   -0.000672  1 .order   -0.000672   -0.000754   -0.000589
 step:   0.5738(harm=  0.6542)  dis= 0.00575  next Energy= -2048.433896 (dE=-0.172E-02)
 bond charge predicted
       N       E                     dE             d eps       ncg     rms          ort
 gam= 0.000 g(H,U,f)=  0.813E+00 0.774E-01 0.421E-31 ort(H,U,f) = 0.000E+00 0.000E+00 0.000E+00
SDA:   1    -0.202667091831E+04    0.31733E+00    0.00000E+00  1304   0.891E+00 0.000E+00
 gam= 0.000 trial= 0.572  step= 0.546 mean= 0.572
 gam= 0.243 g(H,U,f)=  0.206E+00 0.107E-01 0.482E-30 ort(H,U,f) = 0.907E-02-0.908E-02-0.472E-30
CGA:   2    -0.202691397566E+04   -0.24306E+00   -0.24306E+00  1304   0.217E+00-0.121E-04
 gam= 0.243 trial= 0.571  step= 0.619 mean= 0.571
 gam= 0.150 g(H,U,f)=  0.316E-01 0.767E-03 0.676E-30 ort(H,U,f) =-0.903E-03 0.912E-03-0.173E-30
CGA:   3    -0.202698096862E+04   -0.66993E-01   -0.66993E-01  1304   0.324E-01 0.921E-05
 gam= 0.150 trial= 0.573  step= 0.520 mean= 0.573
 gam= 0.207 g(H,U,f)=  0.627E-02 0.423E-03 0.225E-31 ort(H,U,f) =-0.419E-03 0.413E-03-0.304E-31
CGA:   4    -0.202698939554E+04   -0.84269E-02   -0.84268E-02  1304   0.669E-02-0.599E-05
 gam= 0.207 trial= 0.571  step= 0.540 mean= 0.571
 gam= 0.226 g(H,U,f)=  0.134E-02 0.171E-03 0.284E-35 ort(H,U,f) =-0.247E-03 0.257E-03-0.414E-33
CGA:   5    -0.202699120263E+04   -0.18071E-02   -0.18072E-02  1304   0.151E-02 0.969E-05
 gam= 0.226 trial= 0.569  step= 0.668 mean= 0.569
 gam= 0.350 g(H,U,f)=  0.471E-03 0.586E-04 0.446E-32 ort(H,U,f) =-0.128E-03 0.120E-03 0.514E-32
CGA:   6    -0.202699170858E+04   -0.50596E-03   -0.50634E-03  1304   0.530E-03-0.784E-05
 gam= 0.350 trial= 0.574  step= 0.701 mean= 0.574
 gam= 0.414 g(H,U,f)=  0.206E-03 0.136E-04 0.116E-32 ort(H,U,f) =-0.342E-04 0.431E-04 0.452E-32
CGA:   7    -0.202699189386E+04   -0.18528E-03   -0.18472E-03  1304   0.219E-03 0.889E-05
 gam= 0.414 trial= 0.580  step= 0.589 mean= 0.580
 gam= 0.430 g(H,U,f)=  0.913E-04 0.323E-05 0.140E-32 ort(H,U,f) =-0.161E-04 0.102E-04 0.434E-32
CGA:   8    -0.202699195957E+04   -0.65713E-04   -0.65738E-04  1304   0.945E-04-0.585E-05
 gam= 0.430 trial= 0.581  step= 0.487 mean= 0.581
 gam= 0.221 g(H,U,f)=  0.206E-04 0.302E-06 0.584E-33 ort(H,U,f) = 0.156E-05 0.159E-05 0.253E-32
CGA:   9    -0.202699198180E+04   -0.22227E-04   -0.22376E-04  1304   0.209E-04 0.315E-05
 gam= 0.221 trial= 0.576  step= 0.687 mean= 0.576
 gam= 0.278 g(H,U,f)=  0.561E-05 0.195E-06 0.108E-33 ort(H,U,f) =-0.963E-06-0.185E-06-0.581E-33
CGA:  10    -0.202699198916E+04   -0.73546E-05   -0.74183E-05  1304   0.580E-05-0.115E-05
 gam= 0.278 trial= 0.582  step= 0.666 mean= 0.582
 gam= 0.307 g(H,U,f)=  0.170E-05 0.821E-07 0.275E-33 ort(H,U,f) = 0.421E-06-0.411E-07 0.971E-34
CGA:  11    -0.202699199100E+04   -0.18415E-05   -0.18255E-05  1304   0.178E-05 0.380E-06
 gam= 0.307 trial= 0.586  step= 0.810 mean= 0.586
 gam= 0.751 g(H,U,f)=  0.128E-05 0.540E-07 0.192E-33 ort(H,U,f) =-0.403E-06-0.377E-08-0.293E-33
CGA:  12    -0.202699199172E+04   -0.72183E-06   -0.76760E-06  1304   0.134E-05-0.407E-06
 gam= 0.751 trial= 0.597  step= 0.378 mean= 0.597
 gam= 0.342 g(H,U,f)=  0.438E-06 0.189E-07 0.672E-34 ort(H,U,f) = 0.154E-06 0.286E-07-0.179E-34
CGA:  13    -0.202699199189E+04   -0.17459E-06   -0.19464E-06  1304   0.457E-06 0.182E-06
 gam= 0.342 trial= 0.586  step= 0.434 mean= 0.586
 gam= 0.462 g(H,U,f)=  0.200E-06 0.109E-07 0.197E-34 ort(H,U,f) = 0.633E-07 0.990E-08-0.346E-34
CGA:  14    -0.202699199200E+04   -0.10715E-06   -0.11279E-06  1304   0.211E-06 0.732E-07
 gam= 0.462 trial= 0.579  step= 0.736 mean= 0.579
 gam= 0.000 g(H,U,f)=  0.311E-06 0.596E-08 0.440E-37 ort(H,U,f) =-0.199E-06 0.249E-08-0.184E-36
CGA:  15    -0.202699199208E+04   -0.74615E-07   -0.90142E-07  1304   0.317E-06-0.196E-06
 gam= 0.000 trial= 0.586  step= 0.220 mean= 0.586
 final diagonalization
  32 F= -.20484339E+04 E0= -.20484339E+04  d E =-.169511E-02
 curvature:  -9.31 expect dE=-0.310E-01 dE for cont linesearch -0.261E-04
 trial: gam= 0.40133 g(F)=  0.328E-02 g(S)=  0.495E-04 ort = 0.656E-03 (trialstep = 0.230E+00)
 search vector abs. value=  0.286E-01
 bond charge predicted
       N       E                     dE             d eps       ncg     rms          ort
 gam= 0.000 g(H,U,f)=  0.442E-01 0.439E-02 0.978E-30 ort(H,U,f) = 0.000E+00 0.000E+00 0.000E+00
SDA:   1    -0.202697511278E+04    0.16879E-01    0.00000E+00  1304   0.486E-01 0.000E+00
 gam= 0.000 trial= 0.568  step= 0.543 mean= 0.568
 gam= 0.244 g(H,U,f)=  0.112E-01 0.613E-03 0.354E-30 ort(H,U,f) = 0.581E-03-0.572E-03-0.566E-30
CGA:   2    -0.202698830156E+04   -0.13189E-01   -0.13189E-01  1304   0.119E-01 0.890E-05
 gam= 0.244 trial= 0.567  step= 0.625 mean= 0.567
 gam= 0.153 g(H,U,f)=  0.176E-02 0.460E-04 0.533E-30 ort(H,U,f) =-0.589E-04 0.540E-04-0.249E-30
CGA:   3    -0.202699201115E+04   -0.37096E-02   -0.37097E-02  1304   0.181E-02-0.491E-05
 gam= 0.153 trial= 0.570  step= 0.522 mean= 0.570
 gam= 0.206 g(H,U,f)=  0.350E-03 0.226E-04 0.252E-30 ort(H,U,f) =-0.194E-04 0.235E-04-0.237E-30
CGA:   4    -0.202699248369E+04   -0.47255E-03   -0.47265E-03  1304   0.373E-03 0.416E-05
 gam= 0.206 trial= 0.567  step= 0.543 mean= 0.567
 gam= 0.241 g(H,U,f)=  0.805E-04 0.944E-05 0.121E-32 ort(H,U,f) =-0.154E-04 0.143E-04 0.208E-31
CGA:   5    -0.202699258521E+04   -0.10152E-03   -0.10151E-03  1304   0.900E-04-0.112E-05
 gam= 0.241 trial= 0.566  step= 0.625 mean= 0.566
 gam= 0.362 g(H,U,f)=  0.292E-04 0.344E-05 0.163E-31 ort(H,U,f) =-0.554E-05 0.698E-05 0.273E-31
CGA:   6    -0.202699261330E+04   -0.28091E-04   -0.28048E-04  1304   0.326E-04 0.144E-05
 gam= 0.362 trial= 0.569  step= 0.682 mean= 0.569
 gam= 0.548 g(H,U,f)=  0.170E-04 0.915E-06 0.230E-31 ort(H,U,f) =-0.458E-05 0.247E-05 0.373E-31
CGA:   7    -0.202699262448E+04   -0.11179E-04   -0.11298E-04  1304   0.179E-04-0.211E-05
 gam= 0.548 trial= 0.575  step= 0.451 mean= 0.575
 gam= 0.264 g(H,U,f)=  0.454E-05 0.168E-06 0.179E-32 ort(H,U,f) = 0.939E-06 0.843E-06 0.139E-31
CGA:   8    -0.202699262814E+04   -0.36545E-05   -0.37652E-05  1304   0.471E-05 0.178E-05
 gam= 0.264 trial= 0.569  step= 0.663 mean= 0.569
 gam= 0.293 g(H,U,f)=  0.135E-05 0.275E-07 0.245E-33 ort(H,U,f) =-0.341E-06 0.907E-07 0.229E-32
CGA:   9    -0.202699262984E+04   -0.17054E-05   -0.17171E-05  1304   0.138E-05-0.251E-06
 gam= 0.293 trial= 0.573  step= 0.821 mean= 0.573
 gam= 0.654 g(H,U,f)=  0.875E-06 0.278E-07 0.411E-34 ort(H,U,f) =-0.381E-06-0.308E-07 0.415E-33
CGA:  10    -0.202699263033E+04   -0.48548E-06   -0.53657E-06  1304   0.903E-06-0.412E-06
 gam= 0.654 trial= 0.586  step= 0.240 mean= 0.586
 gam= 0.391 g(H,U,f)=  0.339E-06 0.148E-07 0.406E-36 ort(H,U,f) = 0.221E-06-0.447E-08 0.310E-34
CGA:  11    -0.202699263037E+04   -0.38628E-07   -0.76119E-07  1304   0.353E-06 0.217E-06
 gam= 0.391 trial= 0.568  step= 0.218 mean= 0.568
 final diagonalization
  33 F= -.20484346E+04 E0= -.20484346E+04  d E =-.687953E-03
 trial-energy change:   -0.000688  1 .order   -0.000692   -0.000824   -0.000560
 step:   0.7174(harm=  0.7174)  dis= 0.00287  next Energy= -2048.435159 (dE=-0.129E-02)
 bond charge predicted
       N       E                     dE             d eps       ncg     rms          ort
 gam= 0.000 g(H,U,f)=  0.200E+00 0.198E-01 0.177E-28 ort(H,U,f) = 0.000E+00 0.000E+00 0.000E+00
SDA:   1    -0.202691393468E+04    0.78696E-01    0.00000E+00  1304   0.220E+00 0.000E+00
 gam= 0.000 trial= 0.551  step= 0.543 mean= 0.551
 gam= 0.244 g(H,U,f)=  0.508E-01 0.276E-02 0.547E-29 ort(H,U,f) = 0.260E-02-0.258E-02-0.861E-29
CGA:   2    -0.202697355471E+04   -0.59620E-01   -0.59620E-01  1304   0.536E-01 0.144E-04
 gam= 0.244 trial= 0.551  step= 0.625 mean= 0.551
 gam= 0.152 g(H,U,f)=  0.797E-02 0.207E-03 0.637E-29 ort(H,U,f) =-0.253E-03 0.243E-03-0.297E-29
CGA:   3    -0.202699031593E+04   -0.16761E-01   -0.16762E-01  1304   0.817E-02-0.101E-04
 gam= 0.152 trial= 0.554  step= 0.523 mean= 0.554
 gam= 0.206 g(H,U,f)=  0.158E-02 0.102E-03 0.114E-29 ort(H,U,f) =-0.970E-04 0.106E-03-0.108E-29
CGA:   4    -0.202699245401E+04   -0.21381E-02   -0.21382E-02  1304   0.168E-02 0.911E-05
 gam= 0.206 trial= 0.553  step= 0.543 mean= 0.553
 gam= 0.238 g(H,U,f)=  0.359E-03 0.425E-04 0.817E-32 ort(H,U,f) =-0.663E-04 0.644E-04 0.164E-30
CGA:   5    -0.202699291141E+04   -0.45740E-03   -0.45739E-03  1304   0.401E-03-0.186E-05
 gam= 0.238 trial= 0.552  step= 0.638 mean= 0.552
 gam= 0.366 g(H,U,f)=  0.132E-03 0.153E-04 0.197E-30 ort(H,U,f) =-0.282E-04 0.309E-04 0.308E-30
CGA:   6    -0.202699303942E+04   -0.12801E-03   -0.12789E-03  1304   0.147E-03 0.279E-05
 gam= 0.366 trial= 0.557  step= 0.666 mean= 0.557
 gam= 0.500 g(H,U,f)=  0.694E-04 0.401E-05 0.282E-30 ort(H,U,f) =-0.153E-04 0.113E-04 0.494E-30
CGA:   7    -0.202699308846E+04   -0.49041E-04   -0.49263E-04  1304   0.734E-04-0.405E-05
 gam= 0.500 trial= 0.562  step= 0.492 mean= 0.562
 gam= 0.297 g(H,U,f)=  0.210E-04 0.800E-06 0.172E-31 ort(H,U,f) = 0.526E-06 0.346E-05 0.167E-30
CGA:   8    -0.202699310588E+04   -0.17418E-04   -0.17558E-04  1304   0.218E-04 0.399E-05
 gam= 0.297 trial= 0.559  step= 0.654 mean= 0.559
 gam= 0.268 g(H,U,f)=  0.573E-05 0.118E-06 0.147E-31 ort(H,U,f) =-0.173E-05 0.344E-06 0.736E-31
CGA:   9    -0.202699311335E+04   -0.74697E-05   -0.75360E-05  1304   0.584E-05-0.138E-05
 gam= 0.268 trial= 0.563  step= 0.633 mean= 0.563
 gam= 0.221 g(H,U,f)=  0.125E-05 0.425E-07 0.117E-33 ort(H,U,f) = 0.411E-06-0.532E-07-0.341E-32
CGA:  10    -0.202699311510E+04   -0.17458E-05   -0.17332E-05  1304   0.129E-05 0.358E-06
 gam= 0.221 trial= 0.567  step= 0.876 mean= 0.567
 gam= 0.592 g(H,U,f)=  0.735E-06 0.291E-07 0.291E-32 ort(H,U,f) =-0.280E-06-0.118E-07 0.350E-32
CGA:  11    -0.202699311565E+04   -0.55440E-06   -0.59928E-06  1304   0.764E-06-0.291E-06
 gam= 0.592 trial= 0.582  step= 0.414 mean= 0.582
 gam= 0.379 g(H,U,f)=  0.280E-06 0.945E-08 0.206E-33 ort(H,U,f) = 0.154E-06 0.593E-08-0.139E-32
CGA:  12    -0.202699311576E+04   -0.10881E-06   -0.12230E-06  1304   0.289E-06 0.160E-06
 gam= 0.379 trial= 0.574  step= 0.546 mean= 0.574
 gam= 0.389 g(H,U,f)=  0.103E-06 0.919E-08 0.291E-32 ort(H,U,f) =-0.449E-08 0.283E-08-0.126E-32
CGA:  13    -0.202699311586E+04   -0.95417E-07   -0.95462E-07  1304   0.113E-06-0.166E-08
 gam= 0.389 trial= 0.572  step=27.682 mean= 0.572
 gam= 0.389 trial= 3.721  step= 3.721 mean= 0.903
 gam= 0.000 g(H,U,f)=  0.470E-05 0.239E-06 0.151E-30 ort(H,U,f) =-0.641E-06-0.338E-07-0.223E-31
CGA:  14    -0.202699311503E+04    0.82724E-06    0.25337E+03  1304   0.494E-05-0.675E-06
 gam= 0.000 trial= 1.044  step= 0.308 mean= 1.044
 gam= 0.118 g(H,U,f)=  0.570E-06 0.125E-07 0.371E-34 ort(H,U,f) = 0.440E-06 0.160E-07 0.242E-32
CGA:  15    -0.202699311562E+04   -0.59206E-06   -0.75972E-06  1304   0.583E-06 0.456E-06
 gam= 0.118 trial= 1.007  step= 0.671 mean= 1.007
 gam= 0.298 g(H,U,f)=  0.152E-06 0.216E-07 0.648E-32 ort(H,U,f) =-0.550E-07-0.440E-08-0.445E-32
CGA:  16    -0.202699311584E+04   -0.22366E-06   -0.21359E-06  1304   0.174E-06-0.594E-07
 gam= 0.298 trial= 0.990  step= 0.690 mean= 0.990
 gam= 0.514 g(H,U,f)=  0.819E-07 0.745E-08 0.954E-32 ort(H,U,f) =-0.338E-07-0.496E-08-0.638E-32
CGA:  17    -0.202699311590E+04   -0.59648E-07   -0.53836E-07  1304   0.893E-07-0.387E-07
 gam= 0.514 trial= 0.975  step= 0.389 mean= 0.975
 final diagonalization
  34 F= -.20484352E+04 E0= -.20484352E+04  d E =-.128130E-02
 curvature:  -2.86 expect dE=-0.130E-01 dE for cont linesearch -0.266E-08
 trial: gam= 1.49974 g(F)=  0.451E-02 g(S)=  0.599E-04 ort = 0.516E-05 (trialstep = 0.136E+00)
 search vector abs. value=  0.689E-01
 bond charge predicted
       N       E                     dE             d eps       ncg     rms          ort
 gam= 0.000 g(H,U,f)=  0.364E-01 0.363E-02 0.515E-29 ort(H,U,f) = 0.000E+00 0.000E+00 0.000E+00
SDA:   1    -0.202697906404E+04    0.14052E-01    0.00000E+00  1304   0.401E-01 0.000E+00
 gam= 0.000 trial= 0.946  step= 0.541 mean= 0.946
 gam= 0.244 g(H,U,f)=  0.928E-02 0.502E-03 0.545E-30 ort(H,U,f) = 0.483E-03-0.474E-03-0.182E-29
CGA:   2    -0.202698990613E+04   -0.10842E-01   -0.10844E-01  1304   0.978E-02 0.897E-05
 gam= 0.244 trial= 0.926  step= 0.623 mean= 0.926
 gam= 0.160 g(H,U,f)=  0.152E-02 0.397E-04 0.304E-29 ort(H,U,f) =-0.410E-04 0.357E-04-0.237E-30
CGA:   3    -0.202699295425E+04   -0.30481E-02   -0.30473E-02  1304   0.156E-02-0.535E-05
 gam= 0.160 trial= 0.911  step= 0.502 mean= 0.911
 gam= 0.225 g(H,U,f)=  0.332E-03 0.198E-04 0.435E-29 ort(H,U,f) =-0.128E-04 0.176E-04-0.308E-29
CGA:   4    -0.202699334587E+04   -0.39161E-03   -0.39258E-03  1304   0.351E-03 0.476E-05
 gam= 0.225 trial= 0.890  step= 0.501 mean= 0.890
 gam= 0.273 g(H,U,f)=  0.876E-04 0.827E-05 0.137E-29 ort(H,U,f) =-0.158E-04 0.126E-04 0.247E-29
CGA:   5    -0.202699343479E+04   -0.88917E-04   -0.88289E-04  1304   0.958E-04-0.323E-05
 gam= 0.273 trial= 0.871  step= 0.513 mean= 0.871
 gam= 0.362 g(H,U,f)=  0.312E-04 0.344E-05 0.148E-30 ort(H,U,f) =-0.466E-05 0.692E-05 0.786E-30
CGA:   6    -0.202699345873E+04   -0.23946E-04   -0.24349E-04  1304   0.347E-04 0.226E-05
 gam= 0.362 trial= 0.853  step= 0.621 mean= 0.853
 gam= 0.431 g(H,U,f)=  0.137E-04 0.124E-05 0.514E-30 ort(H,U,f) =-0.399E-05 0.266E-05 0.908E-30
CGA:   7    -0.202699346990E+04   -0.11170E-04   -0.11016E-04  1304   0.149E-04-0.133E-05
 gam= 0.431 trial= 0.841  step= 0.583 mean= 0.841
 gam= 0.263 g(H,U,f)=  0.374E-05 0.189E-06 0.575E-31 ort(H,U,f) = 0.220E-06 0.787E-06 0.341E-30
CGA:   8    -0.202699347396E+04   -0.40584E-05   -0.41884E-05  1304   0.393E-05 0.101E-05
 gam= 0.263 trial= 0.828  step= 0.699 mean= 0.828
 gam= 0.373 g(H,U,f)=  0.144E-05 0.307E-07 0.175E-31 ort(H,U,f) =-0.428E-06 0.107E-06 0.894E-31
CGA:   9    -0.202699347545E+04   -0.14869E-05   -0.14660E-05  1304   0.147E-05-0.321E-06
 gam= 0.373 trial= 0.822  step= 0.410 mean= 0.822
 gam= 0.288 g(H,U,f)=  0.415E-06 0.693E-08 0.837E-33 ort(H,U,f) = 0.203E-06 0.144E-07 0.116E-31
CGA:  10    -0.202699347568E+04   -0.23157E-06   -0.27620E-06  1304   0.422E-06 0.217E-06
 gam= 0.288 trial= 0.801  step= 0.613 mean= 0.801
 gam= 0.328 g(H,U,f)=  0.133E-06 0.561E-08 0.146E-33 ort(H,U,f) =-0.293E-07-0.529E-09 0.183E-32
CGA:  11    -0.202699347583E+04   -0.15120E-06   -0.14831E-06  1304   0.138E-06-0.299E-07
 gam= 0.328 trial= 0.792  step= 1.218 mean= 0.792
 gam= 0.000 g(H,U,f)=  0.148E-06 0.682E-08 0.147E-32 ort(H,U,f) =-0.734E-07-0.561E-08 0.259E-32
CGA:  12    -0.202699347589E+04   -0.61198E-07   -0.78193E-07  1304   0.155E-06-0.790E-07
 gam= 0.000 trial= 0.813  step= 0.258 mean= 0.813
 final diagonalization
  35 F= -.20484357E+04 E0= -.20484357E+04  d E =-.561978E-03
 ZBRENT: can't locate minimum, use default step
 trial-energy change:   -0.000562  1 .order   -0.000568   -0.000621   -0.000515
 step:   0.5430(harm=  0.7947)  dis= 0.00339  next Energy= -2048.436970 (dE=-0.182E-02)
 bond charge predicted
       N       E                     dE             d eps       ncg     rms          ort
 gam= 0.000 g(H,U,f)=  0.328E+00 0.326E-01 0.154E-27 ort(H,U,f) = 0.000E+00 0.000E+00 0.000E+00
SDA:   1    -0.202686418473E+04    0.12929E+00    0.00000E+00  1304   0.361E+00 0.000E+00
 gam= 0.000 trial= 0.785  step= 0.541 mean= 0.785
 gam= 0.244 g(H,U,f)=  0.835E-01 0.450E-02 0.171E-28 ort(H,U,f) = 0.429E-02-0.426E-02-0.623E-28
CGA:   2    -0.202696177880E+04   -0.97594E-01   -0.97595E-01  1304   0.880E-01 0.316E-04
 gam= 0.244 trial= 0.773  step= 0.623 mean= 0.773
 gam= 0.160 g(H,U,f)=  0.137E-01 0.356E-03 0.528E-28 ort(H,U,f) =-0.339E-03 0.320E-03-0.418E-29
CGA:   3    -0.202698918891E+04   -0.27410E-01   -0.27409E-01  1304   0.141E-01-0.188E-04
 gam= 0.160 trial= 0.766  step= 0.504 mean= 0.766
 gam= 0.225 g(H,U,f)=  0.299E-02 0.178E-03 0.338E-28 ort(H,U,f) =-0.139E-03 0.157E-03-0.243E-28
CGA:   4    -0.202699272511E+04   -0.35362E-02   -0.35384E-02  1304   0.316E-02 0.175E-04
 gam= 0.225 trial= 0.753  step= 0.498 mean= 0.753
 gam= 0.269 g(H,U,f)=  0.776E-03 0.739E-04 0.181E-28 ort(H,U,f) =-0.124E-03 0.113E-03 0.334E-28
CGA:   5    -0.202699351529E+04   -0.79018E-03   -0.78880E-03  1304   0.850E-03-0.110E-04
 gam= 0.269 trial= 0.740  step= 0.524 mean= 0.740
 gam= 0.377 g(H,U,f)=  0.290E-03 0.306E-04 0.289E-29 ort(H,U,f) =-0.531E-04 0.611E-04 0.162E-28
CGA:   6    -0.202699373638E+04   -0.22110E-03   -0.22196E-03  1304   0.320E-03 0.803E-05
 gam= 0.377 trial= 0.729  step= 0.597 mean= 0.729
 gam= 0.404 g(H,U,f)=  0.118E-03 0.109E-04 0.144E-28 ort(H,U,f) =-0.293E-04 0.247E-04 0.259E-28
CGA:   7    -0.202699383321E+04   -0.96829E-04   -0.96528E-04  1304   0.129E-03-0.458E-05
 gam= 0.404 trial= 0.722  step= 0.621 mean= 0.722
 gam= 0.286 g(H,U,f)=  0.352E-04 0.174E-05 0.210E-29 ort(H,U,f) =-0.290E-05 0.658E-05 0.125E-28
CGA:   8    -0.202699387261E+04   -0.39395E-04   -0.39582E-04  1304   0.370E-04 0.368E-05
 gam= 0.286 trial= 0.717  step= 0.654 mean= 0.717
 gam= 0.346 g(H,U,f)=  0.125E-04 0.272E-06 0.121E-29 ort(H,U,f) =-0.229E-05 0.969E-06 0.516E-29
CGA:   9    -0.202699388509E+04   -0.12486E-04   -0.12444E-04  1304   0.128E-04-0.132E-05
 gam= 0.346 trial= 0.714  step= 0.439 mean= 0.714
 gam= 0.304 g(H,U,f)=  0.382E-05 0.773E-07 0.234E-31 ort(H,U,f) = 0.782E-06 0.104E-06 0.450E-30
CGA:  10    -0.202699388768E+04   -0.25880E-05   -0.27099E-05  1304   0.389E-05 0.886E-06
 gam= 0.304 trial= 0.700  step= 0.625 mean= 0.700
 gam= 0.327 g(H,U,f)=  0.123E-05 0.482E-07 0.524E-32 ort(H,U,f) =-0.270E-06-0.129E-07 0.815E-31
CGA:  11    -0.202699388899E+04   -0.13125E-05   -0.13020E-05  1304   0.127E-05-0.283E-06
 gam= 0.327 trial= 0.697  step= 0.671 mean= 0.697
 gam= 0.340 g(H,U,f)=  0.421E-06 0.118E-07 0.447E-31 ort(H,U,f) = 0.819E-07-0.678E-08 0.100E-30
CGA:  12    -0.202699388939E+04   -0.39585E-06   -0.39679E-06  1304   0.433E-06 0.751E-07
 gam= 0.340 trial= 0.695  step= 0.748 mean= 0.695
 gam= 0.718 g(H,U,f)=  0.302E-06 0.930E-08 0.105E-30 ort(H,U,f) =-0.102E-06 0.358E-09-0.130E-30
CGA:  13    -0.202699388956E+04   -0.16890E-06   -0.17160E-06  1304   0.311E-06-0.101E-06
 gam= 0.718 trial= 0.698  step= 0.360 mean= 0.698
 gam= 0.320 g(H,U,f)=  0.962E-07 0.330E-08 0.348E-31 ort(H,U,f) = 0.298E-07 0.532E-08 0.708E-32
CGA:  14    -0.202699388960E+04   -0.36998E-07   -0.42816E-07  1304   0.995E-07 0.351E-07
 gam= 0.320 trial= 0.681  step= 0.444 mean= 0.681
 final diagonalization
  36 F= -.20484367E+04 E0= -.20484367E+04  d E =-.158482E-02
 curvature:  -5.11 expect dE=-0.208E-01 dE for cont linesearch -0.132E-03
 ZBRENT: increasing intervall
 opt :   1.3575  next Energy= -2048.435818 (dE=-0.665E-03)
 bond charge predicted
       N       E                     dE             d eps       ncg     rms          ort
 gam= 0.000 g(H,U,f)=  0.131E+01 0.131E+00 0.387E-26 ort(H,U,f) = 0.000E+00 0.000E+00 0.000E+00
SDA:   1    -0.202647288338E+04    0.52101E+00    0.00000E+00  1304   0.144E+01 0.000E+00
 gam= 0.000 trial= 0.669  step= 0.541 mean= 0.669
 gam= 0.244 g(H,U,f)=  0.334E+00 0.180E-01 0.242E-27 ort(H,U,f) = 0.171E-01-0.170E-01-0.130E-26
CGA:   2    -0.202686331236E+04   -0.39043E+00   -0.39042E+00  1304   0.352E+00 0.214E-04
 gam= 0.244 trial= 0.663  step= 0.623 mean= 0.663
 gam= 0.159 g(H,U,f)=  0.547E-01 0.142E-02 0.555E-27 ort(H,U,f) =-0.132E-02 0.128E-02-0.296E-28
CGA:   3    -0.202697292690E+04   -0.10961E+00   -0.10961E+00  1304   0.561E-01-0.365E-04
 gam= 0.159 trial= 0.661  step= 0.505 mean= 0.661
 gam= 0.224 g(H,U,f)=  0.119E-01 0.712E-03 0.111E-27 ort(H,U,f) =-0.587E-03 0.630E-03-0.801E-28
CGA:   4    -0.202698708598E+04   -0.14159E-01   -0.14162E-01  1304   0.126E-01 0.421E-04
 gam= 0.224 trial= 0.653  step= 0.499 mean= 0.653
 gam= 0.268 g(H,U,f)=  0.308E-02 0.295E-03 0.135E-27 ort(H,U,f) =-0.476E-03 0.452E-03 0.252E-27
CGA:   5    -0.202699023222E+04   -0.31462E-02   -0.31445E-02  1304   0.337E-02-0.238E-04
 gam= 0.268 trial= 0.645  step= 0.528 mean= 0.645
 gam= 0.383 g(H,U,f)=  0.117E-02 0.122E-03 0.431E-28 ort(H,U,f) =-0.225E-03 0.243E-03 0.239E-27
CGA:   6    -0.202699111947E+04   -0.88725E-03   -0.88832E-03  1304   0.129E-02 0.184E-04
 gam= 0.383 trial= 0.640  step= 0.589 mean= 0.640
 gam= 0.397 g(H,U,f)=  0.469E-03 0.435E-04 0.296E-27 ort(H,U,f) =-0.110E-03 0.100E-03 0.539E-27
CGA:   7    -0.202699150174E+04   -0.38227E-03   -0.38202E-03  1304   0.512E-03-0.100E-04
 gam= 0.397 trial= 0.637  step= 0.631 mean= 0.637
 gam= 0.293 g(H,U,f)=  0.143E-03 0.703E-05 0.670E-28 ort(H,U,f) =-0.172E-04 0.259E-04 0.389E-27
CGA:   8    -0.202699166197E+04   -0.16023E-03   -0.16026E-03  1304   0.150E-03 0.862E-05
 gam= 0.293 trial= 0.637  step= 0.640 mean= 0.637
 gam= 0.332 g(H,U,f)=  0.487E-04 0.107E-05 0.505E-28 ort(H,U,f) =-0.690E-05 0.390E-05 0.207E-27
CGA:   9    -0.202699171082E+04   -0.48850E-04   -0.48856E-04  1304   0.498E-04-0.299E-05
 gam= 0.332 trial= 0.637  step= 0.457 mean= 0.637
 gam= 0.324 g(H,U,f)=  0.158E-04 0.336E-06 0.720E-30 ort(H,U,f) = 0.161E-05 0.365E-06 0.159E-28
CGA:  10    -0.202699172180E+04   -0.10974E-04   -0.11151E-04  1304   0.161E-04 0.197E-05
 gam= 0.324 trial= 0.628  step= 0.595 mean= 0.628
 gam= 0.314 g(H,U,f)=  0.488E-05 0.182E-06 0.338E-30 ort(H,U,f) =-0.713E-06-0.510E-07 0.432E-29
CGA:  11    -0.202699172680E+04   -0.49988E-05   -0.49864E-05  1304   0.506E-05-0.764E-06
 gam= 0.314 trial= 0.626  step= 0.653 mean= 0.626
 gam= 0.362 g(H,U,f)=  0.178E-05 0.481E-07 0.188E-29 ort(H,U,f) = 0.279E-06-0.180E-07 0.429E-29
CGA:  12    -0.202699172837E+04   -0.15768E-05   -0.15731E-05  1304   0.183E-05 0.261E-06
 gam= 0.362 trial= 0.628  step= 0.691 mean= 0.628
 gam= 0.670 g(H,U,f)=  0.119E-05 0.354E-07 0.220E-29 ort(H,U,f) =-0.341E-06 0.249E-08-0.395E-29
CGA:  13    -0.202699172903E+04   -0.65405E-06   -0.66500E-06  1304   0.123E-05-0.339E-06
 gam= 0.670 trial= 0.631  step= 0.385 mean= 0.631
 gam= 0.276 g(H,U,f)=  0.326E-06 0.125E-07 0.990E-30 ort(H,U,f) = 0.105E-06 0.199E-07-0.316E-30
CGA:  14    -0.202699172920E+04   -0.17699E-06   -0.19231E-06  1304   0.338E-06 0.125E-06
 gam= 0.276 trial= 0.618  step= 0.528 mean= 0.618
 gam= 0.488 g(H,U,f)=  0.158E-06 0.731E-08 0.325E-30 ort(H,U,f) = 0.267E-07 0.753E-08-0.524E-30
CGA:  15    -0.202699172930E+04   -0.96683E-07   -0.98357E-07  1304   0.165E-06 0.343E-07
 gam= 0.488 trial= 0.614  step= 0.619 mean= 0.614
 final diagonalization
  37 F= -.20484358E+04 E0= -.20484358E+04  d E =-.656650E-03
 curvature:  35.72 expect dE= 0.809E+00 dE for cont linesearch  0.645E-02
 ZBRENT: bracketing found
 ZBRENT: interpolating
 opt :   0.7662  next Energy= -2048.436886 (dE=-0.173E-02)
 bond charge predicted
       N       E                     dE             d eps       ncg     rms          ort
 gam= 0.000 g(H,U,f)=  0.691E+00 0.689E-01 0.253E-25 ort(H,U,f) = 0.000E+00 0.000E+00 0.000E+00
SDA:   1    -0.202672023313E+04    0.27150E+00    0.00000E+00  1304   0.760E+00 0.000E+00
 gam= 0.000 trial= 0.614  step= 0.541 mean= 0.614
 gam= 0.244 g(H,U,f)=  0.176E+00 0.954E-02 0.124E-26 ort(H,U,f) = 0.901E-02-0.903E-02-0.389E-26
CGA:   2    -0.202692597830E+04   -0.20575E+00   -0.20575E+00  1304   0.186E+00-0.285E-04
 gam= 0.244 trial= 0.611  step= 0.622 mean= 0.611
 gam= 0.160 g(H,U,f)=  0.290E-01 0.753E-03 0.671E-25 ort(H,U,f) =-0.642E-03 0.681E-03-0.352E-26
CGA:   3    -0.202698374696E+04   -0.57769E-01   -0.57768E-01  1304   0.297E-01 0.391E-04
 gam= 0.160 trial= 0.611  step= 0.504 mean= 0.611
 gam= 0.227 g(H,U,f)=  0.638E-02 0.377E-03 0.817E-24 ort(H,U,f) =-0.358E-03 0.330E-03-0.520E-24
CGA:   4    -0.202699123396E+04   -0.74870E-02   -0.74855E-02  1304   0.675E-02-0.281E-04
 gam= 0.227 trial= 0.606  step= 0.492 mean= 0.606
 gam= 0.264 g(H,U,f)=  0.163E-02 0.156E-03 0.689E-25 ort(H,U,f) =-0.219E-03 0.241E-03 0.119E-24
CGA:   5    -0.202699289146E+04   -0.16575E-02   -0.16587E-02  1304   0.179E-02 0.222E-04
 gam= 0.264 trial= 0.600  step= 0.536 mean= 0.600
 gam= 0.391 g(H,U,f)=  0.633E-03 0.645E-04 0.192E-26 ort(H,U,f) =-0.142E-03 0.128E-03 0.106E-25
CGA:   6    -0.202699337199E+04   -0.48053E-03   -0.48007E-03  1304   0.698E-03-0.142E-04
 gam= 0.391 trial= 0.597  step= 0.574 mean= 0.597
 gam= 0.373 g(H,U,f)=  0.238E-03 0.228E-04 0.310E-26 ort(H,U,f) =-0.449E-04 0.540E-04 0.627E-26
CGA:   7    -0.202699357070E+04   -0.19871E-03   -0.19881E-03  1304   0.260E-03 0.909E-05
 gam= 0.373 trial= 0.596  step= 0.671 mean= 0.596
 gam= 0.322 g(H,U,f)=  0.799E-04 0.380E-05 0.217E-27 ort(H,U,f) =-0.188E-04 0.127E-04 0.115E-26
CGA:   8    -0.202699365900E+04   -0.88299E-04   -0.88530E-04  1304   0.837E-04-0.611E-05
 gam= 0.322 trial= 0.600  step= 0.596 mean= 0.600
 gam= 0.288 g(H,U,f)=  0.236E-04 0.520E-06 0.638E-28 ort(H,U,f) = 0.462E-06 0.209E-05 0.291E-27
CGA:   9    -0.202699368335E+04   -0.24357E-04   -0.24362E-04  1304   0.241E-04 0.255E-05
 gam= 0.288 trial= 0.599  step= 0.532 mean= 0.599
 gam= 0.426 g(H,U,f)=  0.101E-04 0.235E-06 0.404E-30 ort(H,U,f) =-0.192E-05 0.772E-07-0.115E-28
CGA:  10    -0.202699369004E+04   -0.66862E-05   -0.66247E-05  1304   0.103E-04-0.184E-05
 gam= 0.426 trial= 0.596  step= 0.461 mean= 0.596
 gam= 0.238 g(H,U,f)=  0.238E-05 0.738E-07 0.893E-31 ort(H,U,f) = 0.776E-06-0.136E-07-0.215E-29
CGA:  11    -0.202699369218E+04   -0.21380E-05   -0.21896E-05  1304   0.245E-05 0.763E-06
 gam= 0.238 trial= 0.589  step= 0.762 mean= 0.589
 gam= 0.361 g(H,U,f)=  0.855E-06 0.303E-07 0.268E-29 ort(H,U,f) =-0.875E-07-0.701E-08 0.258E-29
CGA:  12    -0.202699369317E+04   -0.99613E-06   -0.10043E-05  1304   0.885E-06-0.945E-07
 gam= 0.361 trial= 0.598  step= 0.933 mean= 0.598
 gam= 0.693 g(H,U,f)=  0.585E-06 0.284E-07 0.120E-28 ort(H,U,f) =-0.209E-06-0.460E-08-0.813E-29
CGA:  13    -0.202699369354E+04   -0.36150E-06   -0.39726E-06  1304   0.614E-06-0.213E-06
 gam= 0.693 trial= 0.615  step= 0.260 mean= 0.615
 gam= 0.383 g(H,U,f)=  0.224E-06 0.107E-07 0.327E-29 ort(H,U,f) = 0.156E-06 0.151E-07 0.341E-29
CGA:  14    -0.202699369357E+04   -0.30363E-07   -0.60610E-07  1304   0.235E-06 0.171E-06
 gam= 0.383 trial= 0.597  step= 0.252 mean= 0.597
 final diagonalization
  38 F= -.20484369E+04 E0= -.20484369E+04  d E =-.172490E-02
 curvature:  -0.82 expect dE=-0.564E-02 dE for cont linesearch -0.161E-08
 trial: gam= 1.37081 g(F)=  0.681E-02 g(S)=  0.404E-04 ort =-0.116E-04 (trialstep = 0.132E+00)
 search vector abs. value=  0.136E+00
 bond charge predicted
       N       E                     dE             d eps       ncg     rms          ort
 gam= 0.000 g(H,U,f)=  0.682E-01 0.652E-02 0.213E-26 ort(H,U,f) = 0.000E+00 0.000E+00 0.000E+00
SDA:   1    -0.202696708548E+04    0.26608E-01    0.00000E+00  1304   0.747E-01 0.000E+00
 gam= 0.000 trial= 0.580  step= 0.547 mean= 0.580
 gam= 0.244 g(H,U,f)=  0.173E-01 0.867E-03 0.206E-26 ort(H,U,f) = 0.763E-03-0.746E-03 0.281E-26
CGA:   2    -0.202698751983E+04   -0.20434E-01   -0.20435E-01  1304   0.182E-01 0.174E-04
 gam= 0.244 trial= 0.578  step= 0.620 mean= 0.578
 gam= 0.155 g(H,U,f)=  0.276E-02 0.650E-04 0.467E-26 ort(H,U,f) =-0.890E-04 0.793E-04 0.245E-26
CGA:   3    -0.202699316198E+04   -0.56421E-02   -0.56424E-02  1304   0.283E-02-0.966E-05
 gam= 0.155 trial= 0.580  step= 0.513 mean= 0.580
 gam= 0.219 g(H,U,f)=  0.585E-03 0.357E-04 0.132E-26 ort(H,U,f) =-0.288E-04 0.375E-04-0.199E-26
CGA:   4    -0.202699388704E+04   -0.72506E-03   -0.72535E-03  1304   0.621E-03 0.869E-05
 gam= 0.219 trial= 0.577  step= 0.510 mean= 0.577
 gam= 0.270 g(H,U,f)=  0.153E-03 0.152E-04 0.112E-27 ort(H,U,f) =-0.294E-04 0.235E-04 0.297E-27
CGA:   5    -0.202699404597E+04   -0.15893E-03   -0.15873E-03  1304   0.168E-03-0.587E-05
 gam= 0.270 trial= 0.573  step= 0.526 mean= 0.573
 gam= 0.373 g(H,U,f)=  0.563E-04 0.623E-05 0.194E-29 ort(H,U,f) =-0.848E-05 0.128E-04 0.276E-28
CGA:   6    -0.202699408960E+04   -0.43626E-04   -0.43729E-04  1304   0.626E-04 0.434E-05
 gam= 0.373 trial= 0.571  step= 0.611 mean= 0.571
 gam= 0.452 g(H,U,f)=  0.261E-04 0.221E-05 0.871E-28 ort(H,U,f) =-0.789E-05 0.518E-05 0.879E-28
CGA:   7    -0.202699410916E+04   -0.19564E-04   -0.19619E-04  1304   0.283E-04-0.271E-05
 gam= 0.452 trial= 0.573  step= 0.553 mean= 0.573
 gam= 0.260 g(H,U,f)=  0.699E-05 0.350E-06 0.159E-29 ort(H,U,f) = 0.575E-06 0.156E-05 0.185E-28
CGA:   8    -0.202699411662E+04   -0.74590E-05   -0.74801E-05  1304   0.734E-05 0.214E-05
 gam= 0.260 trial= 0.572  step= 0.699 mean= 0.572
 gam= 0.329 g(H,U,f)=  0.237E-05 0.472E-07 0.336E-29 ort(H,U,f) =-0.764E-06 0.209E-06 0.991E-29
CGA:   9    -0.202699411934E+04   -0.27250E-05   -0.27603E-05  1304   0.242E-05-0.555E-06
 gam= 0.329 trial= 0.578  step= 0.469 mean= 0.578
 gam= 0.284 g(H,U,f)=  0.672E-06 0.140E-07 0.193E-30 ort(H,U,f) = 0.345E-06 0.219E-07-0.163E-29
CGA:  10    -0.202699411985E+04   -0.50484E-06   -0.52477E-06  1304   0.686E-06 0.367E-06
 gam= 0.284 trial= 0.573  step= 0.642 mean= 0.573
 gam= 0.459 g(H,U,f)=  0.305E-06 0.987E-08 0.228E-31 ort(H,U,f) =-0.123E-06-0.181E-08-0.962E-31
CGA:  11    -0.202699412010E+04   -0.24971E-06   -0.25386E-06  1304   0.315E-06-0.125E-06
 gam= 0.459 trial= 0.576  step= 0.467 mean= 0.576
 gam= 0.369 g(H,U,f)=  0.114E-06 0.224E-08 0.268E-31 ort(H,U,f) = 0.625E-07 0.398E-09 0.242E-31
CGA:  12    -0.202699412016E+04   -0.56745E-07   -0.60086E-07  1304   0.116E-06 0.629E-07
 gam= 0.369 trial= 0.571  step= 0.587 mean= 0.571
 final diagonalization
  39 F= -.20484377E+04 E0= -.20484377E+04  d E =-.787649E-03
 ZBRENT: can't locate minimum, use default step
 trial-energy change:   -0.000788  1 .order   -0.000796   -0.000905   -0.000688
 step:   0.5295(harm=  0.5517)  dis= 0.00445  next Energy= -2048.438763 (dE=-0.189E-02)
 bond charge predicted
       N       E                     dE             d eps       ncg     rms          ort
 gam= 0.000 g(H,U,f)=  0.613E+00 0.586E-01 0.207E-25 ort(H,U,f) = 0.000E+00 0.000E+00 0.000E+00
SDA:   1    -0.202675076054E+04    0.24336E+00    0.00000E+00  1304   0.672E+00 0.000E+00
 gam= 0.000 trial= 0.572  step= 0.547 mean= 0.572
 gam= 0.244 g(H,U,f)=  0.156E+00 0.779E-02 0.106E-24 ort(H,U,f) = 0.677E-02-0.674E-02 0.979E-25
CGA:   2    -0.202693467765E+04   -0.18392E+00   -0.18392E+00  1304   0.164E+00 0.311E-04
 gam= 0.244 trial= 0.571  step= 0.619 mean= 0.571
 gam= 0.155 g(H,U,f)=  0.249E-01 0.583E-03 0.199E-25 ort(H,U,f) =-0.738E-03 0.707E-03 0.108E-25
CGA:   3    -0.202698542529E+04   -0.50748E-01   -0.50748E-01  1304   0.255E-01-0.306E-04
 gam= 0.155 trial= 0.573  step= 0.514 mean= 0.573
 gam= 0.221 g(H,U,f)=  0.529E-02 0.320E-03 0.134E-26 ort(H,U,f) =-0.306E-03 0.334E-03-0.208E-26
CGA:   4    -0.202699196503E+04   -0.65397E-02   -0.65406E-02  1304   0.561E-02 0.284E-04
 gam= 0.221 trial= 0.570  step= 0.505 mean= 0.570
 gam= 0.266 g(H,U,f)=  0.136E-02 0.136E-03 0.170E-27 ort(H,U,f) =-0.229E-03 0.211E-03 0.446E-27
CGA:   5    -0.202699338585E+04   -0.14208E-02   -0.14203E-02  1304   0.149E-02-0.172E-04
 gam= 0.266 trial= 0.567  step= 0.538 mean= 0.567
 gam= 0.389 g(H,U,f)=  0.525E-03 0.554E-04 0.127E-29 ort(H,U,f) =-0.997E-04 0.113E-03 0.293E-28
CGA:   6    -0.202699378571E+04   -0.39986E-03   -0.40006E-03  1304   0.580E-03 0.135E-04
 gam= 0.389 trial= 0.565  step= 0.585 mean= 0.565
 gam= 0.415 g(H,U,f)=  0.221E-03 0.196E-04 0.157E-27 ort(H,U,f) =-0.561E-04 0.482E-04 0.162E-27
CGA:   7    -0.202699395687E+04   -0.17116E-03   -0.17123E-03  1304   0.241E-03-0.793E-05
 gam= 0.415 trial= 0.566  step= 0.601 mean= 0.566
 gam= 0.286 g(H,U,f)=  0.656E-04 0.325E-05 0.217E-29 ort(H,U,f) =-0.597E-05 0.128E-04 0.310E-28
CGA:   8    -0.202699402838E+04   -0.71512E-04   -0.71395E-04  1304   0.689E-04 0.683E-05
 gam= 0.286 trial= 0.568  step= 0.656 mean= 0.568
 gam= 0.311 g(H,U,f)=  0.210E-04 0.458E-06 0.151E-28 ort(H,U,f) =-0.414E-05 0.185E-05 0.322E-28
CGA:   9    -0.202699405152E+04   -0.23143E-04   -0.23244E-04  1304   0.214E-04-0.228E-05
 gam= 0.311 trial= 0.572  step= 0.474 mean= 0.572
 gam= 0.320 g(H,U,f)=  0.671E-05 0.147E-06 0.139E-29 ort(H,U,f) = 0.137E-05 0.182E-06-0.801E-29
CGA:  10    -0.202699405636E+04   -0.48351E-05   -0.49116E-05  1304   0.686E-05 0.155E-05
 gam= 0.320 trial= 0.568  step= 0.595 mean= 0.568
 gam= 0.378 g(H,U,f)=  0.251E-05 0.821E-07 0.229E-30 ort(H,U,f) =-0.620E-06-0.219E-07-0.494E-30
CGA:  11    -0.202699405854E+04   -0.21794E-05   -0.21883E-05  1304   0.259E-05-0.642E-06
 gam= 0.378 trial= 0.569  step= 0.547 mean= 0.569
 gam= 0.322 g(H,U,f)=  0.816E-06 0.190E-07 0.377E-30 ort(H,U,f) = 0.299E-06-0.416E-08-0.529E-31
CGA:  12    -0.202699405918E+04   -0.63961E-06   -0.64286E-06  1304   0.835E-06 0.295E-06
 gam= 0.322 trial= 0.568  step= 0.790 mean= 0.568
 gam= 0.576 g(H,U,f)=  0.467E-06 0.142E-07 0.126E-29 ort(H,U,f) =-0.214E-06 0.118E-08-0.692E-30
CGA:  13    -0.202699405952E+04   -0.34397E-06   -0.36751E-06  1304   0.481E-06-0.212E-06
 gam= 0.576 trial= 0.579  step= 0.408 mean= 0.579
 gam= 0.392 g(H,U,f)=  0.184E-06 0.508E-08 0.285E-30 ort(H,U,f) = 0.700E-07 0.746E-08 0.416E-30
CGA:  14    -0.202699405959E+04   -0.66531E-07   -0.73266E-07  1304   0.189E-06 0.774E-07
 gam= 0.392 trial= 0.570  step= 0.488 mean= 0.570
 final diagonalization
  40 F= -.20484387E+04 E0= -.20484387E+04  d E =-.181705E-02
 curvature:  -5.48 expect dE=-0.262E-01 dE for cont linesearch -0.379E-06
 trial: gam= 0.68047 g(F)=  0.474E-02 g(S)=  0.347E-04 ort = 0.971E-04 (trialstep = 0.212E+00)
 search vector abs. value=  0.680E-01
 bond charge predicted
       N       E                     dE             d eps       ncg     rms          ort
 gam= 0.000 g(H,U,f)=  0.859E-01 0.793E-02 0.476E-26 ort(H,U,f) = 0.000E+00 0.000E+00 0.000E+00
SDA:   1    -0.202696095172E+04    0.33108E-01    0.00000E+00  1304   0.938E-01 0.000E+00
 gam= 0.000 trial= 0.566  step= 0.552 mean= 0.566
 gam= 0.245 g(H,U,f)=  0.219E-01 0.106E-02 0.141E-28 ort(H,U,f) = 0.835E-03-0.825E-03 0.249E-27
CGA:   2    -0.202698683246E+04   -0.25881E-01   -0.25881E-01  1304   0.230E-01 0.980E-05
 gam= 0.245 trial= 0.566  step= 0.614 mean= 0.566
 gam= 0.156 g(H,U,f)=  0.349E-02 0.940E-04 0.375E-26 ort(H,U,f) =-0.877E-04 0.842E-04 0.772E-27
CGA:   3    -0.202699388917E+04   -0.70567E-02   -0.70568E-02  1304   0.358E-02-0.345E-05
 gam= 0.156 trial= 0.568  step= 0.517 mean= 0.568
 gam= 0.207 g(H,U,f)=  0.695E-03 0.471E-04 0.480E-27 ort(H,U,f) =-0.418E-04 0.417E-04-0.877E-27
CGA:   4    -0.202699481482E+04   -0.92565E-03   -0.92565E-03  1304   0.743E-03-0.107E-06
 gam= 0.207 trial= 0.565  step= 0.542 mean= 0.565
 gam= 0.222 g(H,U,f)=  0.147E-03 0.178E-04 0.142E-30 ort(H,U,f) =-0.234E-04 0.270E-04 0.616E-29
CGA:   5    -0.202699501620E+04   -0.20138E-03   -0.20142E-03  1304   0.165E-03 0.354E-05
 gam= 0.222 trial= 0.564  step= 0.692 mean= 0.564
 gam= 0.344 g(H,U,f)=  0.507E-04 0.602E-05 0.295E-29 ort(H,U,f) =-0.143E-04 0.123E-04 0.745E-29
CGA:   6    -0.202699507338E+04   -0.57177E-04   -0.57305E-04  1304   0.567E-04-0.199E-05
 gam= 0.344 trial= 0.571  step= 0.730 mean= 0.571
 gam= 0.348 g(H,U,f)=  0.185E-04 0.119E-05 0.943E-29 ort(H,U,f) =-0.264E-05 0.412E-05 0.105E-28
CGA:   7    -0.202699509394E+04   -0.20567E-04   -0.20449E-04  1304   0.197E-04 0.148E-05
 gam= 0.348 trial= 0.579  step= 0.690 mean= 0.579
 gam= 0.413 g(H,U,f)=  0.789E-05 0.253E-06 0.189E-29 ort(H,U,f) =-0.146E-05 0.771E-06 0.638E-29
CGA:   8    -0.202699510088E+04   -0.69375E-05   -0.69762E-05  1304   0.814E-05-0.691E-06
 gam= 0.413 trial= 0.584  step= 0.442 mean= 0.584
 gam= 0.262 g(H,U,f)=  0.210E-05 0.322E-07 0.181E-30 ort(H,U,f) = 0.509E-06 0.129E-06 0.147E-29
CGA:   9    -0.202699510258E+04   -0.16936E-05   -0.17388E-05  1304   0.213E-05 0.638E-06
 gam= 0.262 trial= 0.577  step= 0.683 mean= 0.577
 gam= 0.351 g(H,U,f)=  0.728E-06 0.222E-07 0.250E-32 ort(H,U,f) =-0.306E-06-0.157E-07 0.693E-31
CGA:  10    -0.202699510334E+04   -0.76886E-06   -0.78574E-06  1304   0.750E-06-0.322E-06
 gam= 0.351 trial= 0.582  step= 0.585 mean= 0.582
 gam= 0.267 g(H,U,f)=  0.193E-06 0.754E-08 0.186E-31 ort(H,U,f) = 0.106E-06-0.528E-08 0.762E-31
CGA:  11    -0.202699510353E+04   -0.18593E-06   -0.18611E-06  1304   0.200E-06 0.101E-06
 gam= 0.267 trial= 0.583  step= 0.699 mean= 0.583
 gam= 0.400 g(H,U,f)=  0.764E-07 0.372E-08 0.362E-31 ort(H,U,f) =-0.784E-08 0.120E-08-0.564E-31
CGA:  12    -0.202699510361E+04   -0.78944E-07   -0.79380E-07  1304   0.801E-07-0.664E-08
 gam= 0.400 trial= 0.588  step= 1.345 mean= 0.588
 final diagonalization
  41 F= -.20484396E+04 E0= -.20484396E+04  d E =-.895672E-03
 trial-energy change:   -0.000896  1 .order   -0.000895   -0.001026   -0.000764
 step:   0.8284(harm=  0.8284)  dis= 0.00510  next Energy= -2048.440702 (dE=-0.201E-02)
 bond charge predicted
       N       E                     dE             d eps       ncg     rms          ort
 gam= 0.000 g(H,U,f)=  0.728E+00 0.672E-01 0.261E-25 ort(H,U,f) = 0.000E+00 0.000E+00 0.000E+00
SDA:   1    -0.202670716971E+04    0.28793E+00    0.00000E+00  1304   0.795E+00 0.000E+00
 gam= 0.000 trial= 0.626  step= 0.552 mean= 0.626
 gam= 0.245 g(H,U,f)=  0.186E+00 0.902E-02 0.671E-27 ort(H,U,f) = 0.699E-02-0.698E-02 0.506E-26
CGA:   2    -0.202692654115E+04   -0.21937E+00   -0.21937E+00  1304   0.195E+00 0.202E-05
 gam= 0.245 trial= 0.622  step= 0.613 mean= 0.622
 gam= 0.156 g(H,U,f)=  0.296E-01 0.800E-03 0.567E-26 ort(H,U,f) =-0.729E-03 0.720E-03 0.109E-26
CGA:   3    -0.202698634187E+04   -0.59801E-01   -0.59801E-01  1304   0.304E-01-0.968E-05
 gam= 0.156 trial= 0.622  step= 0.517 mean= 0.622
 gam= 0.208 g(H,U,f)=  0.590E-02 0.400E-03 0.995E-28 ort(H,U,f) =-0.355E-03 0.357E-03-0.187E-27
CGA:   4    -0.202699418649E+04   -0.78446E-02   -0.78448E-02  1304   0.630E-02 0.201E-05
 gam= 0.208 trial= 0.617  step= 0.544 mean= 0.617
 gam= 0.224 g(H,U,f)=  0.126E-02 0.152E-03 0.511E-32 ort(H,U,f) =-0.220E-03 0.230E-03-0.652E-30
CGA:   5    -0.202699590009E+04   -0.17136E-02   -0.17140E-02  1304   0.141E-02 0.102E-04
 gam= 0.224 trial= 0.613  step= 0.683 mean= 0.613
 gam= 0.339 g(H,U,f)=  0.426E-03 0.517E-04 0.986E-30 ort(H,U,f) =-0.112E-03 0.106E-03 0.238E-29
CGA:   6    -0.202699638202E+04   -0.48193E-03   -0.48211E-03  1304   0.478E-03-0.520E-05
 gam= 0.339 trial= 0.617  step= 0.738 mean= 0.617
 gam= 0.376 g(H,U,f)=  0.169E-03 0.104E-04 0.407E-29 ort(H,U,f) =-0.306E-04 0.351E-04 0.396E-29
CGA:   7    -0.202699655811E+04   -0.17610E-03   -0.17582E-03  1304   0.180E-03 0.450E-05
 gam= 0.376 trial= 0.623  step= 0.634 mean= 0.623
 gam= 0.406 g(H,U,f)=  0.706E-04 0.236E-05 0.832E-30 ort(H,U,f) =-0.922E-05 0.737E-05 0.295E-29
CGA:   8    -0.202699661563E+04   -0.57515E-04   -0.57525E-04  1304   0.729E-04-0.185E-05
 gam= 0.406 trial= 0.623  step= 0.470 mean= 0.623
 gam= 0.267 g(H,U,f)=  0.192E-04 0.311E-06 0.860E-31 ort(H,U,f) = 0.533E-06 0.116E-05 0.711E-30
CGA:   9    -0.202699663246E+04   -0.16830E-04   -0.16959E-04  1304   0.195E-04 0.169E-05
 gam= 0.267 trial= 0.616  step= 0.630 mean= 0.616
 gam= 0.279 g(H,U,f)=  0.529E-05 0.156E-06 0.191E-32 ort(H,U,f) =-0.821E-06-0.974E-07 0.433E-31
CGA:  10    -0.202699663873E+04   -0.62734E-05   -0.62802E-05  1304   0.544E-05-0.918E-06
 gam= 0.279 trial= 0.616  step= 0.631 mean= 0.616
 gam= 0.307 g(H,U,f)=  0.161E-05 0.662E-07 0.233E-31 ort(H,U,f) = 0.464E-06-0.337E-07 0.514E-31
CGA:  11    -0.202699664037E+04   -0.16391E-05   -0.16361E-05  1304   0.167E-05 0.430E-06
 gam= 0.307 trial= 0.617  step= 0.828 mean= 0.617
 gam= 0.812 g(H,U,f)=  0.131E-05 0.462E-07 0.330E-31 ort(H,U,f) =-0.448E-06-0.695E-08-0.492E-31
CGA:  12    -0.202699664107E+04   -0.69844E-06   -0.74632E-06  1304   0.136E-05-0.455E-06
 gam= 0.812 trial= 0.628  step= 0.348 mean= 0.628
 gam= 0.355 g(H,U,f)=  0.465E-06 0.166E-07 0.229E-31 ort(H,U,f) = 0.170E-06 0.218E-07-0.592E-32
CGA:  13    -0.202699664121E+04   -0.14510E-06   -0.17196E-06  1304   0.481E-06 0.192E-06
 gam= 0.355 trial= 0.614  step= 0.371 mean= 0.614
 gam= 0.460 g(H,U,f)=  0.212E-06 0.959E-08 0.246E-32 ort(H,U,f) = 0.896E-07 0.898E-08 0.689E-32
CGA:  14    -0.202699664130E+04   -0.89742E-07   -0.10174E-06  1304   0.221E-06 0.986E-07
 gam= 0.460 trial= 0.601  step= 0.701 mean= 0.601
 final diagonalization
  42 F= -.20484407E+04 E0= -.20484407E+04  d E =-.201065E-02
 curvature:  -5.81 expect dE=-0.313E-01 dE for cont linesearch -0.241E-06
 trial: gam= 1.14357 g(F)=  0.535E-02 g(S)=  0.244E-04 ort = 0.531E-04 (trialstep = 0.241E+00)
 search vector abs. value=  0.944E-01
 bond charge predicted
       N       E                     dE             d eps       ncg     rms          ort
 gam= 0.000 g(H,U,f)=  0.160E+00 0.144E-01 0.207E-28 ort(H,U,f) = 0.000E+00 0.000E+00 0.000E+00
SDA:   1    -0.202693386933E+04    0.62772E-01    0.00000E+00  1304   0.175E+00 0.000E+00
 gam= 0.000 trial= 0.606  step= 0.559 mean= 0.606
 gam= 0.247 g(H,U,f)=  0.412E-01 0.197E-02 0.303E-27 ort(H,U,f) = 0.162E-02-0.161E-02-0.320E-27
CGA:   2    -0.202698267744E+04   -0.48808E-01   -0.48808E-01  1304   0.432E-01 0.891E-05
 gam= 0.247 trial= 0.604  step= 0.607 mean= 0.604
 gam= 0.154 g(H,U,f)=  0.648E-02 0.158E-03 0.238E-27 ort(H,U,f) =-0.187E-03 0.188E-03 0.731E-28
CGA:   3    -0.202699579283E+04   -0.13115E-01   -0.13115E-01  1304   0.664E-02 0.674E-06
 gam= 0.154 trial= 0.604  step= 0.516 mean= 0.604
 gam= 0.207 g(H,U,f)=  0.129E-02 0.830E-04 0.115E-27 ort(H,U,f) =-0.839E-04 0.837E-04-0.121E-27
CGA:   4    -0.202699750539E+04   -0.17126E-02   -0.17125E-02  1304   0.138E-02-0.188E-06
 gam= 0.207 trial= 0.600  step= 0.536 mean= 0.600
 gam= 0.229 g(H,U,f)=  0.281E-03 0.334E-04 0.366E-28 ort(H,U,f) =-0.455E-04 0.515E-04 0.609E-28
CGA:   5    -0.202699787405E+04   -0.36866E-03   -0.36885E-03  1304   0.315E-03 0.596E-05
 gam= 0.229 trial= 0.597  step= 0.667 mean= 0.597
 gam= 0.365 g(H,U,f)=  0.103E-03 0.117E-04 0.796E-30 ort(H,U,f) =-0.285E-04 0.242E-04 0.889E-29
CGA:   6    -0.202699797926E+04   -0.10521E-03   -0.10537E-03  1304   0.115E-03-0.438E-05
 gam= 0.365 trial= 0.600  step= 0.644 mean= 0.600
 gam= 0.417 g(H,U,f)=  0.448E-04 0.311E-05 0.139E-28 ort(H,U,f) =-0.510E-05 0.925E-05 0.183E-28
CGA:   7    -0.202699801579E+04   -0.36528E-04   -0.36438E-04  1304   0.479E-04 0.416E-05
 gam= 0.417 trial= 0.602  step= 0.579 mean= 0.602
 gam= 0.426 g(H,U,f)=  0.197E-04 0.735E-06 0.673E-29 ort(H,U,f) =-0.473E-05 0.237E-05 0.167E-28
CGA:   8    -0.202699803018E+04   -0.14396E-04   -0.14368E-04  1304   0.204E-04-0.236E-05
 gam= 0.426 trial= 0.601  step= 0.490 mean= 0.601
 gam= 0.207 g(H,U,f)=  0.414E-05 0.694E-07 0.440E-32 ort(H,U,f) = 0.934E-06 0.438E-06 0.377E-30
CGA:   9    -0.202699803486E+04   -0.46737E-05   -0.47501E-05  1304   0.421E-05 0.137E-05
 gam= 0.207 trial= 0.596  step= 0.725 mean= 0.596
 gam= 0.324 g(H,U,f)=  0.132E-05 0.464E-07 0.503E-30 ort(H,U,f) =-0.431E-06-0.197E-07 0.929E-30
CGA:  10    -0.202699803646E+04   -0.16003E-05   -0.16296E-05  1304   0.137E-05-0.451E-06
 gam= 0.324 trial= 0.602  step= 0.636 mean= 0.602
 gam= 0.271 g(H,U,f)=  0.357E-06 0.135E-07 0.206E-31 ort(H,U,f) = 0.143E-06-0.124E-07-0.169E-30
CGA:  11    -0.202699803685E+04   -0.39040E-06   -0.38825E-06  1304   0.370E-06 0.131E-06
 gam= 0.271 trial= 0.604  step= 0.729 mean= 0.604
 gam= 0.427 g(H,U,f)=  0.151E-06 0.766E-08 0.124E-31 ort(H,U,f) =-0.182E-07 0.321E-09 0.201E-31
CGA:  12    -0.202699803699E+04   -0.14700E-06   -0.14794E-06  1304   0.158E-06-0.178E-07
 gam= 0.427 trial= 0.610  step= 0.734 mean= 0.610
 gam= 0.457 g(H,U,f)=  0.691E-07 0.322E-08 0.483E-32 ort(H,U,f) =-0.105E-07 0.246E-08-0.135E-31
CGA:  13    -0.202699803705E+04   -0.54861E-07   -0.55249E-07  1304   0.723E-07-0.800E-08
 gam= 0.457 trial= 0.616  step= 0.640 mean= 0.616
 final diagonalization
  43 F= -.20484418E+04 E0= -.20484418E+04  d E =-.108982E-02
 trial-energy change:   -0.001090  1 .order   -0.001092   -0.001313   -0.000871
 step:   0.7677(harm=  0.7175)  dis= 0.00590  next Energy= -2048.442722 (dE=-0.202E-02)
 bond charge predicted
       N       E                     dE             d eps       ncg     rms          ort
 gam= 0.000 g(H,U,f)=  0.762E+00 0.685E-01 0.545E-27 ort(H,U,f) = 0.000E+00 0.000E+00 0.000E+00
SDA:   1    -0.202669425063E+04    0.30379E+00    0.00000E+00  1304   0.831E+00 0.000E+00
 gam= 0.000 trial= 0.617  step= 0.559 mean= 0.617
 gam= 0.247 g(H,U,f)=  0.196E+00 0.933E-02 0.135E-24 ort(H,U,f) = 0.762E-02-0.762E-02-0.159E-24
CGA:   2    -0.202692646248E+04   -0.23221E+00   -0.23221E+00  1304   0.205E+00-0.148E-05
 gam= 0.247 trial= 0.614  step= 0.607 mean= 0.614
 gam= 0.154 g(H,U,f)=  0.308E-01 0.753E-03 0.934E-26 ort(H,U,f) =-0.894E-03 0.898E-03 0.301E-26
CGA:   3    -0.202698884476E+04   -0.62382E-01   -0.62382E-01  1304   0.316E-01 0.397E-05
 gam= 0.154 trial= 0.614  step= 0.516 mean= 0.614
 gam= 0.208 g(H,U,f)=  0.616E-02 0.395E-03 0.176E-26 ort(H,U,f) =-0.401E-03 0.401E-03-0.191E-26
CGA:   4    -0.202699699073E+04   -0.81460E-02   -0.81460E-02  1304   0.656E-02 0.545E-06
 gam= 0.208 trial= 0.609  step= 0.537 mean= 0.609
 gam= 0.230 g(H,U,f)=  0.135E-02 0.160E-03 0.779E-27 ort(H,U,f) =-0.231E-03 0.246E-03 0.129E-26
CGA:   5    -0.202699875039E+04   -0.17597E-02   -0.17602E-02  1304   0.151E-02 0.143E-04
 gam= 0.230 trial= 0.606  step= 0.656 mean= 0.606
 gam= 0.366 g(H,U,f)=  0.496E-03 0.567E-04 0.264E-28 ort(H,U,f) =-0.127E-03 0.117E-03 0.276E-27
CGA:   6    -0.202699924692E+04   -0.49653E-03   -0.49679E-03  1304   0.552E-03-0.102E-04
 gam= 0.366 trial= 0.608  step= 0.640 mean= 0.608
 gam= 0.448 g(H,U,f)=  0.232E-03 0.158E-04 0.438E-27 ort(H,U,f) =-0.350E-04 0.451E-04 0.589E-27
CGA:   7    -0.202699942268E+04   -0.17576E-03   -0.17560E-03  1304   0.247E-03 0.100E-04
 gam= 0.448 trial= 0.610  step= 0.548 mean= 0.610
 gam= 0.372 g(H,U,f)=  0.886E-04 0.348E-05 0.287E-27 ort(H,U,f) =-0.176E-04 0.125E-04 0.684E-27
CGA:   8    -0.202699949189E+04   -0.69213E-04   -0.69057E-04  1304   0.921E-04-0.510E-05
 gam= 0.372 trial= 0.607  step= 0.545 mean= 0.607
 gam= 0.217 g(H,U,f)=  0.196E-04 0.367E-06 0.614E-30 ort(H,U,f) = 0.876E-06 0.194E-05-0.290E-28
CGA:   9    -0.202699951636E+04   -0.24466E-04   -0.24553E-04  1304   0.200E-04 0.282E-05
 gam= 0.217 trial= 0.604  step= 0.701 mean= 0.604
 gam= 0.326 g(H,U,f)=  0.633E-05 0.187E-06 0.303E-28 ort(H,U,f) =-0.131E-05-0.805E-07 0.419E-28
CGA:  10    -0.202699952352E+04   -0.71583E-05   -0.72260E-05  1304   0.652E-05-0.139E-05
 gam= 0.326 trial= 0.608  step= 0.519 mean= 0.608
 gam= 0.337 g(H,U,f)=  0.213E-05 0.611E-07 0.855E-31 ort(H,U,f) = 0.856E-06-0.119E-07 0.242E-29
CGA:  11    -0.202699952505E+04   -0.15370E-05   -0.15744E-05  1304   0.219E-05 0.844E-06
 gam= 0.337 trial= 0.604  step= 0.745 mean= 0.604
 gam= 0.648 g(H,U,f)=  0.138E-05 0.380E-07 0.621E-30 ort(H,U,f) =-0.582E-06-0.130E-07-0.252E-29
CGA:  12    -0.202699952593E+04   -0.88026E-06   -0.92213E-06  1304   0.142E-05-0.595E-06
 gam= 0.648 trial= 0.611  step= 0.390 mean= 0.611
 gam= 0.381 g(H,U,f)=  0.527E-06 0.147E-07 0.617E-32 ort(H,U,f) = 0.238E-06 0.160E-07-0.846E-31
CGA:  13    -0.202699952611E+04   -0.17364E-06   -0.20174E-06  1304   0.542E-06 0.254E-06
 gam= 0.381 trial= 0.600  step= 0.413 mean= 0.600
 gam= 0.383 g(H,U,f)=  0.197E-06 0.105E-07 0.535E-33 ort(H,U,f) = 0.911E-07 0.116E-07-0.322E-32
CGA:  14    -0.202699952623E+04   -0.12216E-06   -0.13175E-06  1304   0.207E-06 0.103E-06
 gam= 0.383 trial= 0.591  step= 1.512 mean= 0.591
 gam= 0.000 g(H,U,f)=  0.179E-05 0.239E-07 0.224E-29 ort(H,U,f) =-0.606E-06-0.766E-08-0.270E-30
CGA:  15    -0.202699952613E+04    0.96741E-07   -0.18643E-06  1304   0.181E-05-0.614E-06
 gam= 0.000 trial= 0.637  step= 0.249 mean= 0.637
 gam= 0.144 g(H,U,f)=  0.260E-06 0.898E-09 0.223E-30 ort(H,U,f) = 0.444E-06 0.138E-08 0.710E-30
CGA:  16    -0.202699952627E+04   -0.13901E-06   -0.22542E-06  1304   0.261E-06 0.445E-06
 gam= 0.144 trial= 0.617  step= 0.332 mean= 0.617
 gam= 0.280 g(H,U,f)=  0.719E-07 0.104E-08 0.937E-32 ort(H,U,f) = 0.878E-07 0.114E-10-0.669E-31
CGA:  17    -0.202699952631E+04   -0.41313E-07   -0.53916E-07  1304   0.729E-07 0.878E-07
 gam= 0.280 trial= 0.603  step= 4.151 mean= 0.603
 gam= 0.280 trial= 3.919  step= 3.919 mean= 0.951
 gam= 0.000 g(H,U,f)=  0.797E-05 0.988E-07 0.633E-32 ort(H,U,f) =-0.947E-06-0.727E-08 0.749E-32
CGA:  18    -0.202699952492E+04    0.13909E-05    0.25337E+03  1304   0.807E-05-0.954E-06
 gam= 0.000 trial= 1.100  step= 0.307 mean= 1.100
 gam= 0.146 g(H,U,f)=  0.117E-05 0.692E-08 0.311E-32 ort(H,U,f) = 0.661E-06-0.213E-07 0.417E-32
CGA:  19    -0.202699952591E+04   -0.98389E-06   -0.12374E-05  1304   0.118E-05 0.640E-06
 gam= 0.146 trial= 1.060  step= 0.606 mean= 1.060
 gam= 0.069 g(H,U,f)=  0.803E-07 0.595E-09 0.107E-30 ort(H,U,f) =-0.153E-06 0.306E-09-0.219E-31
CGA:  20    -0.202699952633E+04   -0.42075E-06   -0.38589E-06  1304   0.809E-07-0.153E-06
 gam= 0.069 trial= 1.037  step= 1.092 mean= 1.037
 gam= 0.000 g(H,U,f)=  0.696E-07 0.170E-08 0.292E-30 ort(H,U,f) =-0.429E-07-0.501E-09-0.178E-30
CGA:  21    -0.202699952636E+04   -0.37136E-07   -0.38439E-07  1304   0.713E-07-0.434E-07
 gam= 0.000 trial= 1.040  step= 0.201 mean= 1.040
 final diagonalization
  44 F= -.20484426E+04 E0= -.20484426E+04  d E =-.191916E-02
 curvature:  -6.16 expect dE=-0.605E-01 dE for cont linesearch -0.113E-04
 trial: gam= 1.91146 g(F)=  0.972E-02 g(S)=  0.107E-03 ort =-0.416E-03 (trialstep = 0.927E-01)
 search vector abs. value=  0.353E+00
 bond charge predicted
       N       E                     dE             d eps       ncg     rms          ort
 gam= 0.000 g(H,U,f)=  0.888E-01 0.806E-02 0.239E-26 ort(H,U,f) = 0.000E+00 0.000E+00 0.000E+00
SDA:   1    -0.202696463233E+04    0.34894E-01    0.00000E+00  1304   0.969E-01 0.000E+00
 gam= 0.000 trial= 0.998  step= 0.560 mean= 0.998
 gam= 0.248 g(H,U,f)=  0.229E-01 0.114E-02 0.425E-27 ort(H,U,f) = 0.963E-03-0.957E-03-0.260E-26
CGA:   2    -0.202699174642E+04   -0.27114E-01   -0.27115E-01  1304   0.240E-01 0.633E-05
 gam= 0.248 trial= 0.976  step= 0.604 mean= 0.976
 gam= 0.156 g(H,U,f)=  0.365E-02 0.952E-04 0.240E-25 ort(H,U,f) =-0.102E-03 0.102E-03-0.131E-26
CGA:   3    -0.202699900707E+04   -0.72607E-02   -0.72605E-02  1304   0.375E-02-0.566E-06
 gam= 0.156 trial= 0.958  step= 0.512 mean= 0.958
 gam= 0.207 g(H,U,f)=  0.725E-03 0.492E-04 0.324E-26 ort(H,U,f) =-0.424E-04 0.431E-04-0.607E-26
CGA:   4    -0.202699996567E+04   -0.95859E-03   -0.95877E-03  1304   0.774E-03 0.734E-06
 gam= 0.207 trial= 0.935  step= 0.543 mean= 0.935
 gam= 0.222 g(H,U,f)=  0.153E-03 0.190E-04 0.936E-28 ort(H,U,f) =-0.276E-04 0.285E-04 0.376E-27
CGA:   5    -0.202700017590E+04   -0.21023E-03   -0.21040E-03  1304   0.172E-03 0.882E-06
 gam= 0.222 trial= 0.916  step= 0.684 mean= 0.916
 gam= 0.330 g(H,U,f)=  0.504E-04 0.624E-05 0.842E-29 ort(H,U,f) =-0.135E-04 0.132E-04-0.540E-28
CGA:   6    -0.202700023481E+04   -0.58908E-04   -0.58870E-04  1304   0.567E-04-0.334E-06
 gam= 0.330 trial= 0.904  step= 0.764 mean= 0.904
 gam= 0.355 g(H,U,f)=  0.189E-04 0.117E-05 0.784E-28 ort(H,U,f) =-0.393E-05 0.414E-05 0.322E-28
CGA:   7    -0.202700025640E+04   -0.21595E-04   -0.21609E-04  1304   0.201E-04 0.205E-06
 gam= 0.355 trial= 0.897  step= 0.676 mean= 0.897
 gam= 0.313 g(H,U,f)=  0.609E-05 0.203E-06 0.765E-32 ort(H,U,f) =-0.241E-06 0.828E-06-0.692E-31
CGA:   8    -0.202700026316E+04   -0.67585E-05   -0.68235E-05  1304   0.629E-05 0.587E-06
 gam= 0.313 trial= 0.886  step= 0.600 mean= 0.886
 gam= 0.427 g(H,U,f)=  0.263E-05 0.521E-07 0.455E-30 ort(H,U,f) =-0.597E-06 0.552E-07-0.230E-29
CGA:   9    -0.202700026518E+04   -0.20201E-05   -0.19426E-05  1304   0.269E-05-0.542E-06
 gam= 0.427 trial= 0.872  step= 0.418 mean= 0.872
 gam= 0.221 g(H,U,f)=  0.580E-06 0.143E-07 0.870E-30 ort(H,U,f) = 0.283E-06-0.818E-08-0.740E-30
CGA:  10    -0.202700026563E+04   -0.45117E-06   -0.51341E-06  1304   0.594E-06 0.275E-06
 gam= 0.221 trial= 0.849  step= 0.640 mean= 0.849
 gam= 0.377 g(H,U,f)=  0.214E-06 0.988E-08 0.106E-32 ort(H,U,f) = 0.347E-07-0.468E-08 0.234E-31
CGA:  11    -0.202700026584E+04   -0.20638E-06   -0.20969E-06  1304   0.224E-06 0.300E-07
 gam= 0.377 trial= 0.839  step= 1.106 mean= 0.839
 gam= 0.000 g(H,U,f)=  0.622E-06 0.192E-07 0.358E-31 ort(H,U,f) =-0.212E-06-0.621E-08-0.610E-31
CGA:  12    -0.202700026594E+04   -0.10103E-06   -0.13008E-06  1304   0.642E-06-0.218E-06
 gam= 0.000 trial= 0.852  step= 0.222 mean= 0.852
 gam= 0.098 g(H,U,f)=  0.606E-07 0.219E-08 0.225E-31 ort(H,U,f) = 0.131E-06 0.468E-08-0.274E-31
CGA:  13    -0.202700026597E+04   -0.28413E-07   -0.71162E-07  1304   0.628E-07 0.136E-06
 gam= 0.098 trial= 0.821  step= 0.261 mean= 0.821
 final diagonalization
  45 F= -.20484434E+04 E0= -.20484434E+04  d E =-.776709E-03
 ZBRENT: can't locate minimum, use default step
 trial-energy change:   -0.000777  1 .order   -0.000781   -0.000837   -0.000726
 step:   0.3706(harm=  0.6984)  dis= 0.00564  next Energy= -2048.445777 (dE=-0.315E-02)
 bond charge predicted
       N       E                     dE             d eps       ncg     rms          ort
 gam= 0.000 g(H,U,f)=  0.799E+00 0.725E-01 0.482E-25 ort(H,U,f) = 0.000E+00 0.000E+00 0.000E+00
SDA:   1    -0.202668109810E+04    0.31917E+00    0.00000E+00  1304   0.872E+00 0.000E+00
 gam= 0.000 trial= 0.793  step= 0.560 mean= 0.793
 gam= 0.248 g(H,U,f)=  0.206E+00 0.102E-01 0.851E-24 ort(H,U,f) = 0.862E-02-0.860E-02-0.326E-23
CGA:   2    -0.202692513678E+04   -0.24404E+00   -0.24403E+00  1304   0.216E+00 0.222E-04
 gam= 0.248 trial= 0.781  step= 0.604 mean= 0.781
 gam= 0.156 g(H,U,f)=  0.329E-01 0.858E-03 0.158E-23 ort(H,U,f) =-0.915E-03 0.914E-03-0.536E-25
CGA:   3    -0.202699046598E+04   -0.65329E-01   -0.65329E-01  1304   0.337E-01-0.736E-06
 gam= 0.156 trial= 0.772  step= 0.512 mean= 0.772
 gam= 0.207 g(H,U,f)=  0.653E-02 0.443E-03 0.454E-25 ort(H,U,f) =-0.385E-03 0.389E-03-0.882E-25
CGA:   4    -0.202699909166E+04   -0.86257E-02   -0.86263E-02  1304   0.697E-02 0.387E-05
 gam= 0.207 trial= 0.759  step= 0.544 mean= 0.759
 gam= 0.222 g(H,U,f)=  0.138E-02 0.171E-03 0.156E-26 ort(H,U,f) =-0.252E-03 0.256E-03 0.660E-26
CGA:   5    -0.202700098638E+04   -0.18947E-02   -0.18952E-02  1304   0.155E-02 0.444E-05
 gam= 0.222 trial= 0.748  step= 0.684 mean= 0.748
 gam= 0.329 g(H,U,f)=  0.453E-03 0.563E-04 0.208E-27 ort(H,U,f) =-0.120E-03 0.119E-03-0.118E-26
CGA:   6    -0.202700151569E+04   -0.52930E-03   -0.52925E-03  1304   0.509E-03-0.170E-05
 gam= 0.329 trial= 0.745  step= 0.765 mean= 0.745
 gam= 0.353 g(H,U,f)=  0.169E-03 0.105E-04 0.143E-26 ort(H,U,f) =-0.352E-04 0.372E-04 0.519E-27
CGA:   7    -0.202700171017E+04   -0.19449E-03   -0.19447E-03  1304   0.180E-03 0.201E-05
 gam= 0.353 trial= 0.746  step= 0.700 mean= 0.746
 gam= 0.316 g(H,U,f)=  0.551E-04 0.171E-05 0.156E-29 ort(H,U,f) =-0.594E-05 0.696E-05-0.551E-28
CGA:   8    -0.202700177323E+04   -0.63056E-04   -0.63079E-04  1304   0.568E-04 0.103E-05
 gam= 0.316 trial= 0.744  step= 0.563 mean= 0.744
 gam= 0.358 g(H,U,f)=  0.200E-04 0.395E-06 0.883E-29 ort(H,U,f) =-0.124E-05 0.512E-06-0.418E-28
CGA:   9    -0.202700178937E+04   -0.16145E-04   -0.16080E-04  1304   0.204E-04-0.725E-06
 gam= 0.358 trial= 0.735  step= 0.489 mean= 0.735
 gam= 0.272 g(H,U,f)=  0.539E-05 0.142E-06 0.111E-28 ort(H,U,f) = 0.435E-06-0.920E-07-0.704E-29
CGA:  10    -0.202700179425E+04   -0.48744E-05   -0.49162E-05  1304   0.553E-05 0.343E-06
 gam= 0.272 trial= 0.722  step= 0.687 mean= 0.722
 gam= 0.331 g(H,U,f)=  0.176E-05 0.751E-07 0.595E-30 ort(H,U,f) =-0.824E-07-0.445E-07-0.211E-29
CGA:  11    -0.202700179618E+04   -0.19349E-05   -0.19327E-05  1304   0.183E-05-0.127E-06
 gam= 0.331 trial= 0.721  step= 0.712 mean= 0.721
 gam= 0.381 g(H,U,f)=  0.657E-06 0.418E-07 0.247E-29 ort(H,U,f) = 0.374E-07-0.194E-08 0.179E-30
CGA:  12    -0.202700179682E+04   -0.63710E-06   -0.63722E-06  1304   0.699E-06 0.355E-07
 gam= 0.381 trial= 0.720  step= 0.772 mean= 0.720
 gam= 0.645 g(H,U,f)=  0.429E-06 0.211E-07 0.172E-32 ort(H,U,f) =-0.169E-06 0.599E-08 0.211E-31
CGA:  13    -0.202700179709E+04   -0.27027E-06   -0.27471E-06  1304   0.450E-06-0.163E-06
 gam= 0.645 trial= 0.723  step= 0.362 mean= 0.723
 gam= 0.305 g(H,U,f)=  0.131E-06 0.663E-08 0.705E-31 ort(H,U,f) = 0.586E-07 0.129E-07 0.282E-30
CGA:  14    -0.202700179714E+04   -0.49564E-07   -0.62500E-07  1304   0.137E-06 0.715E-07
 gam= 0.305 trial= 0.705  step= 0.422 mean= 0.705
 final diagonalization
  46 F= -.20484451E+04 E0= -.20484451E+04  d E =-.242832E-02
 curvature:  -9.66 expect dE=-0.624E-01 dE for cont linesearch -0.477E-03
 ZBRENT: increasing intervall
 opt :   0.9265  next Energy= -2048.445342 (dE=-0.272E-02)
 bond charge predicted
       N       E                     dE             d eps       ncg     rms          ort
 gam= 0.000 g(H,U,f)=  0.320E+01 0.290E+00 0.587E-24 ort(H,U,f) = 0.000E+00 0.000E+00 0.000E+00
SDA:   1    -0.202571909037E+04    0.12827E+01    0.00000E+00  1304   0.349E+01 0.000E+00
 gam= 0.000 trial= 0.691  step= 0.560 mean= 0.691
 gam= 0.248 g(H,U,f)=  0.825E+00 0.407E-01 0.326E-20 ort(H,U,f) = 0.342E-01-0.343E-01-0.930E-20
CGA:   2    -0.202669519990E+04   -0.97611E+00   -0.97608E+00  1304   0.866E+00-0.517E-04
 gam= 0.248 trial= 0.684  step= 0.604 mean= 0.684
 gam= 0.156 g(H,U,f)=  0.131E+00 0.344E-02 0.112E-21 ort(H,U,f) =-0.364E-02 0.367E-02-0.521E-24
CGA:   3    -0.202695643422E+04   -0.26123E+00   -0.26124E+00  1304   0.135E+00 0.313E-04
 gam= 0.156 trial= 0.680  step= 0.512 mean= 0.680
 gam= 0.207 g(H,U,f)=  0.261E-01 0.177E-02 0.345E-24 ort(H,U,f) =-0.155E-02 0.157E-02-0.717E-24
CGA:   4    -0.202699093730E+04   -0.34503E-01   -0.34505E-01  1304   0.279E-01 0.160E-04
 gam= 0.207 trial= 0.672  step= 0.544 mean= 0.672
 gam= 0.222 g(H,U,f)=  0.551E-02 0.686E-03 0.134E-25 ort(H,U,f) =-0.102E-02 0.103E-02 0.616E-25
CGA:   5    -0.202699852062E+04   -0.75833E-02   -0.75841E-02  1304   0.620E-02 0.131E-04
 gam= 0.222 trial= 0.665  step= 0.683 mean= 0.665
 gam= 0.330 g(H,U,f)=  0.182E-02 0.227E-03 0.377E-26 ort(H,U,f) =-0.483E-03 0.478E-03-0.162E-25
CGA:   6    -0.202700063721E+04   -0.21166E-02   -0.21166E-02  1304   0.205E-02-0.462E-05
 gam= 0.330 trial= 0.666  step= 0.758 mean= 0.666
 gam= 0.364 g(H,U,f)=  0.701E-03 0.439E-04 0.136E-25 ort(H,U,f) =-0.144E-03 0.152E-03 0.324E-26
CGA:   7    -0.202700141339E+04   -0.77618E-03   -0.77583E-03  1304   0.745E-03 0.764E-05
 gam= 0.364 trial= 0.671  step= 0.671 mean= 0.671
 gam= 0.359 g(H,U,f)=  0.259E-03 0.823E-05 0.668E-29 ort(H,U,f) =-0.302E-04 0.301E-04 0.334E-27
CGA:   8    -0.202700166435E+04   -0.25096E-03   -0.25096E-03  1304   0.267E-03-0.140E-06
 gam= 0.359 trial= 0.671  step= 0.501 mean= 0.671
 gam= 0.323 g(H,U,f)=  0.848E-04 0.149E-05 0.180E-27 ort(H,U,f) =-0.259E-05 0.357E-05-0.759E-27
CGA:   9    -0.202700173124E+04   -0.66891E-04   -0.66973E-04  1304   0.863E-04 0.977E-06
 gam= 0.323 trial= 0.662  step= 0.546 mean= 0.662
 gam= 0.263 g(H,U,f)=  0.221E-04 0.628E-06 0.676E-28 ort(H,U,f) =-0.463E-06-0.411E-06-0.418E-28
CGA:  10    -0.202700175493E+04   -0.23693E-04   -0.23642E-04  1304   0.227E-04-0.874E-06
 gam= 0.263 trial= 0.656  step= 0.670 mean= 0.656
 gam= 0.333 g(H,U,f)=  0.727E-05 0.288E-06 0.345E-29 ort(H,U,f) = 0.526E-06-0.159E-06-0.121E-28
CGA:  11    -0.202700176247E+04   -0.75331E-05   -0.75308E-05  1304   0.756E-05 0.368E-06
 gam= 0.333 trial= 0.657  step= 0.704 mean= 0.657
 gam= 0.528 g(H,U,f)=  0.383E-05 0.161E-06 0.199E-28 ort(H,U,f) =-0.506E-06-0.781E-08 0.617E-30
CGA:  12    -0.202700176516E+04   -0.26921E-05   -0.27042E-05  1304   0.399E-05-0.514E-06
 gam= 0.528 trial= 0.659  step= 0.487 mean= 0.659
 gam= 0.322 g(H,U,f)=  0.123E-05 0.565E-07 0.239E-29 ort(H,U,f) = 0.119E-06 0.752E-07 0.692E-29
CGA:  13    -0.202700176605E+04   -0.88946E-06   -0.90619E-06  1304   0.129E-05 0.194E-06
 gam= 0.322 trial= 0.651  step= 0.710 mean= 0.651
 gam= 0.408 g(H,U,f)=  0.487E-06 0.376E-07 0.491E-32 ort(H,U,f) =-0.194E-06 0.232E-07-0.430E-31
CGA:  14    -0.202700176652E+04   -0.47301E-06   -0.47823E-06  1304   0.525E-06-0.170E-06
 gam= 0.408 trial= 0.654  step= 0.494 mean= 0.654
 gam= 0.302 g(H,U,f)=  0.151E-06 0.722E-08 0.112E-30 ort(H,U,f) = 0.569E-07 0.107E-07-0.358E-30
CGA:  15    -0.202700176663E+04   -0.10706E-06   -0.11243E-06  1304   0.158E-06 0.676E-07
 gam= 0.302 trial= 0.646  step= 0.756 mean= 0.646
 gam= 0.382 g(H,U,f)=  0.578E-07 0.261E-08 0.282E-30 ort(H,U,f) =-0.205E-07 0.324E-08-0.531E-33
CGA:  16    -0.202700176669E+04   -0.66422E-07   -0.67513E-07  1304   0.604E-07-0.172E-07
 gam= 0.382 trial= 0.651  step= 0.460 mean= 0.651
 final diagonalization
  47 F= -.20484453E+04 E0= -.20484453E+04  d E =-.268433E-02
 curvature:  -5.87 expect dE=-0.112E+00 dE for cont linesearch -0.165E-03
 ZBRENT: bracketing found
 ZBRENT: interpolating
 opt :   0.6876  next Energy= -2048.445685 (dE=-0.306E-02)
 bond charge predicted
       N       E                     dE             d eps       ncg     rms          ort
 gam= 0.000 g(H,U,f)=  0.590E+00 0.536E-01 0.213E-24 ort(H,U,f) = 0.000E+00 0.000E+00 0.000E+00
SDA:   1    -0.202676540995E+04    0.23636E+00    0.00000E+00  1304   0.644E+00 0.000E+00
 gam= 0.000 trial= 0.642  step= 0.560 mean= 0.642
 gam= 0.248 g(H,U,f)=  0.152E+00 0.759E-02 0.228E-29 ort(H,U,f) = 0.639E-02-0.640E-02-0.500E-28
CGA:   2    -0.202694563480E+04   -0.18022E+00   -0.18023E+00  1304   0.160E+00-0.910E-05
 gam= 0.248 trial= 0.638  step= 0.604 mean= 0.638
 gam= 0.156 g(H,U,f)=  0.243E-01 0.634E-03 0.140E-24 ort(H,U,f) =-0.670E-03 0.677E-03-0.758E-26
CGA:   3    -0.202699390090E+04   -0.48266E-01   -0.48266E-01  1304   0.249E-01 0.712E-05
 gam= 0.156 trial= 0.636  step= 0.512 mean= 0.636
 gam= 0.207 g(H,U,f)=  0.483E-02 0.328E-03 0.298E-24 ort(H,U,f) =-0.287E-03 0.286E-03-0.554E-24
CGA:   4    -0.202700027830E+04   -0.63774E-02   -0.63773E-02  1304   0.516E-02-0.851E-06
 gam= 0.207 trial= 0.630  step= 0.544 mean= 0.630
 gam= 0.223 g(H,U,f)=  0.102E-02 0.126E-03 0.681E-26 ort(H,U,f) =-0.190E-03 0.189E-03 0.232E-25
CGA:   5    -0.202700168036E+04   -0.14021E-02   -0.14020E-02  1304   0.115E-02-0.152E-05
 gam= 0.223 trial= 0.625  step= 0.681 mean= 0.625
 gam= 0.328 g(H,U,f)=  0.336E-03 0.415E-04 0.536E-27 ort(H,U,f) =-0.869E-04 0.877E-04-0.317E-26
CGA:   6    -0.202700207100E+04   -0.39063E-03   -0.39061E-03  1304   0.377E-03 0.840E-06
 gam= 0.328 trial= 0.628  step= 0.762 mean= 0.628
 gam= 0.363 g(H,U,f)=  0.129E-03 0.799E-05 0.486E-26 ort(H,U,f) =-0.268E-04 0.277E-04 0.180E-26
CGA:   7    -0.202700221475E+04   -0.14376E-03   -0.14369E-03  1304   0.137E-03 0.957E-06
 gam= 0.363 trial= 0.635  step= 0.696 mean= 0.635
 gam= 0.364 g(H,U,f)=  0.484E-04 0.143E-05 0.311E-29 ort(H,U,f) =-0.851E-05 0.507E-05-0.128E-27
CGA:   8    -0.202700226239E+04   -0.47637E-04   -0.47742E-04  1304   0.498E-04-0.343E-05
 gam= 0.364 trial= 0.638  step= 0.479 mean= 0.638
 gam= 0.286 g(H,U,f)=  0.140E-04 0.204E-06 0.456E-28 ort(H,U,f) = 0.203E-05 0.594E-06-0.182E-27
CGA:   9    -0.202700227382E+04   -0.11431E-04   -0.11639E-04  1304   0.142E-04 0.263E-05
 gam= 0.286 trial= 0.630  step= 0.615 mean= 0.630
 gam= 0.315 g(H,U,f)=  0.435E-05 0.142E-06 0.766E-29 ort(H,U,f) =-0.105E-05-0.983E-07-0.250E-29
CGA:  10    -0.202700227844E+04   -0.46199E-05   -0.46113E-05  1304   0.449E-05-0.115E-05
 gam= 0.315 trial= 0.629  step= 0.605 mean= 0.629
 gam= 0.284 g(H,U,f)=  0.123E-05 0.476E-07 0.272E-29 ort(H,U,f) = 0.453E-06-0.220E-07 0.429E-29
CGA:  11    -0.202700227968E+04   -0.12439E-05   -0.12491E-05  1304   0.128E-05 0.431E-06
 gam= 0.284 trial= 0.628  step= 0.846 mean= 0.628
 gam= 0.636 g(H,U,f)=  0.779E-06 0.319E-07 0.979E-29 ort(H,U,f) =-0.303E-06-0.422E-09 0.798E-29
CGA:  12    -0.202700228024E+04   -0.55812E-06   -0.59125E-06  1304   0.811E-06-0.304E-06
 gam= 0.636 trial= 0.639  step= 0.391 mean= 0.639
 gam= 0.384 g(H,U,f)=  0.301E-06 0.102E-07 0.107E-29 ort(H,U,f) = 0.162E-06 0.177E-07 0.502E-29
CGA:  13    -0.202700228034E+04   -0.98422E-07   -0.12076E-06  1304   0.311E-06 0.180E-06
 gam= 0.384 trial= 0.627  step= 0.412 mean= 0.627
 final diagonalization
  48 F= -.20484457E+04 E0= -.20484457E+04  d E =-.306765E-02
 curvature: -13.40 expect dE=-0.149E+00 dE for cont linesearch -0.297E-08
 trial: gam= 0.89262 g(F)=  0.110E-01 g(S)=  0.434E-04 ort =-0.884E-05 (trialstep = 0.212E+00)
 search vector abs. value=  0.292E+00
 bond charge predicted
       N       E                     dE             d eps       ncg     rms          ort
 gam= 0.000 g(H,U,f)=  0.383E+00 0.345E-01 0.334E-23 ort(H,U,f) = 0.000E+00 0.000E+00 0.000E+00
SDA:   1    -0.202684796708E+04    0.15431E+00    0.00000E+00  1304   0.418E+00 0.000E+00
 gam= 0.000 trial= 0.616  step= 0.567 mean= 0.616
 gam= 0.254 g(H,U,f)=  0.101E+00 0.527E-02 0.213E-21 ort(H,U,f) = 0.460E-02-0.458E-02-0.506E-21
CGA:   2    -0.202696646978E+04   -0.11850E+00   -0.11850E+00  1304   0.106E+00 0.186E-04
 gam= 0.254 trial= 0.613  step= 0.598 mean= 0.613
 gam= 0.156 g(H,U,f)=  0.161E-01 0.428E-03 0.674E-23 ort(H,U,f) =-0.456E-03 0.441E-03 0.327E-23
CGA:   3    -0.202699820206E+04   -0.31732E-01   -0.31732E-01  1304   0.165E-01-0.149E-04
 gam= 0.156 trial= 0.613  step= 0.505 mean= 0.613
 gam= 0.215 g(H,U,f)=  0.333E-02 0.220E-03 0.312E-24 ort(H,U,f) =-0.182E-03 0.197E-03-0.908E-24
CGA:   4    -0.202700237004E+04   -0.41680E-02   -0.41688E-02  1304   0.355E-02 0.149E-04
 gam= 0.215 trial= 0.607  step= 0.523 mean= 0.607
 gam= 0.247 g(H,U,f)=  0.790E-03 0.873E-04 0.216E-24 ort(H,U,f) =-0.142E-03 0.134E-03 0.102E-24
CGA:   5    -0.202700329979E+04   -0.92975E-03   -0.92942E-03  1304   0.877E-03-0.790E-05
 gam= 0.247 trial= 0.603  step= 0.578 mean= 0.603
 gam= 0.401 g(H,U,f)=  0.318E-03 0.342E-04 0.208E-25 ort(H,U,f) =-0.614E-04 0.697E-04-0.812E-25
CGA:   6    -0.202700355253E+04   -0.25274E-03   -0.25284E-03  1304   0.352E-03 0.828E-05
 gam= 0.401 trial= 0.602  step= 0.567 mean= 0.602
 gam= 0.451 g(H,U,f)=  0.146E-03 0.124E-04 0.390E-26 ort(H,U,f) =-0.369E-04 0.306E-04 0.571E-26
CGA:   7    -0.202700365331E+04   -0.10078E-03   -0.10067E-03  1304   0.159E-03-0.624E-05
 gam= 0.451 trial= 0.600  step= 0.568 mean= 0.600
 gam= 0.271 g(H,U,f)=  0.411E-04 0.193E-05 0.106E-25 ort(H,U,f) =-0.389E-05 0.890E-05 0.108E-25
CGA:   8    -0.202700369750E+04   -0.44188E-04   -0.44268E-04  1304   0.430E-04 0.501E-05
 gam= 0.271 trial= 0.598  step= 0.679 mean= 0.598
 gam= 0.274 g(H,U,f)=  0.116E-04 0.231E-06 0.111E-27 ort(H,U,f) =-0.236E-05 0.113E-05-0.141E-26
CGA:   9    -0.202700371252E+04   -0.15020E-04   -0.15070E-04  1304   0.118E-04-0.123E-05
 gam= 0.274 trial= 0.602  step= 0.539 mean= 0.602
 gam= 0.339 g(H,U,f)=  0.391E-05 0.895E-07 0.350E-27 ort(H,U,f) = 0.660E-06 0.547E-07-0.512E-27
CGA:  10    -0.202700371558E+04   -0.30667E-05   -0.30895E-05  1304   0.400E-05 0.714E-06
 gam= 0.339 trial= 0.599  step= 0.564 mean= 0.599
 gam= 0.462 g(H,U,f)=  0.180E-05 0.495E-07 0.510E-27 ort(H,U,f) =-0.503E-06-0.158E-07-0.209E-27
CGA:  11    -0.202700371679E+04   -0.12037E-05   -0.11947E-05  1304   0.184E-05-0.519E-06
 gam= 0.462 trial= 0.597  step= 0.475 mean= 0.597
 gam= 0.279 g(H,U,f)=  0.502E-06 0.135E-07 0.424E-28 ort(H,U,f) = 0.219E-06-0.112E-08 0.121E-27
CGA:  12    -0.202700371715E+04   -0.36765E-06   -0.38099E-06  1304   0.516E-06 0.218E-06
 gam= 0.279 trial= 0.591  step= 0.750 mean= 0.591
 gam= 0.388 g(H,U,f)=  0.191E-06 0.897E-08 0.445E-28 ort(H,U,f) =-0.582E-07 0.174E-08-0.797E-28
CGA:  13    -0.202700371737E+04   -0.21136E-06   -0.21600E-06  1304   0.200E-06-0.565E-07
 gam= 0.388 trial= 0.599  step= 1.206 mean= 0.599
 gam= 0.000 g(H,U,f)=  0.333E-06 0.155E-07 0.301E-27 ort(H,U,f) =-0.141E-06-0.234E-08-0.347E-28
CGA:  14    -0.202700371743E+04   -0.63766E-07   -0.10742E-06  1304   0.349E-06-0.143E-06
 gam= 0.000 trial= 0.630  step= 0.227 mean= 0.630
 final diagonalization
  49 F= -.20484476E+04 E0= -.20484476E+04  d E =-.190553E-02
 trial-energy change:   -0.001906  1 .order   -0.001911   -0.002344   -0.001478
 step:   0.6154(harm=  0.5729)  dis= 0.00851  next Energy= -2048.448971 (dE=-0.328E-02)
 bond charge predicted
       N       E                     dE             d eps       ncg     rms          ort
 gam= 0.000 g(H,U,f)=  0.139E+01 0.126E+00 0.135E-21 ort(H,U,f) = 0.000E+00 0.000E+00 0.000E+00
SDA:   1    -0.202643724570E+04    0.56647E+00    0.00000E+00  1304   0.152E+01 0.000E+00
 gam= 0.000 trial= 0.609  step= 0.567 mean= 0.609
 gam= 0.254 g(H,U,f)=  0.367E+00 0.191E-01 0.100E-17 ort(H,U,f) = 0.166E-01-0.167E-01-0.226E-17
CGA:   2    -0.202686851015E+04   -0.43126E+00   -0.43126E+00  1304   0.386E+00-0.384E-04
 gam= 0.254 trial= 0.607  step= 0.598 mean= 0.607
 gam= 0.156 g(H,U,f)=  0.585E-01 0.156E-02 0.254E-20 ort(H,U,f) =-0.162E-02 0.160E-02 0.140E-20
CGA:   3    -0.202698397838E+04   -0.11547E+00   -0.11547E+00  1304   0.601E-01-0.208E-04
 gam= 0.156 trial= 0.607  step= 0.505 mean= 0.607
 gam= 0.215 g(H,U,f)=  0.121E-01 0.798E-03 0.449E-22 ort(H,U,f) =-0.681E-03 0.713E-03-0.137E-21
CGA:   4    -0.202699915449E+04   -0.15176E-01   -0.15178E-01  1304   0.129E-01 0.317E-04
 gam= 0.215 trial= 0.602  step= 0.523 mean= 0.602
 gam= 0.247 g(H,U,f)=  0.287E-02 0.317E-03 0.344E-22 ort(H,U,f) =-0.501E-03 0.487E-03 0.145E-22
CGA:   5    -0.202700253397E+04   -0.33795E-02   -0.33789E-02  1304   0.319E-02-0.140E-04
 gam= 0.247 trial= 0.598  step= 0.580 mean= 0.598
 gam= 0.406 g(H,U,f)=  0.117E-02 0.124E-03 0.389E-23 ort(H,U,f) =-0.237E-03 0.253E-03-0.147E-22
CGA:   6    -0.202700345714E+04   -0.92317E-03   -0.92331E-03  1304   0.129E-02 0.159E-04
 gam= 0.406 trial= 0.597  step= 0.558 mean= 0.597
 gam= 0.439 g(H,U,f)=  0.523E-03 0.452E-04 0.532E-24 ort(H,U,f) =-0.124E-03 0.113E-03 0.851E-24
CGA:   7    -0.202700382042E+04   -0.36328E-03   -0.36306E-03  1304   0.569E-03-0.112E-04
 gam= 0.439 trial= 0.595  step= 0.583 mean= 0.595
 gam= 0.280 g(H,U,f)=  0.152E-03 0.710E-05 0.190E-23 ort(H,U,f) =-0.218E-04 0.315E-04 0.171E-23
CGA:   8    -0.202700398465E+04   -0.16423E-03   -0.16429E-03  1304   0.159E-03 0.975E-05
 gam= 0.280 trial= 0.594  step= 0.665 mean= 0.594
 gam= 0.270 g(H,U,f)=  0.422E-04 0.852E-06 0.705E-26 ort(H,U,f) =-0.662E-05 0.410E-05-0.147E-24
CGA:   9    -0.202700403850E+04   -0.53841E-04   -0.53930E-04  1304   0.431E-04-0.252E-05
 gam= 0.270 trial= 0.598  step= 0.539 mean= 0.598
 gam= 0.365 g(H,U,f)=  0.154E-04 0.343E-06 0.719E-25 ort(H,U,f) = 0.130E-05 0.188E-06-0.111E-24
CGA:  10    -0.202700404988E+04   -0.11382E-04   -0.11425E-04  1304   0.157E-04 0.149E-05
 gam= 0.365 trial= 0.595  step= 0.525 mean= 0.595
 gam= 0.377 g(H,U,f)=  0.576E-05 0.166E-06 0.671E-25 ort(H,U,f) =-0.990E-06-0.483E-07-0.290E-25
CGA:  11    -0.202700405418E+04   -0.42993E-05   -0.42631E-05  1304   0.592E-05-0.104E-05
 gam= 0.377 trial= 0.591  step= 0.561 mean= 0.591
 gam= 0.298 g(H,U,f)=  0.172E-05 0.475E-07 0.259E-26 ort(H,U,f) = 0.418E-06-0.106E-07 0.112E-25
CGA:  12    -0.202700405572E+04   -0.15464E-05   -0.15526E-05  1304   0.176E-05 0.407E-06
 gam= 0.298 trial= 0.590  step= 0.814 mean= 0.590
 gam= 0.552 g(H,U,f)=  0.941E-06 0.328E-07 0.333E-27 ort(H,U,f) =-0.364E-06 0.790E-08-0.204E-26
CGA:  13    -0.202700405645E+04   -0.72677E-06   -0.76665E-06  1304   0.974E-06-0.357E-06
 gam= 0.552 trial= 0.601  step= 0.399 mean= 0.601
 gam= 0.352 g(H,U,f)=  0.331E-06 0.117E-07 0.400E-28 ort(H,U,f) = 0.129E-06 0.192E-07 0.275E-27
CGA:  14    -0.202700405659E+04   -0.14016E-06   -0.15509E-06  1304   0.343E-06 0.148E-06
 gam= 0.352 trial= 0.591  step= 0.571 mean= 0.591
 gam= 0.324 g(H,U,f)=  0.105E-06 0.637E-08 0.365E-26 ort(H,U,f) =-0.117E-07 0.754E-08 0.140E-26
CGA:  15    -0.202700405670E+04   -0.11278E-06   -0.11277E-06  1304   0.111E-06-0.418E-08
 gam= 0.324 trial= 0.590  step= 1.349 mean= 0.590
 gam= 0.000 g(H,U,f)=  0.640E-06 0.198E-07 0.655E-27 ort(H,U,f) =-0.185E-06-0.527E-08-0.177E-26
CGA:  16    -0.202700405670E+04   -0.18117E-08   -0.74108E-07  1304   0.660E-06-0.190E-06
 gam= 0.000 trial= 0.628  step= 0.212 mean= 0.628
 final diagonalization
  50 F= -.20484488E+04 E0= -.20484488E+04  d E =-.315368E-02
 curvature:  -7.46 expect dE=-0.719E-01 dE for cont linesearch -0.128E-04
 trial: gam= 0.98621 g(F)=  0.963E-02 g(S)=  0.102E-04 ort =-0.709E-03 (trialstep = 0.292E+00)
 search vector abs. value=  0.293E+00
 bond charge predicted
       N       E                     dE             d eps       ncg     rms          ort
 gam= 0.000 g(H,U,f)=  0.724E+00 0.656E-01 0.574E-21 ort(H,U,f) = 0.000E+00 0.000E+00 0.000E+00
SDA:   1    -0.202671159570E+04    0.29246E+00    0.00000E+00  1304   0.789E+00 0.000E+00
 gam= 0.000 trial= 0.607  step= 0.568 mean= 0.607
 gam= 0.254 g(H,U,f)=  0.191E+00 0.100E-01 0.950E-20 ort(H,U,f) = 0.878E-02-0.878E-02-0.279E-19
CGA:   2    -0.202693553060E+04   -0.22393E+00   -0.22393E+00  1304   0.201E+00 0.560E-05
 gam= 0.254 trial= 0.605  step= 0.597 mean= 0.605
 gam= 0.156 g(H,U,f)=  0.305E-01 0.786E-03 0.822E-20 ort(H,U,f) =-0.918E-03 0.900E-03 0.217E-21
CGA:   3    -0.202699543414E+04   -0.59904E-01   -0.59903E-01  1304   0.313E-01-0.175E-04
 gam= 0.156 trial= 0.605  step= 0.504 mean= 0.605
 gam= 0.215 g(H,U,f)=  0.630E-02 0.421E-03 0.105E-21 ort(H,U,f) =-0.350E-03 0.369E-03-0.255E-21
CGA:   4    -0.202700331551E+04   -0.78814E-02   -0.78824E-02  1304   0.672E-02 0.190E-04
 gam= 0.215 trial= 0.600  step= 0.524 mean= 0.600
 gam= 0.248 g(H,U,f)=  0.150E-02 0.165E-03 0.665E-24 ort(H,U,f) =-0.263E-03 0.254E-03 0.496E-23
CGA:   5    -0.202700507762E+04   -0.17621E-02   -0.17617E-02  1304   0.166E-02-0.979E-05
 gam= 0.248 trial= 0.596  step= 0.582 mean= 0.596
 gam= 0.401 g(H,U,f)=  0.602E-03 0.643E-04 0.187E-23 ort(H,U,f) =-0.119E-03 0.131E-03-0.321E-23
CGA:   6    -0.202700556111E+04   -0.48349E-03   -0.48358E-03  1304   0.667E-03 0.118E-04
 gam= 0.401 trial= 0.595  step= 0.566 mean= 0.595
 gam= 0.447 g(H,U,f)=  0.275E-03 0.232E-04 0.295E-23 ort(H,U,f) =-0.663E-04 0.575E-04-0.623E-24
CGA:   7    -0.202700575118E+04   -0.19007E-03   -0.18994E-03  1304   0.298E-03-0.883E-05
 gam= 0.447 trial= 0.594  step= 0.570 mean= 0.594
 gam= 0.274 g(H,U,f)=  0.779E-04 0.365E-05 0.164E-24 ort(H,U,f) =-0.896E-05 0.164E-04 0.662E-24
CGA:   8    -0.202700583487E+04   -0.83693E-04   -0.83780E-04  1304   0.816E-04 0.742E-05
 gam= 0.274 trial= 0.593  step= 0.672 mean= 0.593
 gam= 0.267 g(H,U,f)=  0.213E-04 0.467E-06 0.661E-25 ort(H,U,f) =-0.402E-05 0.216E-05 0.228E-24
CGA:   9    -0.202700586291E+04   -0.28035E-04   -0.28109E-04  1304   0.218E-04-0.187E-05
 gam= 0.267 trial= 0.597  step= 0.550 mean= 0.597
 gam= 0.342 g(H,U,f)=  0.726E-05 0.171E-06 0.272E-25 ort(H,U,f) = 0.103E-05 0.105E-06-0.816E-25
CGA:  10    -0.202700586873E+04   -0.58210E-05   -0.58474E-05  1304   0.743E-05 0.114E-05
 gam= 0.342 trial= 0.594  step= 0.555 mean= 0.594
 gam= 0.452 g(H,U,f)=  0.327E-05 0.887E-07 0.104E-25 ort(H,U,f) =-0.791E-06-0.246E-07 0.522E-27
CGA:  11    -0.202700587091E+04   -0.21843E-05   -0.21683E-05  1304   0.336E-05-0.815E-06
 gam= 0.452 trial= 0.592  step= 0.491 mean= 0.592
 gam= 0.276 g(H,U,f)=  0.902E-06 0.233E-07 0.215E-26 ort(H,U,f) = 0.360E-06-0.313E-08 0.487E-26
CGA:  12    -0.202700587163E+04   -0.71488E-06   -0.73308E-06  1304   0.925E-06 0.357E-06
 gam= 0.276 trial= 0.587  step= 0.765 mean= 0.587
 gam= 0.369 g(H,U,f)=  0.326E-06 0.157E-07 0.131E-25 ort(H,U,f) =-0.927E-07 0.301E-08-0.874E-26
CGA:  13    -0.202700587201E+04   -0.38360E-06   -0.39158E-06  1304   0.342E-06-0.897E-07
 gam= 0.369 trial= 0.596  step= 1.032 mean= 0.596
 gam= 0.749 g(H,U,f)=  0.240E-06 0.161E-07 0.153E-25 ort(H,U,f) =-0.122E-06-0.125E-08-0.106E-25
CGA:  14    -0.202700587214E+04   -0.13256E-06   -0.15929E-06  1304   0.256E-06-0.123E-06
 gam= 0.749 trial= 0.618  step= 0.236 mean= 0.618
 gam= 0.462 g(H,U,f)=  0.113E-06 0.495E-08 0.461E-26 ort(H,U,f) = 0.577E-07 0.813E-08 0.404E-26
CGA:  15    -0.202700587215E+04   -0.67666E-08   -0.19324E-07  1304   0.118E-06 0.658E-07
 gam= 0.462 trial= 0.599  step= 0.227 mean= 0.599
 final diagonalization
  51 F= -.20484509E+04 E0= -.20484509E+04  d E =-.205947E-02
 trial-energy change:   -0.002059  1 .order   -0.002075   -0.002612   -0.001538
 step:   0.8507(harm=  0.7101)  dis= 0.01185  next Energy= -2048.452267 (dE=-0.342E-02)
 bond charge predicted
       N       E                     dE             d eps       ncg     rms          ort
 gam= 0.000 g(H,U,f)=  0.264E+01 0.240E+00 0.160E-20 ort(H,U,f) = 0.000E+00 0.000E+00 0.000E+00
SDA:   1    -0.202593084367E+04    0.10750E+01    0.00000E+00  1304   0.288E+01 0.000E+00
 gam= 0.000 trial= 0.580  step= 0.568 mean= 0.580
 gam= 0.254 g(H,U,f)=  0.697E+00 0.366E-01 0.309E-17 ort(H,U,f) = 0.318E-01-0.320E-01-0.776E-17
CGA:   2    -0.202674928487E+04   -0.81844E+00   -0.81844E+00  1304   0.734E+00-0.243E-03
 gam= 0.254 trial= 0.580  step= 0.597 mean= 0.580
 gam= 0.156 g(H,U,f)=  0.111E+00 0.288E-02 0.876E-19 ort(H,U,f) =-0.330E-02 0.329E-02 0.465E-20
CGA:   3    -0.202696818591E+04   -0.21890E+00   -0.21890E+00  1304   0.114E+00-0.433E-05
 gam= 0.156 trial= 0.580  step= 0.505 mean= 0.580
 gam= 0.214 g(H,U,f)=  0.229E-01 0.154E-02 0.103E-21 ort(H,U,f) =-0.131E-02 0.135E-02-0.265E-21
CGA:   4    -0.202699700356E+04   -0.28818E-01   -0.28820E-01  1304   0.245E-01 0.441E-04
 gam= 0.214 trial= 0.577  step= 0.525 mean= 0.577
 gam= 0.246 g(H,U,f)=  0.541E-02 0.601E-03 0.242E-24 ort(H,U,f) =-0.941E-03 0.925E-03 0.324E-23
CGA:   5    -0.202700343470E+04   -0.64311E-02   -0.64307E-02  1304   0.601E-02-0.157E-04
 gam= 0.246 trial= 0.574  step= 0.590 mean= 0.574
 gam= 0.403 g(H,U,f)=  0.219E-02 0.233E-03 0.274E-23 ort(H,U,f) =-0.452E-03 0.474E-03-0.349E-23
CGA:   6    -0.202700520603E+04   -0.17713E-02   -0.17712E-02  1304   0.243E-02 0.224E-04
 gam= 0.403 trial= 0.575  step= 0.561 mean= 0.575
 gam= 0.444 g(H,U,f)=  0.994E-03 0.835E-04 0.268E-23 ort(H,U,f) =-0.226E-03 0.210E-03-0.103E-23
CGA:   7    -0.202700588839E+04   -0.68236E-03   -0.68225E-03  1304   0.108E-02-0.159E-04
 gam= 0.444 trial= 0.574  step= 0.575 mean= 0.574
 gam= 0.281 g(H,U,f)=  0.290E-03 0.134E-04 0.125E-24 ort(H,U,f) =-0.437E-04 0.587E-04 0.513E-24
CGA:   8    -0.202700619594E+04   -0.30755E-03   -0.30755E-03  1304   0.303E-03 0.150E-04
 gam= 0.281 trial= 0.574  step= 0.660 mean= 0.574
 gam= 0.258 g(H,U,f)=  0.765E-04 0.169E-05 0.943E-25 ort(H,U,f) =-0.116E-04 0.784E-05 0.246E-24
CGA:   9    -0.202700629719E+04   -0.10125E-03   -0.10141E-03  1304   0.782E-04-0.372E-05
 gam= 0.258 trial= 0.579  step= 0.564 mean= 0.579
 gam= 0.363 g(H,U,f)=  0.277E-04 0.648E-06 0.436E-25 ort(H,U,f) = 0.187E-05 0.305E-06-0.107E-24
CGA:  10    -0.202700631896E+04   -0.21766E-04   -0.21782E-04  1304   0.284E-04 0.217E-05
 gam= 0.363 trial= 0.578  step= 0.515 mean= 0.578
 gam= 0.390 g(H,U,f)=  0.108E-04 0.300E-06 0.756E-26 ort(H,U,f) =-0.149E-05-0.698E-07-0.177E-26
CGA:  11    -0.202700632652E+04   -0.75664E-05   -0.75177E-05  1304   0.111E-04-0.156E-05
 gam= 0.390 trial= 0.575  step= 0.563 mean= 0.575
 gam= 0.292 g(H,U,f)=  0.315E-05 0.856E-07 0.338E-26 ort(H,U,f) = 0.655E-06-0.236E-07 0.466E-26
CGA:  12    -0.202700632946E+04   -0.29389E-05   -0.29427E-05  1304   0.323E-05 0.632E-06
 gam= 0.292 trial= 0.574  step= 0.792 mean= 0.574
 gam= 0.470 g(H,U,f)=  0.146E-05 0.621E-07 0.144E-25 ort(H,U,f) =-0.457E-06 0.119E-07-0.990E-26
CGA:  13    -0.202700633077E+04   -0.13039E-05   -0.13523E-05  1304   0.152E-05-0.445E-06
 gam= 0.470 trial= 0.585  step= 0.466 mean= 0.585
 gam= 0.349 g(H,U,f)=  0.510E-06 0.203E-07 0.706E-28 ort(H,U,f) = 0.160E-06 0.299E-07 0.668E-27
CGA:  14    -0.202700633106E+04   -0.29395E-06   -0.30520E-06  1304   0.530E-06 0.190E-06
 gam= 0.349 trial= 0.579  step= 0.676 mean= 0.579
 gam= 0.367 g(H,U,f)=  0.185E-06 0.985E-08 0.254E-26 ort(H,U,f) =-0.103E-06 0.102E-07-0.181E-26
CGA:  15    -0.202700633126E+04   -0.19692E-06   -0.20165E-06  1304   0.194E-06-0.932E-07
 gam= 0.367 trial= 0.584  step= 0.497 mean= 0.584
 gam= 0.353 g(H,U,f)=  0.658E-07 0.287E-08 0.213E-27 ort(H,U,f) = 0.356E-07 0.546E-08-0.546E-27
CGA:  16    -0.202700633130E+04   -0.38293E-07   -0.39799E-07  1304   0.687E-07 0.410E-07
 gam= 0.353 trial= 0.580  step= 0.706 mean= 0.580
 final diagonalization
  52 F= -.20484519E+04 E0= -.20484519E+04  d E =-.301817E-02
 curvature: -10.31 expect dE=-0.173E+00 dE for cont linesearch -0.107E-03
 trial: gam= 1.74332 g(F)=  0.167E-01 g(S)=  0.952E-04 ort =-0.174E-02 (trialstep = 0.131E+00)
 search vector abs. value=  0.900E+00
 bond charge predicted
       N       E                     dE             d eps       ncg     rms          ort
 gam= 0.000 g(H,U,f)=  0.447E+00 0.405E-01 0.868E-22 ort(H,U,f) = 0.000E+00 0.000E+00 0.000E+00
SDA:   1    -0.202682666034E+04    0.17967E+00    0.00000E+00  1304   0.487E+00 0.000E+00
 gam= 0.000 trial= 0.586  step= 0.566 mean= 0.586
 gam= 0.254 g(H,U,f)=  0.118E+00 0.619E-02 0.282E-20 ort(H,U,f) = 0.527E-02-0.525E-02-0.506E-20
CGA:   2    -0.202696455712E+04   -0.13790E+00   -0.13790E+00  1304   0.124E+00 0.150E-04
 gam= 0.254 trial= 0.585  step= 0.597 mean= 0.585
 gam= 0.156 g(H,U,f)=  0.188E-01 0.515E-03 0.547E-21 ort(H,U,f) =-0.523E-03 0.515E-03 0.142E-21
CGA:   3    -0.202700147761E+04   -0.36920E-01   -0.36921E-01  1304   0.193E-01-0.804E-05
 gam= 0.156 trial= 0.585  step= 0.507 mean= 0.585
 gam= 0.209 g(H,U,f)=  0.378E-02 0.261E-03 0.218E-22 ort(H,U,f) =-0.210E-03 0.220E-03-0.479E-22
CGA:   4    -0.202700637606E+04   -0.48984E-02   -0.48988E-02  1304   0.404E-02 0.954E-05
 gam= 0.209 trial= 0.581  step= 0.541 mean= 0.581
 gam= 0.230 g(H,U,f)=  0.828E-03 0.993E-04 0.344E-24 ort(H,U,f) =-0.149E-03 0.149E-03 0.178E-23
CGA:   5    -0.202700746957E+04   -0.10935E-02   -0.10935E-02  1304   0.928E-03-0.289E-06
 gam= 0.230 trial= 0.579  step= 0.653 mean= 0.579
 gam= 0.361 g(H,U,f)=  0.301E-03 0.345E-04 0.307E-26 ort(H,U,f) =-0.678E-04 0.718E-04-0.110E-25
CGA:   6    -0.202700777258E+04   -0.30301E-03   -0.30286E-03  1304   0.335E-03 0.397E-05
 gam= 0.361 trial= 0.583  step= 0.647 mean= 0.583
 gam= 0.499 g(H,U,f)=  0.157E-03 0.101E-04 0.814E-24 ort(H,U,f) =-0.320E-04 0.274E-04 0.431E-24
CGA:   7    -0.202700788145E+04   -0.10888E-03   -0.10902E-03  1304   0.167E-03-0.457E-05
 gam= 0.499 trial= 0.586  step= 0.492 mean= 0.586
 gam= 0.301 g(H,U,f)=  0.484E-04 0.200E-05 0.194E-24 ort(H,U,f) =-0.318E-05 0.868E-05 0.535E-24
CGA:   8    -0.202700792177E+04   -0.40320E-04   -0.40580E-04  1304   0.504E-04 0.550E-05
 gam= 0.301 trial= 0.582  step= 0.636 mean= 0.582
 gam= 0.239 g(H,U,f)=  0.118E-04 0.222E-06 0.163E-25 ort(H,U,f) =-0.264E-05 0.112E-05 0.109E-24
CGA:   9    -0.202700793830E+04   -0.16525E-04   -0.16566E-04  1304   0.120E-04-0.152E-05
 gam= 0.239 trial= 0.584  step= 0.655 mean= 0.584
 gam= 0.252 g(H,U,f)=  0.295E-05 0.904E-07 0.280E-26 ort(H,U,f) = 0.463E-06-0.359E-07-0.179E-25
CGA:  10    -0.202700794214E+04   -0.38361E-05   -0.38210E-05  1304   0.304E-05 0.427E-06
 gam= 0.252 trial= 0.588  step= 0.710 mean= 0.588
 gam= 0.610 g(H,U,f)=  0.180E-05 0.536E-07 0.219E-25 ort(H,U,f) =-0.353E-06-0.226E-07 0.488E-26
CGA:  11    -0.202700794323E+04   -0.10926E-05   -0.11158E-05  1304   0.185E-05-0.375E-06
 gam= 0.610 trial= 0.594  step= 0.400 mean= 0.594
 gam= 0.290 g(H,U,f)=  0.521E-06 0.167E-07 0.473E-27 ort(H,U,f) = 0.210E-06 0.182E-08 0.370E-26
CGA:  12    -0.202700794353E+04   -0.30376E-06   -0.32428E-06  1304   0.537E-06 0.212E-06
 gam= 0.290 trial= 0.584  step= 0.650 mean= 0.584
 gam= 0.479 g(H,U,f)=  0.241E-06 0.164E-07 0.816E-26 ort(H,U,f) =-0.134E-07 0.179E-08-0.651E-26
CGA:  13    -0.202700794373E+04   -0.19387E-06   -0.19446E-06  1304   0.257E-06-0.116E-07
 gam= 0.479 trial= 0.588  step= 0.754 mean= 0.588
 gam= 0.000 g(H,U,f)=  0.388E-06 0.999E-08 0.266E-26 ort(H,U,f) =-0.178E-06 0.346E-09-0.288E-26
CGA:  14    -0.202700794381E+04   -0.80116E-07   -0.94896E-07  1304   0.398E-06-0.178E-06
 gam= 0.000 trial= 0.596  step= 0.209 mean= 0.596
 final diagonalization
  53 F= -.20484534E+04 E0= -.20484534E+04  d E =-.156640E-02
 trial-energy change:   -0.001566  1 .order   -0.001569   -0.001802   -0.001337
 step:   0.5087(harm=  0.5087)  dis= 0.01250  next Energy= -2048.455353 (dE=-0.349E-02)
 bond charge predicted
       N       E                     dE             d eps       ncg     rms          ort
 gam= 0.000 g(H,U,f)=  0.369E+01 0.334E+00 0.174E-20 ort(H,U,f) = 0.000E+00 0.000E+00 0.000E+00
SDA:   1    -0.202551328578E+04    0.14947E+01    0.00000E+00  1304   0.402E+01 0.000E+00
 gam= 0.000 trial= 0.577  step= 0.566 mean= 0.577
 gam= 0.254 g(H,U,f)=  0.971E+00 0.508E-01 0.185E-15 ort(H,U,f) = 0.427E-01-0.432E-01-0.315E-15
CGA:   2    -0.202665182662E+04   -0.11385E+01   -0.11385E+01  1304   0.102E+01-0.472E-03
 gam= 0.254 trial= 0.576  step= 0.597 mean= 0.576
 gam= 0.156 g(H,U,f)=  0.155E+00 0.426E-02 0.168E-18 ort(H,U,f) =-0.422E-02 0.426E-02 0.527E-19
CGA:   3    -0.202695654269E+04   -0.30472E+00   -0.30472E+00  1304   0.159E+00 0.424E-04
 gam= 0.156 trial= 0.577  step= 0.507 mean= 0.577
 gam= 0.209 g(H,U,f)=  0.312E-01 0.215E-02 0.297E-21 ort(H,U,f) =-0.179E-02 0.183E-02-0.710E-21
CGA:   4    -0.202699699668E+04   -0.40454E-01   -0.40456E-01  1304   0.333E-01 0.415E-04
 gam= 0.209 trial= 0.574  step= 0.542 mean= 0.574
 gam= 0.229 g(H,U,f)=  0.680E-02 0.821E-03 0.327E-23 ort(H,U,f) =-0.123E-02 0.123E-02 0.246E-22
CGA:   5    -0.202700602182E+04   -0.90251E-02   -0.90252E-02  1304   0.762E-02 0.526E-05
 gam= 0.229 trial= 0.572  step= 0.659 mean= 0.572
 gam= 0.361 g(H,U,f)=  0.246E-02 0.284E-03 0.168E-24 ort(H,U,f) =-0.582E-03 0.591E-03-0.161E-23
CGA:   6    -0.202700853312E+04   -0.25113E-02   -0.25109E-02  1304   0.275E-02 0.922E-05
 gam= 0.361 trial= 0.576  step= 0.648 mean= 0.576
 gam= 0.486 g(H,U,f)=  0.125E-02 0.817E-04 0.153E-22 ort(H,U,f) =-0.233E-03 0.226E-03 0.606E-23
CGA:   7    -0.202700942426E+04   -0.89114E-03   -0.89141E-03  1304   0.133E-02-0.786E-05
 gam= 0.486 trial= 0.580  step= 0.505 mean= 0.580
 gam= 0.326 g(H,U,f)=  0.418E-03 0.168E-04 0.389E-23 ort(H,U,f) =-0.536E-04 0.685E-04 0.106E-22
CGA:   8    -0.202700975945E+04   -0.33520E-03   -0.33575E-03  1304   0.435E-03 0.149E-04
 gam= 0.326 trial= 0.576  step= 0.601 mean= 0.576
 gam= 0.228 g(H,U,f)=  0.976E-04 0.184E-05 0.857E-24 ort(H,U,f) =-0.142E-04 0.951E-05 0.391E-23
CGA:   9    -0.202700989169E+04   -0.13224E-03   -0.13230E-03  1304   0.994E-04-0.467E-05
 gam= 0.228 trial= 0.577  step= 0.651 mean= 0.577
 gam= 0.283 g(H,U,f)=  0.273E-04 0.802E-06 0.142E-24 ort(H,U,f) = 0.185E-05-0.241E-06-0.737E-24
CGA:  10    -0.202700992376E+04   -0.32063E-04   -0.32004E-04  1304   0.281E-04 0.161E-05
 gam= 0.283 trial= 0.581  step= 0.618 mean= 0.581
 gam= 0.534 g(H,U,f)=  0.146E-04 0.400E-06 0.505E-24 ort(H,U,f) =-0.156E-05-0.142E-06 0.129E-24
CGA:  11    -0.202700993255E+04   -0.87978E-05   -0.88292E-05  1304   0.150E-04-0.170E-05
 gam= 0.534 trial= 0.583  step= 0.459 mean= 0.583
 gam= 0.284 g(H,U,f)=  0.413E-05 0.134E-06 0.181E-25 ort(H,U,f) = 0.939E-06-0.397E-08 0.111E-24
CGA:  12    -0.202700993573E+04   -0.31772E-05   -0.32351E-05  1304   0.426E-05 0.935E-06
 gam= 0.284 trial= 0.577  step= 0.778 mean= 0.577
 gam= 0.388 g(H,U,f)=  0.154E-05 0.112E-06 0.179E-24 ort(H,U,f) =-0.415E-06 0.223E-07-0.160E-24
CGA:  13    -0.202700993746E+04   -0.17230E-05   -0.17627E-05  1304   0.166E-05-0.393E-06
 gam= 0.388 trial= 0.587  step= 0.695 mean= 0.587
 gam= 0.381 g(H,U,f)=  0.583E-06 0.478E-07 0.674E-25 ort(H,U,f) =-0.743E-07 0.779E-08-0.705E-25
CGA:  14    -0.202700993797E+04   -0.51852E-06   -0.52190E-06  1304   0.631E-06-0.665E-07
 gam= 0.381 trial= 0.592  step= 0.453 mean= 0.592
 gam= 0.272 g(H,U,f)=  0.162E-06 0.971E-08 0.101E-27 ort(H,U,f) = 0.106E-06 0.180E-07-0.156E-26
CGA:  15    -0.202700993810E+04   -0.12862E-06   -0.13731E-06  1304   0.171E-06 0.124E-06
 gam= 0.272 trial= 0.585  step= 0.954 mean= 0.585
 gam= 0.000 g(H,U,f)=  0.191E-06 0.200E-07 0.269E-25 ort(H,U,f) =-0.941E-07-0.334E-08-0.562E-26
CGA:  16    -0.202700993818E+04   -0.79737E-07   -0.97900E-07  1304   0.211E-06-0.975E-07
 gam= 0.000 trial= 0.604  step= 0.282 mean= 0.604
 final diagonalization
  54 F= -.20484553E+04 E0= -.20484553E+04  d E =-.347494E-02
 curvature: -16.69 expect dE=-0.149E+00 dE for cont linesearch -0.266E-07
 trial: gam= 0.23343 g(F)=  0.860E-02 g(S)=  0.300E-03 ort = 0.379E-04 (trialstep = 0.207E+00)
 search vector abs. value=  0.580E-01
 bond charge predicted
       N       E                     dE             d eps       ncg     rms          ort
 gam= 0.000 g(H,U,f)=  0.705E-01 0.585E-02 0.216E-21 ort(H,U,f) = 0.000E+00 0.000E+00 0.000E+00
SDA:   1    -0.202698207646E+04    0.27862E-01    0.00000E+00  1304   0.763E-01 0.000E+00
 gam= 0.000 trial= 0.588  step= 0.576 mean= 0.588
 gam= 0.255 g(H,U,f)=  0.186E-01 0.880E-03 0.893E-21 ort(H,U,f) = 0.700E-03-0.677E-03-0.140E-20
CGA:   2    -0.202700406582E+04   -0.21989E-01   -0.21989E-01  1304   0.195E-01 0.225E-04
 gam= 0.255 trial= 0.587  step= 0.592 mean= 0.587
 gam= 0.155 g(H,U,f)=  0.294E-02 0.781E-04 0.423E-23 ort(H,U,f) =-0.107E-03 0.966E-04 0.175E-22
CGA:   3    -0.202700983541E+04   -0.57696E-02   -0.57696E-02  1304   0.302E-02-0.101E-04
 gam= 0.155 trial= 0.587  step= 0.514 mean= 0.587
 gam= 0.199 g(H,U,f)=  0.569E-03 0.316E-04 0.185E-22 ort(H,U,f) =-0.368E-04 0.454E-04-0.126E-22
CGA:   4    -0.202701060995E+04   -0.77454E-03   -0.77485E-03  1304   0.601E-03 0.856E-05
 gam= 0.199 trial= 0.584  step= 0.545 mean= 0.584
 gam= 0.229 g(H,U,f)=  0.122E-03 0.155E-04 0.564E-24 ort(H,U,f) =-0.250E-04 0.249E-04 0.295E-23
CGA:   5    -0.202701077403E+04   -0.16409E-03   -0.16408E-03  1304   0.137E-03-0.815E-07
 gam= 0.229 trial= 0.582  step= 0.675 mean= 0.582
 gam= 0.336 g(H,U,f)=  0.408E-04 0.528E-05 0.535E-24 ort(H,U,f) =-0.118E-04 0.113E-04 0.121E-23
CGA:   6    -0.202701082038E+04   -0.46342E-04   -0.46366E-04  1304   0.461E-04-0.508E-06
 gam= 0.336 trial= 0.586  step= 0.733 mean= 0.586
 gam= 0.363 g(H,U,f)=  0.157E-04 0.111E-05 0.426E-24 ort(H,U,f) =-0.306E-05 0.365E-05-0.845E-24
CGA:   7    -0.202701083726E+04   -0.16888E-04   -0.16845E-04  1304   0.168E-04 0.586E-06
 gam= 0.363 trial= 0.594  step= 0.649 mean= 0.594
 gam= 0.341 g(H,U,f)=  0.551E-05 0.207E-06 0.342E-24 ort(H,U,f) =-0.363E-06 0.837E-06-0.105E-24
CGA:   8    -0.202701084278E+04   -0.55200E-05   -0.55067E-05  1304   0.572E-05 0.473E-06
 gam= 0.341 trial= 0.596  step= 0.568 mean= 0.596
 gam= 0.394 g(H,U,f)=  0.221E-05 0.399E-07 0.107E-24 ort(H,U,f) =-0.491E-06 0.852E-07-0.172E-24
CGA:   9    -0.202701084446E+04   -0.16741E-05   -0.16681E-05  1304   0.225E-05-0.406E-06
 gam= 0.394 trial= 0.595  step= 0.430 mean= 0.595
 gam= 0.217 g(H,U,f)=  0.477E-06 0.118E-07 0.127E-24 ort(H,U,f) = 0.241E-06-0.491E-08 0.424E-25
CGA:  10    -0.202701084489E+04   -0.43031E-06   -0.44983E-06  1304   0.489E-06 0.236E-06
 gam= 0.217 trial= 0.587  step= 0.692 mean= 0.587
 gam= 0.369 g(H,U,f)=  0.175E-06 0.548E-08 0.261E-25 ort(H,U,f) =-0.588E-08-0.293E-08-0.614E-25
CGA:  11    -0.202701084507E+04   -0.18643E-06   -0.18701E-06  1304   0.180E-06-0.880E-08
 gam= 0.369 trial= 0.592  step= 0.932 mean= 0.592
 gam= 1.277 g(H,U,f)=  0.224E-06 0.626E-08 0.415E-25 ort(H,U,f) =-0.776E-07-0.137E-08-0.440E-26
CGA:  12    -0.202701084514E+04   -0.69085E-07   -0.82507E-07  1304   0.230E-06-0.789E-07
 gam= 1.277 trial= 0.609  step= 0.232 mean= 0.609
 final diagonalization
  55 F= -.20484568E+04 E0= -.20484568E+04  d E =-.146759E-02
 trial-energy change:   -0.001468  1 .order   -0.001476   -0.001843   -0.001110
 step:   0.6022(harm=  0.5201)  dis= 0.00362  next Energy= -2048.457807 (dE=-0.247E-02)
 bond charge predicted
       N       E                     dE             d eps       ncg     rms          ort
 gam= 0.000 g(H,U,f)=  0.258E+00 0.214E-01 0.165E-20 ort(H,U,f) = 0.000E+00 0.000E+00 0.000E+00
SDA:   1    -0.202690530516E+04    0.10554E+00    0.00000E+00  1304   0.279E+00 0.000E+00
 gam= 0.000 trial= 0.590  step= 0.576 mean= 0.590
 gam= 0.255 g(H,U,f)=  0.681E-01 0.322E-02 0.510E-19 ort(H,U,f) = 0.251E-02-0.248E-02-0.801E-19
CGA:   2    -0.202698574455E+04   -0.80439E-01   -0.80439E-01  1304   0.713E-01 0.341E-04
 gam= 0.255 trial= 0.590  step= 0.592 mean= 0.590
 gam= 0.155 g(H,U,f)=  0.107E-01 0.286E-03 0.625E-22 ort(H,U,f) =-0.372E-03 0.354E-03 0.269E-21
CGA:   3    -0.202700683837E+04   -0.21094E-01   -0.21094E-01  1304   0.110E-01-0.181E-04
 gam= 0.155 trial= 0.590  step= 0.515 mean= 0.590
 gam= 0.200 g(H,U,f)=  0.209E-02 0.116E-03 0.210E-21 ort(H,U,f) =-0.149E-03 0.166E-03-0.146E-21
CGA:   4    -0.202700967619E+04   -0.28378E-02   -0.28384E-02  1304   0.220E-02 0.168E-04
 gam= 0.200 trial= 0.586  step= 0.544 mean= 0.586
 gam= 0.228 g(H,U,f)=  0.445E-03 0.568E-04 0.669E-23 ort(H,U,f) =-0.911E-04 0.910E-04 0.356E-22
CGA:   5    -0.202701027630E+04   -0.60011E-03   -0.60011E-03  1304   0.502E-03-0.686E-07
 gam= 0.228 trial= 0.584  step= 0.673 mean= 0.584
 gam= 0.336 g(H,U,f)=  0.149E-03 0.194E-04 0.640E-23 ort(H,U,f) =-0.422E-04 0.413E-04 0.143E-22
CGA:   6    -0.202701044528E+04   -0.16898E-03   -0.16902E-03  1304   0.169E-03-0.853E-06
 gam= 0.336 trial= 0.588  step= 0.734 mean= 0.588
 gam= 0.376 g(H,U,f)=  0.593E-04 0.410E-05 0.565E-23 ort(H,U,f) =-0.122E-04 0.134E-04-0.106E-22
CGA:   7    -0.202701050717E+04   -0.61890E-04   -0.61807E-04  1304   0.634E-04 0.114E-05
 gam= 0.376 trial= 0.596  step= 0.637 mean= 0.596
 gam= 0.361 g(H,U,f)=  0.221E-04 0.787E-06 0.372E-23 ort(H,U,f) =-0.212E-05 0.310E-05-0.132E-23
CGA:   8    -0.202701052751E+04   -0.20338E-04   -0.20318E-04  1304   0.229E-04 0.987E-06
 gam= 0.361 trial= 0.598  step= 0.526 mean= 0.598
 gam= 0.340 g(H,U,f)=  0.764E-05 0.133E-06 0.622E-24 ort(H,U,f) =-0.113E-05 0.381E-06-0.134E-23
CGA:   9    -0.202701053364E+04   -0.61370E-05   -0.61100E-05  1304   0.778E-05-0.748E-06
 gam= 0.340 trial= 0.594  step= 0.493 mean= 0.594
 gam= 0.233 g(H,U,f)=  0.176E-05 0.493E-07 0.157E-23 ort(H,U,f) = 0.444E-06-0.268E-07 0.264E-24
CGA:  10    -0.202701053548E+04   -0.18349E-05   -0.18556E-05  1304   0.181E-05 0.417E-06
 gam= 0.233 trial= 0.589  step= 0.741 mean= 0.589
 gam= 0.368 g(H,U,f)=  0.647E-06 0.191E-07 0.390E-24 ort(H,U,f) =-0.125E-06-0.137E-07-0.796E-24
CGA:  11    -0.202701053617E+04   -0.69556E-06   -0.70588E-06  1304   0.666E-06-0.138E-06
 gam= 0.368 trial= 0.597  step= 0.623 mean= 0.597
 gam= 0.302 g(H,U,f)=  0.192E-06 0.926E-08 0.974E-25 ort(H,U,f) = 0.848E-07 0.368E-08-0.488E-25
CGA:  12    -0.202701053637E+04   -0.19293E-06   -0.19167E-06  1304   0.201E-06 0.885E-07
 gam= 0.302 trial= 0.598  step= 1.426 mean= 0.598
 gam= 0.000 g(H,U,f)=  0.625E-06 0.120E-07 0.390E-25 ort(H,U,f) =-0.256E-06-0.110E-08-0.520E-25
CGA:  13    -0.202701053642E+04   -0.55981E-07   -0.16249E-06  1304   0.637E-06-0.257E-06
 gam= 0.000 trial= 0.639  step= 0.255 mean= 0.639
 final diagonalization
  56 F= -.20484576E+04 E0= -.20484576E+04  d E =-.222992E-02
 curvature:  -1.58 expect dE=-0.165E-01 dE for cont linesearch -0.552E-04
 trial: gam= 1.35657 g(F)=  0.103E-01 g(S)=  0.159E-03 ort =-0.142E-02 (trialstep = 0.146E+00)
 search vector abs. value=  0.113E+00
 bond charge predicted
       N       E                     dE             d eps       ncg     rms          ort
 gam= 0.000 g(H,U,f)=  0.661E-01 0.551E-02 0.106E-21 ort(H,U,f) = 0.000E+00 0.000E+00 0.000E+00
SDA:   1    -0.202698347961E+04    0.27057E-01    0.00000E+00  1304   0.716E-01 0.000E+00
 gam= 0.000 trial= 0.620  step= 0.573 mean= 0.620
 gam= 0.254 g(H,U,f)=  0.173E-01 0.860E-03 0.205E-22 ort(H,U,f) = 0.670E-03-0.647E-03 0.700E-22
CGA:   2    -0.202700399352E+04   -0.20514E-01   -0.20514E-01  1304   0.182E-01 0.228E-04
 gam= 0.254 trial= 0.618  step= 0.590 mean= 0.618
 gam= 0.160 g(H,U,f)=  0.283E-02 0.761E-04 0.123E-24 ort(H,U,f) =-0.101E-03 0.836E-04 0.653E-24
CGA:   3    -0.202700935919E+04   -0.53657E-02   -0.53654E-02  1304   0.291E-02-0.174E-04
 gam= 0.160 trial= 0.616  step= 0.503 mean= 0.616
 gam= 0.204 g(H,U,f)=  0.561E-03 0.327E-04 0.180E-21 ort(H,U,f) =-0.301E-04 0.397E-04 0.151E-22
CGA:   4    -0.202701008945E+04   -0.73026E-03   -0.73080E-03  1304   0.594E-03 0.964E-05
 gam= 0.204 trial= 0.611  step= 0.531 mean= 0.611
 gam= 0.248 g(H,U,f)=  0.131E-03 0.157E-04 0.389E-22 ort(H,U,f) =-0.285E-04 0.240E-04 0.967E-22
CGA:   5    -0.202701024774E+04   -0.15829E-03   -0.15811E-03  1304   0.147E-03-0.453E-05
 gam= 0.248 trial= 0.607  step= 0.574 mean= 0.607
 gam= 0.382 g(H,U,f)=  0.501E-04 0.602E-05 0.656E-23 ort(H,U,f) =-0.945E-05 0.124E-04 0.276E-22
CGA:   6    -0.202701028960E+04   -0.41855E-04   -0.41902E-04  1304   0.562E-04 0.292E-05
 gam= 0.382 trial= 0.605  step= 0.591 mean= 0.605
 gam= 0.491 g(H,U,f)=  0.255E-04 0.211E-05 0.290E-23 ort(H,U,f) =-0.790E-05 0.525E-05 0.118E-22
CGA:   7    -0.202701030653E+04   -0.16931E-04   -0.16912E-04  1304   0.276E-04-0.265E-05
 gam= 0.491 trial= 0.604  step= 0.517 mean= 0.604
 gam= 0.250 g(H,U,f)=  0.653E-05 0.369E-06 0.298E-24 ort(H,U,f) = 0.276E-06 0.178E-05 0.288E-23
CGA:   8    -0.202701031324E+04   -0.67139E-05   -0.68031E-05  1304   0.690E-05 0.205E-05
 gam= 0.250 trial= 0.600  step= 0.700 mean= 0.600
 gam= 0.283 g(H,U,f)=  0.190E-05 0.466E-07 0.248E-28 ort(H,U,f) =-0.592E-06 0.220E-06 0.205E-26
CGA:   9    -0.202701031582E+04   -0.25744E-05   -0.25928E-05  1304   0.195E-05-0.372E-06
 gam= 0.283 trial= 0.605  step= 0.601 mean= 0.605
 gam= 0.228 g(H,U,f)=  0.430E-06 0.144E-07 0.263E-24 ort(H,U,f) = 0.166E-06 0.664E-08-0.275E-24
CGA:  10    -0.202701031637E+04   -0.55395E-06   -0.55428E-06  1304   0.444E-06 0.173E-06
 gam= 0.228 trial= 0.605  step= 0.667 mean= 0.605
 gam= 0.402 g(H,U,f)=  0.173E-06 0.567E-08 0.766E-26 ort(H,U,f) =-0.414E-08-0.427E-09-0.340E-25
CGA:  11    -0.202701031653E+04   -0.16112E-06   -0.16130E-06  1304   0.179E-06-0.457E-08
 gam= 0.402 trial= 0.608  step= 0.581 mean= 0.608
 gam= 0.444 g(H,U,f)=  0.774E-07 0.186E-08 0.110E-26 ort(H,U,f) = 0.965E-08-0.881E-09-0.226E-26
CGA:  12    -0.202701031658E+04   -0.51135E-07   -0.51306E-07  1304   0.792E-07 0.877E-08
 gam= 0.444 trial= 0.607  step= 0.706 mean= 0.607
 final diagonalization
  57 F= -.20484586E+04 E0= -.20484586E+04  d E =-.105827E-02
 trial-energy change:   -0.001058  1 .order   -0.001070   -0.001247   -0.000893
 step:   0.5152(harm=  0.5152)  dis= 0.00434  next Energy= -2048.459764 (dE=-0.219E-02)
 bond charge predicted
       N       E                     dE             d eps       ncg     rms          ort
 gam= 0.000 g(H,U,f)=  0.420E+00 0.350E-01 0.112E-20 ort(H,U,f) = 0.000E+00 0.000E+00 0.000E+00
SDA:   1    -0.202683756769E+04    0.17275E+00    0.00000E+00  1304   0.455E+00 0.000E+00
 gam= 0.000 trial= 0.612  step= 0.573 mean= 0.612
 gam= 0.254 g(H,U,f)=  0.110E+00 0.545E-02 0.119E-21 ort(H,U,f) = 0.414E-02-0.410E-02 0.100E-20
CGA:   2    -0.202696801141E+04   -0.13044E+00   -0.13044E+00  1304   0.116E+00 0.405E-04
 gam= 0.254 trial= 0.610  step= 0.589 mean= 0.610
 gam= 0.159 g(H,U,f)=  0.180E-01 0.485E-03 0.873E-24 ort(H,U,f) =-0.577E-03 0.537E-03 0.430E-23
CGA:   3    -0.202700209089E+04   -0.34079E-01   -0.34079E-01  1304   0.184E-01-0.403E-04
 gam= 0.159 trial= 0.609  step= 0.504 mean= 0.609
 gam= 0.206 g(H,U,f)=  0.359E-02 0.209E-03 0.123E-20 ort(H,U,f) =-0.228E-03 0.253E-03 0.104E-21
CGA:   4    -0.202700674089E+04   -0.46500E-02   -0.46513E-02  1304   0.380E-02 0.252E-04
 gam= 0.206 trial= 0.603  step= 0.527 mean= 0.603
 gam= 0.244 g(H,U,f)=  0.825E-03 0.999E-04 0.376E-21 ort(H,U,f) =-0.165E-03 0.154E-03 0.940E-21
CGA:   5    -0.202700774292E+04   -0.10020E-02   -0.10016E-02  1304   0.925E-03-0.110E-04
 gam= 0.244 trial= 0.600  step= 0.585 mean= 0.600
 gam= 0.394 g(H,U,f)=  0.327E-03 0.382E-04 0.735E-22 ort(H,U,f) =-0.705E-04 0.779E-04 0.313E-21
CGA:   6    -0.202700801273E+04   -0.26980E-03   -0.26986E-03  1304   0.365E-03 0.740E-05
 gam= 0.394 trial= 0.599  step= 0.567 mean= 0.599
 gam= 0.457 g(H,U,f)=  0.153E-03 0.135E-04 0.332E-22 ort(H,U,f) =-0.410E-04 0.346E-04 0.143E-21
CGA:   7    -0.202700811713E+04   -0.10441E-03   -0.10431E-03  1304   0.167E-03-0.639E-05
 gam= 0.457 trial= 0.597  step= 0.558 mean= 0.597
 gam= 0.273 g(H,U,f)=  0.430E-04 0.238E-05 0.402E-23 ort(H,U,f) =-0.519E-05 0.106E-04 0.365E-22
CGA:   8    -0.202700816265E+04   -0.45515E-04   -0.45623E-04  1304   0.454E-04 0.540E-05
 gam= 0.273 trial= 0.595  step= 0.674 mean= 0.595
 gam= 0.274 g(H,U,f)=  0.121E-04 0.282E-06 0.277E-25 ort(H,U,f) =-0.288E-05 0.136E-05 0.118E-23
CGA:   9    -0.202700817839E+04   -0.15738E-04   -0.15798E-04  1304   0.124E-04-0.153E-05
 gam= 0.274 trial= 0.599  step= 0.539 mean= 0.599
 gam= 0.298 g(H,U,f)=  0.361E-05 0.932E-07 0.354E-23 ort(H,U,f) = 0.959E-06 0.764E-07-0.393E-23
CGA:  10    -0.202700818159E+04   -0.32057E-05   -0.32368E-05  1304   0.370E-05 0.104E-05
 gam= 0.298 trial= 0.596  step= 0.609 mean= 0.596
 gam= 0.545 g(H,U,f)=  0.196E-05 0.539E-07 0.957E-26 ort(H,U,f) =-0.588E-06-0.720E-08 0.119E-24
CGA:  11    -0.202700818281E+04   -0.12182E-05   -0.12221E-05  1304   0.202E-05-0.595E-06
 gam= 0.545 trial= 0.597  step= 0.400 mean= 0.597
 gam= 0.294 g(H,U,f)=  0.579E-06 0.138E-07 0.119E-24 ort(H,U,f) = 0.314E-06 0.810E-09-0.260E-24
CGA:  12    -0.202700818312E+04   -0.30820E-06   -0.33906E-06  1304   0.593E-06 0.315E-06
 gam= 0.294 trial= 0.587  step= 0.525 mean= 0.587
 gam= 0.432 g(H,U,f)=  0.246E-06 0.101E-07 0.812E-25 ort(H,U,f) = 0.750E-07 0.252E-08-0.359E-25
CGA:  13    -0.202700818330E+04   -0.17725E-06   -0.17981E-06  1304   0.256E-06 0.776E-07
 gam= 0.432 trial= 0.584  step= 1.426 mean= 0.584
 gam= 0.000 g(H,U,f)=  0.228E-05 0.405E-07 0.155E-25 ort(H,U,f) =-0.639E-06-0.704E-08 0.277E-25
CGA:  14    -0.202700818323E+04    0.65869E-07   -0.20633E-06  1304   0.232E-05-0.646E-06
 gam= 0.000 trial= 0.626  step= 0.219 mean= 0.626
 gam= 0.089 g(H,U,f)=  0.204E-06 0.133E-08 0.131E-26 ort(H,U,f) = 0.410E-06 0.390E-08-0.448E-26
CGA:  15    -0.202700818340E+04   -0.17066E-06   -0.25484E-06  1304   0.206E-06 0.414E-06
 gam= 0.089 trial= 0.606  step= 0.289 mean= 0.606
 gam= 0.391 g(H,U,f)=  0.790E-07 0.138E-08 0.105E-25 ort(H,U,f) = 0.827E-07 0.141E-09 0.258E-26
CGA:  16    -0.202700818342E+04   -0.21959E-07   -0.34999E-07  1304   0.804E-07 0.828E-07
 gam= 0.391 trial= 0.590  step= 0.661 mean= 0.590
 final diagonalization
  58 F= -.20484597E+04 E0= -.20484597E+04  d E =-.215135E-02
 curvature:  -3.43 expect dE=-0.238E-01 dE for cont linesearch -0.129E-07
 trial: gam= 0.27092 g(F)=  0.690E-02 g(S)=  0.494E-04 ort =-0.206E-04 (trialstep = 0.220E+00)
 search vector abs. value=  0.153E-01
 bond charge predicted
       N       E                     dE             d eps       ncg     rms          ort
 gam= 0.000 g(H,U,f)=  0.228E-01 0.182E-02 0.963E-20 ort(H,U,f) = 0.000E+00 0.000E+00 0.000E+00
SDA:   1    -0.202699942998E+04    0.87534E-02    0.00000E+00  1304   0.246E-01 0.000E+00
 gam= 0.000 trial= 0.593  step= 0.598 mean= 0.593
 gam= 0.269 g(H,U,f)=  0.627E-02 0.347E-03 0.170E-20 ort(H,U,f) = 0.365E-03-0.356E-03-0.199E-20
CGA:   2    -0.202700678972E+04   -0.73597E-02   -0.73597E-02  1304   0.662E-02 0.924E-05
 gam= 0.269 trial= 0.594  step= 0.588 mean= 0.594
 gam= 0.168 g(H,U,f)=  0.108E-02 0.348E-04 0.856E-21 ort(H,U,f) =-0.364E-04 0.242E-04-0.109E-20
CGA:   3    -0.202700873516E+04   -0.19454E-02   -0.19454E-02  1304   0.111E-02-0.122E-04
 gam= 0.168 trial= 0.593  step= 0.478 mean= 0.593
 gam= 0.219 g(H,U,f)=  0.231E-03 0.127E-04 0.359E-21 ort(H,U,f) =-0.117E-04 0.155E-04-0.365E-21
CGA:   4    -0.202700900048E+04   -0.26532E-03   -0.26554E-03  1304   0.243E-03 0.375E-05
 gam= 0.219 trial= 0.588  step= 0.494 mean= 0.588
 gam= 0.282 g(H,U,f)=  0.627E-04 0.606E-05 0.421E-22 ort(H,U,f) =-0.144E-04 0.907E-05 0.114E-21
CGA:   5    -0.202700906110E+04   -0.60621E-04   -0.60373E-04  1304   0.688E-04-0.531E-05
 gam= 0.282 trial= 0.583  step= 0.494 mean= 0.583
 gam= 0.322 g(H,U,f)=  0.195E-04 0.268E-05 0.177E-23 ort(H,U,f) =-0.217E-05 0.532E-05-0.168E-22
CGA:   6    -0.202700907756E+04   -0.16459E-04   -0.16600E-04  1304   0.221E-04 0.315E-05
 gam= 0.322 trial= 0.578  step= 0.676 mean= 0.578
 gam= 0.467 g(H,U,f)=  0.950E-05 0.839E-06 0.395E-22 ort(H,U,f) =-0.344E-05 0.185E-05 0.180E-22
CGA:   7    -0.202700908531E+04   -0.77464E-05   -0.78234E-05  1304   0.103E-04-0.159E-05
 gam= 0.467 trial= 0.583  step= 0.580 mean= 0.583
 gam= 0.264 g(H,U,f)=  0.260E-05 0.125E-06 0.481E-24 ort(H,U,f) = 0.390E-06 0.597E-06 0.571E-23
CGA:   8    -0.202700908809E+04   -0.27830E-05   -0.27845E-05  1304   0.273E-05 0.987E-06
 gam= 0.264 trial= 0.583  step= 0.720 mean= 0.583
 gam= 0.401 g(H,U,f)=  0.107E-05 0.255E-07 0.146E-25 ort(H,U,f) =-0.396E-06 0.554E-07-0.359E-24
CGA:   9    -0.202700908914E+04   -0.10526E-05   -0.10760E-05  1304   0.109E-05-0.340E-06
 gam= 0.401 trial= 0.590  step= 0.384 mean= 0.590
 gam= 0.289 g(H,U,f)=  0.312E-06 0.388E-08 0.677E-25 ort(H,U,f) = 0.254E-06 0.604E-08 0.283E-24
CGA:  10    -0.202700908930E+04   -0.15662E-06   -0.18353E-06  1304   0.316E-06 0.260E-06
 gam= 0.289 trial= 0.580  step= 0.478 mean= 0.580
 gam= 0.333 g(H,U,f)=  0.992E-07 0.594E-08 0.865E-25 ort(H,U,f) = 0.333E-07-0.212E-08 0.171E-24
CGA:  11    -0.202700908939E+04   -0.92114E-07   -0.93682E-07  1304   0.105E-06 0.312E-07
 gam= 0.333 trial= 0.575  step=20.279 mean= 0.575
 gam= 0.333 trial= 3.735  step= 3.735 mean= 0.907
 gam= 0.000 g(H,U,f)=  0.518E-05 0.167E-06 0.226E-23 ort(H,U,f) =-0.659E-06-0.251E-07-0.792E-24
CGA:  12    -0.202700908855E+04    0.83832E-06    0.25338E+03  1304   0.534E-05-0.684E-06
 gam= 0.000 trial= 1.048  step= 0.278 mean= 1.048
 gam= 0.141 g(H,U,f)=  0.734E-06 0.172E-07 0.389E-24 ort(H,U,f) = 0.476E-06 0.237E-07 0.934E-24
CGA:  13    -0.202700908910E+04   -0.54929E-06   -0.74171E-06  1304   0.751E-06 0.500E-06
 gam= 0.141 trial= 1.010  step= 0.614 mean= 1.010
 gam= 0.259 g(H,U,f)=  0.183E-06 0.115E-07 0.649E-25 ort(H,U,f) =-0.812E-07-0.850E-08-0.211E-24
CGA:  14    -0.202700908937E+04   -0.26987E-06   -0.25218E-06  1304   0.195E-06-0.897E-07
 gam= 0.259 trial= 0.990  step= 0.778 mean= 0.990
 gam= 0.703 g(H,U,f)=  0.129E-06 0.753E-08 0.311E-24 ort(H,U,f) =-0.507E-07-0.395E-08-0.220E-25
CGA:  15    -0.202700908944E+04   -0.72469E-07   -0.66678E-07  1304   0.137E-06-0.547E-07
 gam= 0.703 trial= 0.979  step= 0.270 mean= 0.979
 final diagonalization
  59 F= -.20484609E+04 E0= -.20484609E+04  d E =-.114395E-02
 trial-energy change:   -0.001144  1 .order   -0.001146   -0.001529   -0.000764
 step:   0.4396(harm=  0.4396)  dis= 0.00113  next Energy= -2048.461247 (dE=-0.153E-02)
 bond charge predicted
       N       E                     dE             d eps       ncg     rms          ort
 gam= 0.000 g(H,U,f)=  0.227E-01 0.181E-02 0.817E-20 ort(H,U,f) = 0.000E+00 0.000E+00 0.000E+00
SDA:   1    -0.202699961936E+04    0.94700E-02    0.00000E+00  1304   0.245E-01 0.000E+00
 gam= 0.000 trial= 0.944  step= 0.598 mean= 0.944
 gam= 0.269 g(H,U,f)=  0.624E-02 0.345E-03 0.143E-20 ort(H,U,f) = 0.360E-03-0.354E-03-0.168E-20
CGA:   2    -0.202700694190E+04   -0.73225E-02   -0.73235E-02  1304   0.658E-02 0.579E-05
 gam= 0.269 trial= 0.926  step= 0.587 mean= 0.926
 gam= 0.168 g(H,U,f)=  0.107E-02 0.347E-04 0.721E-21 ort(H,U,f) =-0.319E-04 0.242E-04-0.922E-21
CGA:   3    -0.202700887673E+04   -0.19348E-02   -0.19335E-02  1304   0.111E-02-0.769E-05
 gam= 0.168 trial= 0.909  step= 0.478 mean= 0.909
 gam= 0.218 g(H,U,f)=  0.229E-03 0.126E-04 0.300E-21 ort(H,U,f) =-0.130E-04 0.153E-04-0.306E-21
CGA:   4    -0.202700914123E+04   -0.26450E-03   -0.26501E-03  1304   0.242E-03 0.237E-05
 gam= 0.218 trial= 0.888  step= 0.491 mean= 0.888
 gam= 0.278 g(H,U,f)=  0.611E-04 0.601E-05 0.356E-22 ort(H,U,f) =-0.125E-04 0.905E-05 0.953E-22
CGA:   5    -0.202700920142E+04   -0.60191E-04   -0.59506E-04  1304   0.671E-04-0.346E-05
 gam= 0.278 trial= 0.868  step= 0.504 mean= 0.868
 gam= 0.335 g(H,U,f)=  0.198E-04 0.266E-05 0.188E-23 ort(H,U,f) =-0.310E-05 0.522E-05-0.158E-22
CGA:   6    -0.202700921773E+04   -0.16309E-04   -0.16694E-04  1304   0.225E-04 0.212E-05
 gam= 0.335 trial= 0.850  step= 0.653 mean= 0.850
 gam= 0.440 g(H,U,f)=  0.908E-05 0.828E-06 0.300E-22 ort(H,U,f) =-0.304E-05 0.191E-05 0.142E-22
CGA:   7    -0.202700922541E+04   -0.76822E-05   -0.75706E-05  1304   0.990E-05-0.113E-05
 gam= 0.440 trial= 0.840  step= 0.601 mean= 0.840
 gam= 0.276 g(H,U,f)=  0.260E-05 0.130E-06 0.368E-24 ort(H,U,f) = 0.138E-06 0.585E-06 0.433E-23
CGA:   8    -0.202700922815E+04   -0.27394E-05   -0.28258E-05  1304   0.273E-05 0.723E-06
 gam= 0.276 trial= 0.828  step= 0.707 mean= 0.828
 gam= 0.420 g(H,U,f)=  0.112E-05 0.259E-07 0.453E-26 ort(H,U,f) =-0.378E-06 0.567E-07 0.179E-24
CGA:   9    -0.202700922921E+04   -0.10553E-05   -0.10358E-05  1304   0.115E-05-0.322E-06
 gam= 0.420 trial= 0.822  step= 0.365 mean= 0.822
 gam= 0.270 g(H,U,f)=  0.306E-06 0.394E-08 0.506E-25 ort(H,U,f) = 0.230E-06 0.743E-08 0.271E-24
CGA:  10    -0.202700922934E+04   -0.13065E-06   -0.18492E-06  1304   0.310E-06 0.237E-06
 gam= 0.270 trial= 0.799  step= 0.481 mean= 0.799
 gam= 0.355 g(H,U,f)=  0.105E-06 0.529E-08 0.456E-25 ort(H,U,f) = 0.403E-07-0.180E-08 0.119E-24
CGA:  11    -0.202700922942E+04   -0.83928E-07   -0.90105E-07  1304   0.110E-06 0.385E-07
 gam= 0.355 trial= 0.783  step= 2.656 mean= 0.783
 gam= 0.000 g(H,U,f)=  0.365E-05 0.852E-07 0.175E-24 ort(H,U,f) =-0.554E-06-0.157E-07-0.182E-24
CGA:  12    -0.202700922905E+04    0.36953E-06   -0.16469E-06  1304   0.373E-05-0.570E-06
 gam= 0.000 trial= 0.877  step= 0.234 mean= 0.877
 gam= 0.098 g(H,U,f)=  0.358E-06 0.760E-08 0.139E-24 ort(H,U,f) = 0.477E-06 0.134E-07 0.156E-24
CGA:  13    -0.202700922933E+04   -0.27995E-06   -0.43759E-06  1304   0.366E-06 0.491E-06
 gam= 0.098 trial= 0.845  step= 0.471 mean= 0.845
 gam= 0.346 g(H,U,f)=  0.123E-06 0.378E-08 0.133E-25 ort(H,U,f) = 0.516E-07-0.246E-09 0.478E-25
CGA:  14    -0.202700922942E+04   -0.87763E-07   -0.97408E-07  1304   0.127E-06 0.513E-07
 gam= 0.346 trial= 0.826  step= 1.527 mean= 0.826
 gam= 0.000 g(H,U,f)=  0.186E-05 0.321E-07 0.113E-25 ort(H,U,f) =-0.459E-06-0.615E-08-0.275E-25
CGA:  15    -0.202700922937E+04    0.52933E-07   -0.11019E-06  1304   0.189E-05-0.465E-06
 gam= 0.000 trial= 0.861  step= 0.211 mean= 0.861
 gam= 0.082 g(H,U,f)=  0.155E-06 0.550E-09 0.290E-26 ort(H,U,f) = 0.339E-06 0.334E-08-0.572E-26
CGA:  16    -0.202700922945E+04   -0.88105E-07   -0.19944E-06  1304   0.156E-06 0.343E-06
 gam= 0.082 trial= 0.829  step= 0.265 mean= 0.829
 final diagonalization
  60 F= -.20484612E+04 E0= -.20484612E+04  d E =-.151981E-02
 curvature:  -0.48 expect dE=-0.176E-02 dE for cont linesearch -0.120E-08
 trial: gam= 0.53872 g(F)=  0.358E-02 g(S)=  0.560E-04 ort =-0.616E-05 (trialstep = 0.264E+00)
 search vector abs. value=  0.806E-02
 bond charge predicted
       N       E                     dE             d eps       ncg     rms          ort
 gam= 0.000 g(H,U,f)=  0.169E-01 0.135E-02 0.835E-20 ort(H,U,f) = 0.000E+00 0.000E+00 0.000E+00
SDA:   1    -0.202700345529E+04    0.57741E-02    0.00000E+00  1304   0.183E-01 0.000E+00
 gam= 0.000 trial= 0.800  step= 0.587 mean= 0.800
 gam= 0.267 g(H,U,f)=  0.457E-02 0.301E-03 0.814E-21 ort(H,U,f) = 0.354E-03-0.352E-03-0.129E-20
CGA:   2    -0.202700881923E+04   -0.53639E-02   -0.53642E-02  1304   0.487E-02 0.212E-05
 gam= 0.267 trial= 0.790  step= 0.591 mean= 0.790
 gam= 0.168 g(H,U,f)=  0.795E-03 0.252E-04 0.184E-20 ort(H,U,f) =-0.212E-04 0.201E-04-0.886E-21
CGA:   3    -0.202701025997E+04   -0.14407E-02   -0.14406E-02  1304   0.821E-03-0.107E-05
 gam= 0.168 trial= 0.780  step= 0.489 mean= 0.780
 gam= 0.197 g(H,U,f)=  0.151E-03 0.105E-04 0.179E-21 ort(H,U,f) =-0.105E-04 0.919E-05-0.360E-21
CGA:   4    -0.202701046073E+04   -0.20076E-03   -0.20057E-03  1304   0.162E-03-0.134E-05
 gam= 0.197 trial= 0.765  step= 0.542 mean= 0.765
 gam= 0.235 g(H,U,f)=  0.337E-04 0.425E-05 0.294E-22 ort(H,U,f) =-0.629E-05 0.609E-05-0.528E-22
CGA:   5    -0.202701050447E+04   -0.43741E-04   -0.43718E-04  1304   0.380E-04-0.204E-06
 gam= 0.235 trial= 0.754  step= 0.632 mean= 0.754
 gam= 0.353 g(H,U,f)=  0.119E-04 0.146E-05 0.938E-24 ort(H,U,f) =-0.204E-05 0.302E-05 0.296E-23
CGA:   6    -0.202701051640E+04   -0.11927E-04   -0.11987E-04  1304   0.134E-04 0.980E-06
 gam= 0.353 trial= 0.748  step= 0.678 mean= 0.748
 gam= 0.621 g(H,U,f)=  0.789E-05 0.436E-06 0.341E-23 ort(H,U,f) =-0.228E-05 0.102E-05-0.374E-23
CGA:   7    -0.202701052110E+04   -0.47026E-05   -0.46583E-05  1304   0.832E-05-0.127E-05
 gam= 0.621 trial= 0.745  step= 0.443 mean= 0.745
 gam= 0.247 g(H,U,f)=  0.199E-05 0.656E-07 0.854E-26 ort(H,U,f) = 0.265E-06 0.395E-06 0.555E-25
CGA:   8    -0.202701052267E+04   -0.15706E-05   -0.16700E-05  1304   0.205E-05 0.660E-06
 gam= 0.247 trial= 0.729  step= 0.625 mean= 0.729
 gam= 0.318 g(H,U,f)=  0.641E-06 0.137E-07 0.340E-24 ort(H,U,f) =-0.188E-07 0.371E-07-0.144E-24
CGA:   9    -0.202701052337E+04   -0.69226E-06   -0.69308E-06  1304   0.654E-06 0.183E-07
 gam= 0.318 trial= 0.724  step= 0.834 mean= 0.724
 gam= 0.000 g(H,U,f)=  0.966E-06 0.270E-07 0.653E-24 ort(H,U,f) =-0.416E-06-0.201E-07-0.410E-24
CGA:  10    -0.202701052362E+04   -0.25137E-06   -0.27546E-06  1304   0.993E-06-0.436E-06
 gam= 0.000 trial= 0.730  step= 0.205 mean= 0.730
 gam= 0.114 g(H,U,f)=  0.109E-06 0.421E-08 0.706E-25 ort(H,U,f) = 0.234E-06 0.839E-08 0.217E-24
CGA:  11    -0.202701052366E+04   -0.38483E-07   -0.10194E-06  1304   0.113E-06 0.242E-06
 gam= 0.114 trial= 0.704  step= 0.221 mean= 0.704
 final diagonalization
  61 F= -.20484620E+04 E0= -.20484620E+04  d E =-.735209E-03
 trial-energy change:   -0.000735  1 .order   -0.000733   -0.000959   -0.000507
 step:   0.5463(harm=  0.5604)  dis= 0.00102  next Energy= -2048.462249 (dE=-0.101E-02)
 bond charge predicted
       N       E                     dE             d eps       ncg     rms          ort
 gam= 0.000 g(H,U,f)=  0.194E-01 0.155E-02 0.267E-20 ort(H,U,f) = 0.000E+00 0.000E+00 0.000E+00
SDA:   1    -0.202700332852E+04    0.71951E-02    0.00000E+00  1304   0.209E-01 0.000E+00
 gam= 0.000 trial= 0.679  step= 0.587 mean= 0.679
 gam= 0.267 g(H,U,f)=  0.523E-02 0.344E-03 0.238E-21 ort(H,U,f) = 0.406E-03-0.403E-03-0.376E-21
CGA:   2    -0.202700946055E+04   -0.61320E-02   -0.61322E-02  1304   0.557E-02 0.280E-05
 gam= 0.267 trial= 0.675  step= 0.591 mean= 0.675
 gam= 0.168 g(H,U,f)=  0.909E-03 0.287E-04 0.559E-21 ort(H,U,f) =-0.241E-04 0.227E-04-0.271E-21
CGA:   3    -0.202701110758E+04   -0.16470E-02   -0.16470E-02  1304   0.938E-03-0.145E-05
 gam= 0.168 trial= 0.671  step= 0.489 mean= 0.671
 gam= 0.197 g(H,U,f)=  0.173E-03 0.119E-04 0.521E-22 ort(H,U,f) =-0.120E-04 0.104E-04-0.105E-21
CGA:   4    -0.202701133704E+04   -0.22946E-03   -0.22932E-03  1304   0.185E-03-0.156E-05
 gam= 0.197 trial= 0.662  step= 0.541 mean= 0.662
 gam= 0.235 g(H,U,f)=  0.387E-04 0.483E-05 0.875E-23 ort(H,U,f) =-0.723E-05 0.690E-05-0.158E-22
CGA:   5    -0.202701138703E+04   -0.49993E-04   -0.49974E-04  1304   0.435E-04-0.326E-06
 gam= 0.235 trial= 0.655  step= 0.629 mean= 0.655
 gam= 0.353 g(H,U,f)=  0.137E-04 0.167E-05 0.321E-24 ort(H,U,f) =-0.219E-05 0.345E-05 0.936E-24
CGA:   6    -0.202701140068E+04   -0.13644E-04   -0.13661E-04  1304   0.154E-04 0.126E-05
 gam= 0.353 trial= 0.654  step= 0.684 mean= 0.654
 gam= 0.637 g(H,U,f)=  0.929E-05 0.500E-06 0.113E-23 ort(H,U,f) =-0.275E-05 0.114E-05-0.121E-23
CGA:   7    -0.202701140606E+04   -0.53822E-05   -0.54064E-05  1304   0.979E-05-0.161E-05
 gam= 0.637 trial= 0.656  step= 0.438 mean= 0.656
 gam= 0.246 g(H,U,f)=  0.233E-05 0.722E-07 0.613E-26 ort(H,U,f) = 0.375E-06 0.446E-06 0.273E-25
CGA:   8    -0.202701140789E+04   -0.18313E-05   -0.19206E-05  1304   0.241E-05 0.822E-06
 gam= 0.246 trial= 0.645  step= 0.604 mean= 0.645
 gam= 0.336 g(H,U,f)=  0.791E-06 0.170E-07 0.122E-24 ort(H,U,f) = 0.260E-07 0.425E-07-0.588E-25
CGA:   9    -0.202701140868E+04   -0.78662E-06   -0.78790E-06  1304   0.808E-06 0.685E-07
 gam= 0.336 trial= 0.643  step= 0.811 mean= 0.643
 gam= 0.000 g(H,U,f)=  0.131E-05 0.339E-07 0.193E-24 ort(H,U,f) =-0.571E-06-0.250E-07-0.129E-24
CGA:  10    -0.202701140896E+04   -0.28686E-06   -0.33698E-06  1304   0.135E-05-0.596E-06
 gam= 0.000 trial= 0.651  step= 0.203 mean= 0.651
 gam= 0.109 g(H,U,f)=  0.142E-06 0.488E-08 0.207E-25 ort(H,U,f) = 0.313E-06 0.100E-07 0.638E-25
CGA:  11    -0.202701140903E+04   -0.64065E-07   -0.13649E-06  1304   0.147E-06 0.323E-06
 gam= 0.109 trial= 0.629  step= 0.214 mean= 0.629
 final diagonalization
  62 F= -.20484623E+04 E0= -.20484623E+04  d E =-.102179E-02
 curvature:  -0.62 expect dE=-0.148E-02 dE for cont linesearch -0.556E-06
 trial: gam= 0.63362 g(F)=  0.237E-02 g(S)=  0.129E-04 ort = 0.850E-04 (trialstep = 0.320E+00)
 search vector abs. value=  0.573E-02
 bond charge predicted
       N       E                     dE             d eps       ncg     rms          ort
 gam= 0.000 g(H,U,f)=  0.169E-01 0.124E-02 0.455E-23 ort(H,U,f) = 0.000E+00 0.000E+00 0.000E+00
SDA:   1    -0.202700506819E+04    0.63408E-02    0.00000E+00  1304   0.182E-01 0.000E+00
 gam= 0.000 trial= 0.608  step= 0.602 mean= 0.608
 gam= 0.280 g(H,U,f)=  0.476E-02 0.332E-03 0.334E-23 ort(H,U,f) = 0.357E-03-0.347E-03-0.412E-23
CGA:   2    -0.202701053299E+04   -0.54648E-02   -0.54648E-02  1304   0.509E-02 0.106E-04
 gam= 0.280 trial= 0.608  step= 0.567 mean= 0.608
 gam= 0.166 g(H,U,f)=  0.818E-03 0.258E-04 0.464E-22 ort(H,U,f) =-0.256E-04 0.224E-04-0.787E-23
CGA:   3    -0.202701197793E+04   -0.14449E-02   -0.14449E-02  1304   0.844E-03-0.317E-05
 gam= 0.166 trial= 0.606  step= 0.477 mean= 0.606
 gam= 0.203 g(H,U,f)=  0.160E-03 0.113E-04 0.187E-22 ort(H,U,f) =-0.687E-05 0.105E-04-0.251E-22
CGA:   4    -0.202701217871E+04   -0.20077E-03   -0.20101E-03  1304   0.171E-03 0.365E-05
 gam= 0.203 trial= 0.599  step= 0.535 mean= 0.599
 gam= 0.265 g(H,U,f)=  0.410E-04 0.439E-05 0.115E-23 ort(H,U,f) =-0.962E-05 0.659E-05-0.382E-23
CGA:   5    -0.202701222475E+04   -0.46048E-04   -0.45950E-04  1304   0.454E-04-0.303E-05
 gam= 0.265 trial= 0.596  step= 0.527 mean= 0.596
 gam= 0.360 g(H,U,f)=  0.145E-04 0.182E-05 0.211E-26 ort(H,U,f) =-0.134E-05 0.369E-05-0.527E-26
CGA:   6    -0.202701223643E+04   -0.11674E-04   -0.11756E-04  1304   0.164E-04 0.235E-05
 gam= 0.360 trial= 0.593  step= 0.633 mean= 0.593
 gam= 0.511 g(H,U,f)=  0.768E-05 0.680E-06 0.146E-23 ort(H,U,f) =-0.278E-05 0.142E-05-0.279E-26
CGA:   7    -0.202701224185E+04   -0.54164E-05   -0.54437E-05  1304   0.836E-05-0.136E-05
 gam= 0.511 trial= 0.595  step= 0.526 mean= 0.595
 gam= 0.245 g(H,U,f)=  0.196E-05 0.926E-07 0.931E-26 ort(H,U,f) = 0.360E-06 0.514E-06-0.122E-24
CGA:   8    -0.202701224383E+04   -0.19840E-05   -0.20141E-05  1304   0.205E-05 0.874E-06
 gam= 0.245 trial= 0.591  step= 0.738 mean= 0.591
 gam= 0.387 g(H,U,f)=  0.769E-06 0.244E-07 0.234E-25 ort(H,U,f) =-0.328E-06 0.286E-07 0.333E-25
CGA:   9    -0.202701224464E+04   -0.81309E-06   -0.83508E-06  1304   0.794E-06-0.300E-06
 gam= 0.387 trial= 0.598  step= 0.569 mean= 0.598
 gam= 0.263 g(H,U,f)=  0.203E-06 0.610E-08 0.247E-25 ort(H,U,f) = 0.266E-07-0.961E-08 0.378E-25
CGA:  10    -0.202701224484E+04   -0.19254E-06   -0.19280E-06  1304   0.209E-06 0.170E-07
 gam= 0.263 trial= 0.597  step= 0.485 mean= 0.597
 gam= 0.282 g(H,U,f)=  0.551E-07 0.398E-08 0.152E-26 ort(H,U,f) = 0.374E-07-0.878E-09-0.870E-26
CGA:  11    -0.202701224488E+04   -0.49622E-07   -0.51764E-07  1304   0.590E-07 0.365E-07
 gam= 0.282 trial= 0.591  step= 1.190 mean= 0.591
 final diagonalization
  63 F= -.20484629E+04 E0= -.20484629E+04  d E =-.606519E-03
 trial-energy change:   -0.000607  1 .order   -0.000609   -0.000781   -0.000438
 step:   0.7875(harm=  0.7289)  dis= 0.00134  next Energy= -2048.463178 (dE=-0.916E-03)
 bond charge predicted
       N       E                     dE             d eps       ncg     rms          ort
 gam= 0.000 g(H,U,f)=  0.359E-01 0.263E-02 0.116E-22 ort(H,U,f) = 0.000E+00 0.000E+00 0.000E+00
SDA:   1    -0.202699760025E+04    0.14645E-01    0.00000E+00  1304   0.386E-01 0.000E+00
 gam= 0.000 trial= 0.621  step= 0.602 mean= 0.621
 gam= 0.281 g(H,U,f)=  0.101E-01 0.706E-03 0.865E-23 ort(H,U,f) = 0.752E-03-0.737E-03-0.106E-22
CGA:   2    -0.202700920518E+04   -0.11605E-01   -0.11605E-01  1304   0.108E-01 0.151E-04
 gam= 0.281 trial= 0.620  step= 0.567 mean= 0.620
 gam= 0.166 g(H,U,f)=  0.174E-02 0.552E-04 0.120E-21 ort(H,U,f) =-0.527E-04 0.480E-04-0.202E-22
CGA:   3    -0.202701227312E+04   -0.30679E-02   -0.30678E-02  1304   0.180E-02-0.471E-05
 gam= 0.166 trial= 0.618  step= 0.476 mean= 0.618
 gam= 0.205 g(H,U,f)=  0.344E-03 0.241E-04 0.423E-22 ort(H,U,f) =-0.169E-04 0.224E-04-0.568E-22
CGA:   4    -0.202701270011E+04   -0.42699E-03   -0.42738E-03  1304   0.368E-03 0.547E-05
 gam= 0.205 trial= 0.611  step= 0.529 mean= 0.611
 gam= 0.262 g(H,U,f)=  0.871E-04 0.937E-05 0.240E-23 ort(H,U,f) =-0.187E-04 0.142E-04-0.865E-23
CGA:   5    -0.202701279792E+04   -0.97814E-04   -0.97634E-04  1304   0.965E-04-0.444E-05
 gam= 0.262 trial= 0.606  step= 0.535 mean= 0.606
 gam= 0.373 g(H,U,f)=  0.321E-04 0.389E-05 0.836E-27 ort(H,U,f) =-0.435E-05 0.781E-05-0.610E-27
CGA:   6    -0.202701282329E+04   -0.25369E-04   -0.25493E-04  1304   0.360E-04 0.346E-05
 gam= 0.373 trial= 0.603  step= 0.609 mean= 0.603
 gam= 0.468 g(H,U,f)=  0.154E-04 0.143E-05 0.339E-23 ort(H,U,f) =-0.511E-05 0.314E-05-0.254E-25
CGA:   7    -0.202701283463E+04   -0.11338E-04   -0.11343E-04  1304   0.168E-04-0.197E-05
 gam= 0.468 trial= 0.603  step= 0.564 mean= 0.603
 gam= 0.253 g(H,U,f)=  0.406E-05 0.201E-06 0.841E-25 ort(H,U,f) = 0.242E-06 0.104E-05-0.566E-24
CGA:   8    -0.202701283909E+04   -0.44562E-05   -0.44816E-05  1304   0.426E-05 0.128E-05
 gam= 0.253 trial= 0.601  step= 0.752 mean= 0.601
 gam= 0.403 g(H,U,f)=  0.167E-05 0.427E-07 0.246E-24 ort(H,U,f) =-0.708E-06 0.594E-07 0.104E-24
CGA:   9    -0.202701284076E+04   -0.16743E-05   -0.17233E-05  1304   0.172E-05-0.648E-06
 gam= 0.403 trial= 0.609  step= 0.432 mean= 0.609
 gam= 0.275 g(H,U,f)=  0.466E-06 0.574E-08 0.457E-25 ort(H,U,f) = 0.262E-06-0.145E-08 0.126E-24
CGA:  10    -0.202701284105E+04   -0.29137E-06   -0.31436E-06  1304   0.472E-06 0.260E-06
 gam= 0.275 trial= 0.600  step= 0.553 mean= 0.600
 gam= 0.330 g(H,U,f)=  0.146E-06 0.943E-08 0.185E-25 ort(H,U,f) =-0.173E-07-0.398E-08-0.521E-25
CGA:  11    -0.202701284120E+04   -0.15059E-06   -0.15032E-06  1304   0.156E-06-0.213E-07
 gam= 0.330 trial= 0.598  step= 1.215 mean= 0.598
 gam= 0.000 g(H,U,f)=  0.231E-06 0.136E-07 0.101E-24 ort(H,U,f) =-0.118E-06-0.722E-08-0.312E-26
CGA:  12    -0.202701284125E+04   -0.51012E-07   -0.90461E-07  1304   0.245E-06-0.126E-06
 gam= 0.000 trial= 0.628  step= 0.295 mean= 0.628
 final diagonalization
  64 F= -.20484631E+04 E0= -.20484631E+04  d E =-.867860E-03
 curvature:  -0.84 expect dE=-0.295E-02 dE for cont linesearch -0.691E-05
 trial: gam= 1.60998 g(F)=  0.340E-02 g(S)=  0.119E-03 ort =-0.217E-03 (trialstep = 0.134E+00)
 search vector abs. value=  0.177E-01
 bond charge predicted
       N       E                     dE             d eps       ncg     rms          ort
 gam= 0.000 g(H,U,f)=  0.840E-02 0.623E-03 0.108E-21 ort(H,U,f) = 0.000E+00 0.000E+00 0.000E+00
SDA:   1    -0.202700937670E+04    0.34645E-02    0.00000E+00  1304   0.902E-02 0.000E+00
 gam= 0.000 trial= 0.612  step= 0.598 mean= 0.612
 gam= 0.282 g(H,U,f)=  0.238E-02 0.165E-03 0.122E-21 ort(H,U,f) = 0.177E-03-0.166E-03-0.857E-22
CGA:   2    -0.202701207673E+04   -0.27000E-02   -0.27001E-02  1304   0.254E-02 0.117E-04
 gam= 0.282 trial= 0.611  step= 0.557 mean= 0.611
 gam= 0.177 g(H,U,f)=  0.438E-03 0.135E-04 0.984E-22 ort(H,U,f) =-0.185E-04 0.106E-04-0.106E-21
CGA:   3    -0.202701278695E+04   -0.71022E-03   -0.71001E-03  1304   0.451E-03-0.795E-05
 gam= 0.177 trial= 0.608  step= 0.445 mean= 0.608
 gam= 0.218 g(H,U,f)=  0.925E-04 0.584E-05 0.143E-22 ort(H,U,f) =-0.409E-06 0.561E-05-0.259E-22
CGA:   4    -0.202701288648E+04   -0.99537E-04   -0.99962E-04  1304   0.984E-04 0.520E-05
 gam= 0.218 trial= 0.600  step= 0.505 mean= 0.600
 gam= 0.296 g(H,U,f)=  0.264E-04 0.271E-05 0.831E-24 ort(H,U,f) =-0.779E-05 0.405E-05 0.224E-23
CGA:   5    -0.202701291180E+04   -0.25317E-04   -0.25139E-04  1304   0.291E-04-0.374E-05
 gam= 0.296 trial= 0.595  step= 0.473 mean= 0.595
 gam= 0.305 g(H,U,f)=  0.781E-05 0.107E-05 0.946E-24 ort(H,U,f) =-0.491E-06 0.220E-05-0.166E-23
CGA:   6    -0.202701291831E+04   -0.65130E-05   -0.66173E-05  1304   0.888E-05 0.170E-05
 gam= 0.305 trial= 0.589  step= 0.685 mean= 0.589
 gam= 0.435 g(H,U,f)=  0.348E-05 0.379E-06 0.122E-23 ort(H,U,f) =-0.134E-05 0.781E-06-0.493E-24
CGA:   7    -0.202701292151E+04   -0.31931E-05   -0.32197E-05  1304   0.386E-05-0.558E-06
 gam= 0.435 trial= 0.594  step= 0.599 mean= 0.594
 gam= 0.237 g(H,U,f)=  0.859E-06 0.556E-07 0.612E-25 ort(H,U,f) = 0.199E-06 0.266E-06-0.233E-24
CGA:   8    -0.202701292259E+04   -0.10833E-05   -0.10825E-05  1304   0.915E-06 0.465E-06
 gam= 0.237 trial= 0.594  step= 0.806 mean= 0.594
 gam= 0.459 g(H,U,f)=  0.410E-06 0.989E-08 0.251E-27 ort(H,U,f) =-0.201E-06 0.178E-07-0.390E-27
CGA:   9    -0.202701292298E+04   -0.39344E-06   -0.41301E-06  1304   0.420E-06-0.183E-06
 gam= 0.459 trial= 0.605  step= 0.352 mean= 0.605
 gam= 0.344 g(H,U,f)=  0.143E-06 0.144E-08 0.109E-26 ort(H,U,f) = 0.105E-06 0.312E-08 0.153E-27
CGA:  10    -0.202701292303E+04   -0.45504E-07   -0.59075E-07  1304   0.145E-06 0.108E-06
 gam= 0.344 trial= 0.592  step= 0.346 mean= 0.592
 final diagonalization
  65 F= -.20484635E+04 E0= -.20484635E+04  d E =-.375178E-03
 ZBRENT: can't locate minimum, use default step
 trial-energy change:   -0.000375  1 .order   -0.000379   -0.000425   -0.000334
 step:   0.5369(harm=  0.6275)  dis= 0.00160  next Energy= -2048.464123 (dE=-0.993E-03)
 bond charge predicted
       N       E                     dE             d eps       ncg     rms          ort
 gam= 0.000 g(H,U,f)=  0.757E-01 0.562E-02 0.794E-21 ort(H,U,f) = 0.000E+00 0.000E+00 0.000E+00
SDA:   1    -0.202698069624E+04    0.32227E-01    0.00000E+00  1304   0.813E-01 0.000E+00
 gam= 0.000 trial= 0.580  step= 0.599 mean= 0.580
 gam= 0.282 g(H,U,f)=  0.214E-01 0.149E-02 0.282E-21 ort(H,U,f) = 0.153E-02-0.150E-02-0.193E-21
CGA:   2    -0.202700503328E+04   -0.24337E-01   -0.24337E-01  1304   0.229E-01 0.352E-04
 gam= 0.282 trial= 0.581  step= 0.556 mean= 0.581
 gam= 0.176 g(H,U,f)=  0.392E-02 0.122E-03 0.479E-21 ort(H,U,f) =-0.123E-03 0.983E-04-0.521E-21
CGA:   3    -0.202701141424E+04   -0.63810E-02   -0.63807E-02  1304   0.404E-02-0.242E-04
 gam= 0.176 trial= 0.580  step= 0.450 mean= 0.580
 gam= 0.221 g(H,U,f)=  0.841E-03 0.534E-04 0.375E-22 ort(H,U,f) =-0.340E-04 0.505E-04-0.663E-22
CGA:   4    -0.202701232038E+04   -0.90613E-03   -0.90719E-03  1304   0.894E-03 0.164E-04
 gam= 0.221 trial= 0.573  step= 0.490 mean= 0.573
 gam= 0.278 g(H,U,f)=  0.224E-03 0.242E-04 0.267E-23 ort(H,U,f) =-0.488E-04 0.373E-04 0.751E-23
CGA:   5    -0.202701254087E+04   -0.22049E-03   -0.22001E-03  1304   0.249E-03-0.115E-04
 gam= 0.278 trial= 0.569  step= 0.506 mean= 0.569
 gam= 0.342 g(H,U,f)=  0.753E-04 0.964E-05 0.507E-23 ort(H,U,f) =-0.136E-04 0.190E-04-0.740E-23
CGA:   6    -0.202701260283E+04   -0.61970E-04   -0.62138E-04  1304   0.849E-04 0.537E-05
 gam= 0.342 trial= 0.566  step= 0.641 mean= 0.566
 gam= 0.391 g(H,U,f)=  0.298E-04 0.335E-05 0.373E-23 ort(H,U,f) =-0.976E-05 0.758E-05-0.206E-23
CGA:   7    -0.202701263056E+04   -0.27721E-04   -0.27803E-04  1304   0.332E-04-0.219E-05
 gam= 0.391 trial= 0.570  step= 0.639 mean= 0.570
 gam= 0.273 g(H,U,f)=  0.854E-05 0.526E-06 0.302E-24 ort(H,U,f) =-0.256E-06 0.226E-05-0.902E-24
CGA:   8    -0.202701264095E+04   -0.10395E-04   -0.10326E-04  1304   0.906E-05 0.201E-05
 gam= 0.273 trial= 0.573  step= 0.695 mean= 0.573
 gam= 0.504 g(H,U,f)=  0.446E-05 0.107E-06 0.418E-27 ort(H,U,f) =-0.143E-05 0.202E-06-0.210E-26
CGA:   9    -0.202701264422E+04   -0.32641E-05   -0.33387E-05  1304   0.457E-05-0.122E-05
 gam= 0.504 trial= 0.579  step= 0.339 mean= 0.579
 gam= 0.241 g(H,U,f)=  0.109E-05 0.135E-07 0.876E-26 ort(H,U,f) = 0.648E-06 0.436E-07-0.290E-26
CGA:  10    -0.202701264480E+04   -0.58598E-06   -0.66904E-06  1304   0.110E-05 0.692E-06
 gam= 0.241 trial= 0.567  step= 0.421 mean= 0.567
 gam= 0.422 g(H,U,f)=  0.451E-06 0.131E-07 0.101E-25 ort(H,U,f) = 0.234E-06 0.845E-09-0.873E-26
CGA:  11    -0.202701264505E+04   -0.24957E-06   -0.26660E-06  1304   0.464E-06 0.235E-06
 gam= 0.422 trial= 0.560  step= 0.746 mean= 0.560
 gam= 0.000 g(H,U,f)=  0.896E-06 0.160E-07 0.107E-25 ort(H,U,f) =-0.462E-06-0.630E-08 0.663E-26
CGA:  12    -0.202701264522E+04   -0.16651E-06   -0.21008E-06  1304   0.912E-06-0.468E-06
 gam= 0.000 trial= 0.569  step= 0.204 mean= 0.569
 gam= 0.150 g(H,U,f)=  0.134E-06 0.278E-08 0.168E-26 ort(H,U,f) = 0.259E-06 0.465E-08 0.425E-26
CGA:  13    -0.202701264526E+04   -0.44893E-07   -0.93119E-07  1304   0.137E-06 0.264E-06
 gam= 0.150 trial= 0.551  step= 0.242 mean= 0.551
 final diagonalization
  66 F= -.20484641E+04 E0= -.20484641E+04  d E =-.976970E-03
 curvature:  -1.69 expect dE=-0.590E-02 dE for cont linesearch -0.282E-04
 trial: gam= 0.59515 g(F)=  0.345E-02 g(S)=  0.323E-04 ort = 0.542E-03 (trialstep = 0.215E+00)
 search vector abs. value=  0.104E-01
 bond charge predicted
       N       E                     dE             d eps       ncg     rms          ort
 gam= 0.000 g(H,U,f)=  0.131E-01 0.100E-02 0.242E-23 ort(H,U,f) = 0.000E+00 0.000E+00 0.000E+00
SDA:   1    -0.202700698842E+04    0.56568E-02    0.00000E+00  1304   0.141E-01 0.000E+00
 gam= 0.000 trial= 0.536  step= 0.611 mean= 0.536
 gam= 0.287 g(H,U,f)=  0.379E-02 0.271E-03 0.911E-22 ort(H,U,f) = 0.290E-03-0.279E-03-0.106E-22
CGA:   2    -0.202701130771E+04   -0.43193E-02   -0.43189E-02  1304   0.406E-02 0.114E-04
 gam= 0.287 trial= 0.539  step= 0.569 mean= 0.539
 gam= 0.165 g(H,U,f)=  0.648E-03 0.219E-04 0.140E-22 ort(H,U,f) =-0.260E-04 0.125E-04-0.495E-22
CGA:   3    -0.202701246440E+04   -0.11567E-02   -0.11569E-02  1304   0.670E-03-0.135E-04
 gam= 0.165 trial= 0.541  step= 0.470 mean= 0.541
 gam= 0.217 g(H,U,f)=  0.136E-03 0.922E-05 0.254E-22 ort(H,U,f) =-0.124E-05 0.810E-05-0.750E-23
CGA:   4    -0.202701262100E+04   -0.15659E-03   -0.15684E-03  1304   0.145E-03 0.686E-05
 gam= 0.217 trial= 0.537  step= 0.523 mean= 0.537
 gam= 0.297 g(H,U,f)=  0.391E-04 0.399E-05 0.668E-24 ort(H,U,f) =-0.104E-04 0.602E-05 0.449E-23
CGA:   5    -0.202701265942E+04   -0.38426E-04   -0.38396E-04  1304   0.431E-04-0.436E-05
 gam= 0.297 trial= 0.537  step= 0.490 mean= 0.537
 gam= 0.344 g(H,U,f)=  0.133E-04 0.156E-05 0.107E-25 ort(H,U,f) =-0.102E-05 0.322E-05 0.271E-24
CGA:   6    -0.202701266962E+04   -0.10199E-04   -0.10250E-04  1304   0.148E-04 0.220E-05
 gam= 0.344 trial= 0.534  step= 0.657 mean= 0.534
 gam= 0.463 g(H,U,f)=  0.630E-05 0.564E-06 0.225E-23 ort(H,U,f) =-0.244E-05 0.115E-05 0.156E-23
CGA:   7    -0.202701267466E+04   -0.50346E-05   -0.51143E-05  1304   0.686E-05-0.129E-05
 gam= 0.463 trial= 0.540  step= 0.553 mean= 0.540
 gam= 0.240 g(H,U,f)=  0.157E-05 0.772E-07 0.372E-25 ort(H,U,f) = 0.404E-06 0.381E-06-0.403E-24
CGA:   8    -0.202701267639E+04   -0.17371E-05   -0.17321E-05  1304   0.165E-05 0.785E-06
 gam= 0.240 trial= 0.541  step= 0.687 mean= 0.541
 gam= 0.355 g(H,U,f)=  0.567E-06 0.172E-07 0.221E-26 ort(H,U,f) =-0.139E-06 0.398E-07 0.148E-25
CGA:   9    -0.202701267702E+04   -0.62371E-06   -0.63110E-06  1304   0.584E-06-0.996E-07
 gam= 0.355 trial= 0.548  step= 0.437 mean= 0.548
 gam= 0.277 g(H,U,f)=  0.159E-06 0.285E-08 0.774E-26 ort(H,U,f) = 0.123E-06 0.666E-08 0.140E-25
CGA:  10    -0.202701267713E+04   -0.11267E-06   -0.11996E-06  1304   0.162E-06 0.130E-06
 gam= 0.277 trial= 0.543  step= 0.525 mean= 0.543
 gam= 0.336 g(H,U,f)=  0.513E-07 0.311E-08 0.321E-26 ort(H,U,f) = 0.167E-07 0.729E-09-0.755E-26
CGA:  11    -0.202701267718E+04   -0.51907E-07   -0.51967E-07  1304   0.544E-07 0.174E-07
 gam= 0.336 trial= 0.542  step= 1.214 mean= 0.542
 final diagonalization
  67 F= -.20484648E+04 E0= -.20484648E+04  d E =-.668117E-03
 trial-energy change:   -0.000668  1 .order   -0.000676   -0.000818   -0.000534
 step:   0.6186(harm=  0.6186)  dis= 0.00122  next Energy= -2048.465284 (dE=-0.118E-02)
 bond charge predicted
       N       E                     dE             d eps       ncg     rms          ort
 gam= 0.000 g(H,U,f)=  0.464E-01 0.354E-02 0.224E-22 ort(H,U,f) = 0.000E+00 0.000E+00 0.000E+00
SDA:   1    -0.202699183989E+04    0.20837E-01    0.00000E+00  1304   0.500E-01 0.000E+00
 gam= 0.000 trial= 0.575  step= 0.612 mean= 0.575
 gam= 0.288 g(H,U,f)=  0.134E-01 0.962E-03 0.635E-21 ort(H,U,f) = 0.101E-02-0.987E-03-0.612E-22
CGA:   2    -0.202700712182E+04   -0.15282E-01   -0.15282E-01  1304   0.144E-01 0.199E-04
 gam= 0.288 trial= 0.577  step= 0.567 mean= 0.577
 gam= 0.165 g(H,U,f)=  0.230E-02 0.780E-04 0.177E-21 ort(H,U,f) =-0.700E-04 0.463E-04-0.634E-21
CGA:   3    -0.202701120728E+04   -0.40855E-02   -0.40853E-02  1304   0.238E-02-0.238E-04
 gam= 0.165 trial= 0.577  step= 0.471 mean= 0.577
 gam= 0.221 g(H,U,f)=  0.492E-03 0.328E-04 0.300E-21 ort(H,U,f) =-0.163E-04 0.288E-04-0.852E-22
CGA:   4    -0.202701176556E+04   -0.55829E-03   -0.55894E-03  1304   0.524E-03 0.125E-04
 gam= 0.221 trial= 0.571  step= 0.511 mean= 0.571
 gam= 0.286 g(H,U,f)=  0.136E-03 0.142E-04 0.138E-22 ort(H,U,f) =-0.296E-04 0.218E-04 0.792E-22
CGA:   5    -0.202701190048E+04   -0.13492E-03   -0.13468E-03  1304   0.150E-03-0.776E-05
 gam= 0.286 trial= 0.568  step= 0.509 mean= 0.568
 gam= 0.366 g(H,U,f)=  0.492E-04 0.559E-05 0.117E-25 ort(H,U,f) =-0.730E-05 0.112E-04 0.120E-23
CGA:   6    -0.202701193794E+04   -0.37466E-04   -0.37583E-04  1304   0.548E-04 0.391E-05
 gam= 0.366 trial= 0.565  step= 0.620 mean= 0.565
 gam= 0.410 g(H,U,f)=  0.205E-04 0.195E-05 0.347E-22 ort(H,U,f) =-0.676E-05 0.440E-05 0.261E-22
CGA:   7    -0.202701195532E+04   -0.17380E-04   -0.17444E-04  1304   0.225E-04-0.236E-05
 gam= 0.410 trial= 0.568  step= 0.604 mean= 0.568
 gam= 0.258 g(H,U,f)=  0.549E-05 0.298E-06 0.140E-23 ort(H,U,f) = 0.285E-06 0.128E-05-0.100E-22
CGA:   8    -0.202701196184E+04   -0.65187E-05   -0.64911E-05  1304   0.579E-05 0.157E-05
 gam= 0.258 trial= 0.570  step= 0.696 mean= 0.570
 gam= 0.427 g(H,U,f)=  0.241E-05 0.598E-07 0.760E-24 ort(H,U,f) =-0.678E-06 0.131E-06 0.896E-24
CGA:   9    -0.202701196397E+04   -0.21224E-05   -0.21568E-05  1304   0.247E-05-0.548E-06
 gam= 0.427 trial= 0.576  step= 0.359 mean= 0.576
 gam= 0.264 g(H,U,f)=  0.643E-06 0.937E-08 0.179E-24 ort(H,U,f) = 0.432E-06 0.284E-07 0.562E-24
CGA:  10    -0.202701196432E+04   -0.35151E-06   -0.40162E-06  1304   0.653E-06 0.461E-06
 gam= 0.264 trial= 0.565  step= 0.494 mean= 0.565
 gam= 0.359 g(H,U,f)=  0.224E-06 0.106E-07 0.218E-24 ort(H,U,f) = 0.917E-07 0.117E-08-0.366E-24
CGA:  11    -0.202701196450E+04   -0.18792E-06   -0.19115E-06  1304   0.234E-06 0.929E-07
 gam= 0.359 trial= 0.562  step= 1.395 mean= 0.562
 gam= 0.000 g(H,U,f)=  0.168E-05 0.400E-07 0.763E-24 ort(H,U,f) =-0.474E-06-0.162E-07-0.163E-24
CGA:  12    -0.202701196449E+04    0.17688E-07   -0.18655E-06  1304   0.172E-05-0.491E-06
 gam= 0.000 trial= 0.604  step= 0.211 mean= 0.604
 gam= 0.102 g(H,U,f)=  0.171E-06 0.408E-08 0.936E-25 ort(H,U,f) = 0.347E-06 0.905E-08 0.268E-24
CGA:  13    -0.202701196460E+04   -0.11100E-06   -0.18100E-06  1304   0.175E-06 0.356E-06
 gam= 0.102 trial= 0.584  step= 0.266 mean= 0.584
 gam= 0.401 g(H,U,f)=  0.683E-07 0.176E-08 0.102E-28 ort(H,U,f) = 0.729E-07 0.155E-08 0.105E-26
CGA:  14    -0.202701196461E+04   -0.16196E-07   -0.28049E-07  1304   0.700E-07 0.745E-07
 gam= 0.401 trial= 0.568  step= 0.753 mean= 0.568
 final diagonalization
  68 F= -.20484653E+04 E0= -.20484653E+04  d E =-.115056E-02
 curvature:  -0.84 expect dE=-0.201E-02 dE for cont linesearch -0.200E-06
 trial: gam= 0.89348 g(F)=  0.235E-02 g(S)=  0.313E-04 ort =-0.496E-04 (trialstep = 0.290E+00)
 search vector abs. value=  0.106E-01
 bond charge predicted
       N       E                     dE             d eps       ncg     rms          ort
 gam= 0.000 g(H,U,f)=  0.254E-01 0.205E-02 0.647E-21 ort(H,U,f) = 0.000E+00 0.000E+00 0.000E+00
SDA:   1    -0.202700173524E+04    0.10229E-01    0.00000E+00  1304   0.274E-01 0.000E+00
 gam= 0.000 trial= 0.577  step= 0.601 mean= 0.577
 gam= 0.285 g(H,U,f)=  0.725E-02 0.575E-03 0.732E-21 ort(H,U,f) = 0.627E-03-0.628E-03 0.855E-21
CGA:   2    -0.202700998380E+04   -0.82486E-02   -0.82486E-02  1304   0.782E-02-0.128E-05
 gam= 0.285 trial= 0.578  step= 0.572 mean= 0.578
 gam= 0.156 g(H,U,f)=  0.118E-02 0.400E-04 0.198E-20 ort(H,U,f) =-0.410E-04 0.379E-04-0.198E-20
CGA:   3    -0.202701221894E+04   -0.22351E-02   -0.22351E-02  1304   0.122E-02-0.309E-05
 gam= 0.156 trial= 0.578  step= 0.496 mean= 0.578
 gam= 0.211 g(H,U,f)=  0.238E-03 0.187E-04 0.271E-21 ort(H,U,f) =-0.157E-04 0.154E-04-0.494E-21
CGA:   4    -0.202701252104E+04   -0.30210E-03   -0.30208E-03  1304   0.257E-03-0.314E-06
 gam= 0.211 trial= 0.574  step= 0.552 mean= 0.574
 gam= 0.232 g(H,U,f)=  0.525E-04 0.711E-05 0.210E-21 ort(H,U,f) =-0.109E-04 0.107E-04-0.161E-21
CGA:   5    -0.202701259179E+04   -0.70744E-04   -0.70742E-04  1304   0.596E-04-0.191E-06
 gam= 0.232 trial= 0.573  step= 0.669 mean= 0.573
 gam= 0.386 g(H,U,f)=  0.208E-04 0.216E-05 0.114E-23 ort(H,U,f) =-0.470E-05 0.474E-05-0.114E-22
CGA:   6    -0.202701261172E+04   -0.19930E-04   -0.19928E-04  1304   0.230E-04 0.473E-07
 gam= 0.386 trial= 0.578  step= 0.600 mean= 0.578
 gam= 0.490 g(H,U,f)=  0.105E-04 0.728E-06 0.251E-23 ort(H,U,f) =-0.203E-05 0.190E-05 0.469E-23
CGA:   7    -0.202701261862E+04   -0.69094E-05   -0.69109E-05  1304   0.113E-04-0.123E-06
 gam= 0.490 trial= 0.579  step= 0.506 mean= 0.579
 gam= 0.286 g(H,U,f)=  0.309E-05 0.131E-06 0.811E-23 ort(H,U,f) =-0.403E-06 0.601E-06 0.845E-23
CGA:   8    -0.202701262145E+04   -0.28276E-05   -0.28349E-05  1304   0.322E-05 0.198E-06
 gam= 0.286 trial= 0.575  step= 0.653 mean= 0.575
 gam= 0.262 g(H,U,f)=  0.829E-06 0.161E-07 0.432E-24 ort(H,U,f) =-0.192E-06 0.519E-07-0.235E-23
CGA:   9    -0.202701262252E+04   -0.10639E-05   -0.10695E-05  1304   0.845E-06-0.140E-06
 gam= 0.262 trial= 0.579  step= 0.499 mean= 0.579
 gam= 0.250 g(H,U,f)=  0.206E-06 0.485E-08 0.315E-24 ort(H,U,f) = 0.142E-06 0.340E-08 0.156E-24
CGA:  10    -0.202701262271E+04   -0.19567E-06   -0.20156E-06  1304   0.211E-06 0.145E-06
 gam= 0.250 trial= 0.575  step= 0.887 mean= 0.575
 gam= 0.983 g(H,U,f)=  0.203E-06 0.453E-08 0.233E-24 ort(H,U,f) =-0.965E-07-0.208E-08 0.302E-24
CGA:  11    -0.202701262281E+04   -0.94282E-07   -0.10963E-06  1304   0.208E-06-0.985E-07
 gam= 0.983 trial= 0.591  step= 0.208 mean= 0.591
 final diagonalization
  69 F= -.20484658E+04 E0= -.20484658E+04  d E =-.499839E-03
 trial-energy change:   -0.000500  1 .order   -0.000499   -0.000678   -0.000320
 step:   0.5486(harm=  0.5486)  dis= 0.00137  next Energy= -2048.465899 (dE=-0.642E-03)
 bond charge predicted
       N       E                     dE             d eps       ncg     rms          ort
 gam= 0.000 g(H,U,f)=  0.202E-01 0.163E-02 0.497E-21 ort(H,U,f) = 0.000E+00 0.000E+00 0.000E+00
SDA:   1    -0.202700423810E+04    0.83846E-02    0.00000E+00  1304   0.218E-01 0.000E+00
 gam= 0.000 trial= 0.571  step= 0.601 mean= 0.571
 gam= 0.285 g(H,U,f)=  0.577E-02 0.458E-03 0.554E-21 ort(H,U,f) = 0.499E-03-0.501E-03 0.637E-21
CGA:   2    -0.202701080390E+04   -0.65658E-02   -0.65658E-02  1304   0.623E-02-0.112E-05
 gam= 0.285 trial= 0.573  step= 0.572 mean= 0.573
 gam= 0.155 g(H,U,f)=  0.936E-03 0.318E-04 0.142E-20 ort(H,U,f) =-0.327E-04 0.298E-04-0.142E-20
CGA:   3    -0.202701258375E+04   -0.17799E-02   -0.17799E-02  1304   0.968E-03-0.287E-05
 gam= 0.155 trial= 0.573  step= 0.496 mean= 0.573
 gam= 0.212 g(H,U,f)=  0.190E-03 0.149E-04 0.205E-21 ort(H,U,f) =-0.123E-04 0.121E-04-0.373E-21
CGA:   4    -0.202701282355E+04   -0.23980E-03   -0.23979E-03  1304   0.205E-03-0.240E-06
 gam= 0.212 trial= 0.569  step= 0.550 mean= 0.569
 gam= 0.232 g(H,U,f)=  0.421E-04 0.564E-05 0.151E-21 ort(H,U,f) =-0.879E-05 0.857E-05-0.117E-21
CGA:   5    -0.202701287998E+04   -0.56429E-04   -0.56427E-04  1304   0.477E-04-0.215E-06
 gam= 0.232 trial= 0.568  step= 0.665 mean= 0.568
 gam= 0.389 g(H,U,f)=  0.168E-04 0.173E-05 0.451E-24 ort(H,U,f) =-0.372E-05 0.379E-05-0.613E-23
CGA:   6    -0.202701289583E+04   -0.15848E-04   -0.15845E-04  1304   0.186E-04 0.787E-07
 gam= 0.389 trial= 0.573  step= 0.598 mean= 0.573
 gam= 0.492 g(H,U,f)=  0.854E-05 0.593E-06 0.142E-23 ort(H,U,f) =-0.168E-05 0.153E-05 0.333E-23
CGA:   7    -0.202701290138E+04   -0.55542E-05   -0.55561E-05  1304   0.913E-05-0.152E-06
 gam= 0.492 trial= 0.574  step= 0.506 mean= 0.574
 gam= 0.281 g(H,U,f)=  0.246E-05 0.104E-06 0.614E-23 ort(H,U,f) =-0.285E-06 0.487E-06 0.624E-23
CGA:   8    -0.202701290367E+04   -0.22826E-05   -0.22895E-05  1304   0.256E-05 0.202E-06
 gam= 0.281 trial= 0.571  step= 0.664 mean= 0.571
 gam= 0.271 g(H,U,f)=  0.680E-06 0.131E-07 0.293E-24 ort(H,U,f) =-0.172E-06 0.388E-07-0.167E-23
CGA:   9    -0.202701290453E+04   -0.86271E-06   -0.86897E-06  1304   0.693E-06-0.134E-06
 gam= 0.271 trial= 0.575  step= 0.483 mean= 0.575
 gam= 0.247 g(H,U,f)=  0.168E-06 0.375E-08 0.186E-24 ort(H,U,f) = 0.129E-06 0.276E-08 0.126E-24
CGA:  10    -0.202701290468E+04   -0.15269E-06   -0.15888E-06  1304   0.171E-06 0.132E-06
 gam= 0.247 trial= 0.571  step= 0.889 mean= 0.571
 gam= 0.940 g(H,U,f)=  0.157E-06 0.365E-08 0.267E-24 ort(H,U,f) =-0.793E-07-0.155E-08 0.259E-24
CGA:  11    -0.202701290476E+04   -0.77780E-07   -0.90638E-07  1304   0.161E-06-0.809E-07
 gam= 0.940 trial= 0.587  step= 0.210 mean= 0.587
 final diagonalization
  70 F= -.20484659E+04 E0= -.20484659E+04  d E =-.640051E-03
 curvature:  -1.24 expect dE=-0.260E-02 dE for cont linesearch -0.113E-07
 trial: gam= 0.76281 g(F)=  0.202E-02 g(S)=  0.751E-04 ort =-0.983E-05 (trialstep = 0.342E+00)
 search vector abs. value=  0.824E-02
 bond charge predicted
       N       E                     dE             d eps       ncg     rms          ort
 gam= 0.000 g(H,U,f)=  0.278E-01 0.232E-02 0.501E-21 ort(H,U,f) = 0.000E+00 0.000E+00 0.000E+00
SDA:   1    -0.202700258770E+04    0.10317E-01    0.00000E+00  1304   0.302E-01 0.000E+00
 gam= 0.000 trial= 0.568  step= 0.593 mean= 0.568
 gam= 0.288 g(H,U,f)=  0.806E-02 0.627E-03 0.422E-20 ort(H,U,f) = 0.659E-03-0.674E-03 0.364E-20
CGA:   2    -0.202701153137E+04   -0.89437E-02   -0.89439E-02  1304   0.869E-02-0.155E-04
 gam= 0.288 trial= 0.569  step= 0.569 mean= 0.569
 gam= 0.165 g(H,U,f)=  0.138E-02 0.535E-04 0.168E-19 ort(H,U,f) =-0.249E-04 0.388E-04-0.105E-19
CGA:   3    -0.202701400354E+04   -0.24722E-02   -0.24722E-02  1304   0.143E-02 0.139E-04
 gam= 0.165 trial= 0.569  step= 0.475 mean= 0.569
 gam= 0.220 g(H,U,f)=  0.293E-03 0.217E-04 0.602E-21 ort(H,U,f) =-0.242E-04 0.163E-04-0.194E-20
CGA:   4    -0.202701434428E+04   -0.34074E-03   -0.34037E-03  1304   0.314E-03-0.790E-05
 gam= 0.220 trial= 0.564  step= 0.515 mean= 0.564
 gam= 0.247 g(H,U,f)=  0.695E-04 0.813E-05 0.261E-21 ort(H,U,f) =-0.821E-05 0.133E-04-0.125E-21
CGA:   5    -0.202701442460E+04   -0.80325E-04   -0.80452E-04  1304   0.776E-04 0.511E-05
 gam= 0.247 trial= 0.562  step= 0.588 mean= 0.562
 gam= 0.473 g(H,U,f)=  0.337E-04 0.309E-05 0.141E-21 ort(H,U,f) =-0.922E-05 0.592E-05 0.157E-21
CGA:   6    -0.202701444775E+04   -0.23145E-04   -0.23188E-04  1304   0.367E-04-0.329E-05
 gam= 0.473 trial= 0.563  step= 0.503 mean= 0.563
 gam= 0.317 g(H,U,f)=  0.105E-04 0.110E-05 0.123E-23 ort(H,U,f) =-0.108E-05 0.313E-05 0.183E-22
CGA:   7    -0.202701445653E+04   -0.87859E-05   -0.88476E-05  1304   0.116E-04 0.204E-05
 gam= 0.317 trial= 0.560  step= 0.742 mean= 0.560
 gam= 0.337 g(H,U,f)=  0.375E-05 0.166E-06 0.163E-22 ort(H,U,f) =-0.147E-05 0.634E-06 0.246E-22
CGA:   8    -0.202701446102E+04   -0.44837E-05   -0.45597E-05  1304   0.392E-05-0.836E-06
 gam= 0.337 trial= 0.569  step= 0.668 mean= 0.569
 gam= 0.218 g(H,U,f)=  0.836E-06 0.184E-07 0.136E-27 ort(H,U,f) =-0.164E-08 0.248E-07 0.993E-26
CGA:   9    -0.202701446223E+04   -0.12156E-05   -0.12143E-05  1304   0.855E-06 0.232E-07
 gam= 0.218 trial= 0.574  step= 0.740 mean= 0.574
 gam= 0.383 g(H,U,f)=  0.313E-06 0.142E-07 0.103E-23 ort(H,U,f) =-0.120E-06-0.109E-07 0.129E-23
CGA:  10    -0.202701446254E+04   -0.30699E-06   -0.31785E-06  1304   0.327E-06-0.131E-06
 gam= 0.383 trial= 0.583  step= 0.563 mean= 0.583
 gam= 0.291 g(H,U,f)=  0.910E-07 0.434E-08 0.686E-25 ort(H,U,f) = 0.259E-07-0.326E-08 0.390E-24
CGA:  11    -0.202701446262E+04   -0.77867E-07   -0.78054E-07  1304   0.954E-07 0.227E-07
 gam= 0.291 trial= 0.582  step= 1.221 mean= 0.582
 final diagonalization
  71 F= -.20484664E+04 E0= -.20484664E+04  d E =-.514415E-03
 trial-energy change:   -0.000514  1 .order   -0.000511   -0.000714   -0.000308
 step:   0.5781(harm=  0.6005)  dis= 0.00136  next Energy= -2048.466519 (dE=-0.622E-03)
 bond charge predicted
       N       E                     dE             d eps       ncg     rms          ort
 gam= 0.000 g(H,U,f)=  0.133E-01 0.111E-02 0.428E-21 ort(H,U,f) = 0.000E+00 0.000E+00 0.000E+00
SDA:   1    -0.202700962133E+04    0.48412E-02    0.00000E+00  1304   0.144E-01 0.000E+00
 gam= 0.000 trial= 0.614  step= 0.593 mean= 0.614
 gam= 0.288 g(H,U,f)=  0.386E-02 0.300E-03 0.187E-20 ort(H,U,f) = 0.314E-03-0.323E-03 0.170E-20
CGA:   2    -0.202701390467E+04   -0.42833E-02   -0.42832E-02  1304   0.416E-02-0.984E-05
 gam= 0.288 trial= 0.613  step= 0.569 mean= 0.613
 gam= 0.164 g(H,U,f)=  0.658E-03 0.255E-04 0.764E-20 ort(H,U,f) =-0.960E-05 0.184E-04-0.473E-20
CGA:   3    -0.202701508646E+04   -0.11818E-02   -0.11820E-02  1304   0.683E-03 0.876E-05
 gam= 0.164 trial= 0.610  step= 0.477 mean= 0.610
 gam= 0.218 g(H,U,f)=  0.139E-03 0.104E-04 0.364E-21 ort(H,U,f) =-0.126E-04 0.769E-05-0.115E-20
CGA:   4    -0.202701525017E+04   -0.16371E-03   -0.16338E-03  1304   0.149E-03-0.496E-05
 gam= 0.218 trial= 0.604  step= 0.516 mean= 0.604
 gam= 0.242 g(H,U,f)=  0.322E-04 0.383E-05 0.157E-21 ort(H,U,f) =-0.306E-05 0.629E-05-0.783E-22
CGA:   5    -0.202701528825E+04   -0.38076E-04   -0.38216E-04  1304   0.360E-04 0.323E-05
 gam= 0.242 trial= 0.599  step= 0.608 mean= 0.599
 gam= 0.499 g(H,U,f)=  0.166E-04 0.143E-05 0.742E-22 ort(H,U,f) =-0.492E-05 0.273E-05 0.897E-22
CGA:   6    -0.202701529943E+04   -0.11184E-04   -0.11193E-04  1304   0.180E-04-0.219E-05
 gam= 0.499 trial= 0.600  step= 0.479 mean= 0.600
 gam= 0.304 g(H,U,f)=  0.496E-05 0.507E-06 0.142E-23 ort(H,U,f) =-0.142E-06 0.151E-05 0.155E-22
CGA:   7    -0.202701530339E+04   -0.39573E-05   -0.40404E-05  1304   0.546E-05 0.137E-05
 gam= 0.304 trial= 0.594  step= 0.742 mean= 0.594
 gam= 0.355 g(H,U,f)=  0.185E-05 0.849E-07 0.987E-23 ort(H,U,f) =-0.736E-06 0.309E-06 0.157E-22
CGA:   8    -0.202701530554E+04   -0.21490E-05   -0.21804E-05  1304   0.194E-05-0.427E-06
 gam= 0.355 trial= 0.601  step= 0.749 mean= 0.601
 gam= 0.317 g(H,U,f)=  0.598E-06 0.159E-07 0.951E-25 ort(H,U,f) =-0.227E-06-0.164E-07-0.147E-23
CGA:   9    -0.202701530619E+04   -0.65099E-06   -0.66893E-06  1304   0.614E-06-0.243E-06
 gam= 0.317 trial= 0.609  step= 0.364 mean= 0.609
 gam= 0.296 g(H,U,f)=  0.179E-06 0.314E-08 0.464E-25 ort(H,U,f) = 0.151E-06-0.393E-08 0.258E-24
CGA:  10    -0.202701530627E+04   -0.79446E-07   -0.97626E-07  1304   0.182E-06 0.148E-06
 gam= 0.296 trial= 0.596  step= 0.629 mean= 0.596
 final diagonalization
  72 F= -.20484665E+04 E0= -.20484665E+04  d E =-.635829E-03
 curvature:  -1.18 expect dE=-0.196E-02 dE for cont linesearch -0.103E-05
 trial: gam= 0.75934 g(F)=  0.166E-02 g(S)=  0.524E-05 ort = 0.852E-04 (trialstep = 0.389E+00)
 search vector abs. value=  0.655E-02
 bond charge predicted
       N       E                     dE             d eps       ncg     rms          ort
 gam= 0.000 g(H,U,f)=  0.296E-01 0.247E-02 0.640E-21 ort(H,U,f) = 0.000E+00 0.000E+00 0.000E+00
SDA:   1    -0.202700450580E+04    0.10800E-01    0.00000E+00  1304   0.321E-01 0.000E+00
 gam= 0.000 trial= 0.598  step= 0.592 mean= 0.598
 gam= 0.284 g(H,U,f)=  0.846E-02 0.648E-03 0.399E-19 ort(H,U,f) = 0.678E-03-0.694E-03-0.766E-20
CGA:   2    -0.202701399605E+04   -0.94903E-02   -0.94902E-02  1304   0.910E-02-0.163E-04
 gam= 0.284 trial= 0.598  step= 0.569 mean= 0.598
 gam= 0.164 g(H,U,f)=  0.144E-02 0.543E-04 0.739E-19 ort(H,U,f) =-0.238E-04 0.386E-04-0.678E-19
CGA:   3    -0.202701658526E+04   -0.25892E-02   -0.25894E-02  1304   0.149E-02 0.148E-04
 gam= 0.164 trial= 0.596  step= 0.479 mean= 0.596
 gam= 0.207 g(H,U,f)=  0.284E-03 0.253E-04 0.405E-20 ort(H,U,f) =-0.205E-04 0.137E-04-0.928E-20
CGA:   4    -0.202701694373E+04   -0.35847E-03   -0.35807E-03  1304   0.309E-03-0.683E-05
 gam= 0.207 trial= 0.590  step= 0.544 mean= 0.590
 gam= 0.229 g(H,U,f)=  0.631E-04 0.774E-05 0.188E-21 ort(H,U,f) =-0.901E-05 0.129E-04-0.559E-21
CGA:   5    -0.202701702736E+04   -0.83632E-04   -0.83722E-04  1304   0.708E-04 0.391E-05
 gam= 0.229 trial= 0.588  step= 0.660 mean= 0.588
 gam= 0.461 g(H,U,f)=  0.301E-04 0.259E-05 0.150E-21 ort(H,U,f) =-0.815E-05 0.538E-05 0.541E-22
CGA:   6    -0.202701705093E+04   -0.23571E-04   -0.23671E-04  1304   0.327E-04-0.278E-05
 gam= 0.461 trial= 0.592  step= 0.496 mean= 0.592
 gam= 0.369 g(H,U,f)=  0.109E-04 0.110E-05 0.591E-23 ort(H,U,f) =-0.770E-06 0.291E-05-0.339E-22
CGA:   7    -0.202701705862E+04   -0.76870E-05   -0.77886E-05  1304   0.120E-04 0.214E-05
 gam= 0.369 trial= 0.587  step= 0.692 mean= 0.587
 gam= 0.349 g(H,U,f)=  0.405E-05 0.156E-06 0.294E-23 ort(H,U,f) =-0.158E-05 0.545E-06 0.476E-23
CGA:   8    -0.202701706301E+04   -0.43866E-05   -0.44412E-05  1304   0.420E-05-0.104E-05
 gam= 0.349 trial= 0.592  step= 0.624 mean= 0.592
 gam= 0.209 g(H,U,f)=  0.862E-06 0.162E-07 0.128E-24 ort(H,U,f) = 0.164E-06 0.276E-07-0.963E-24
CGA:   9    -0.202701706421E+04   -0.12012E-05   -0.11983E-05  1304   0.878E-06 0.192E-06
 gam= 0.209 trial= 0.594  step= 0.813 mean= 0.594
 gam= 0.538 g(H,U,f)=  0.453E-06 0.189E-07 0.122E-23 ort(H,U,f) =-0.241E-06-0.167E-07 0.227E-24
CGA:  10    -0.202701706455E+04   -0.34524E-06   -0.37339E-06  1304   0.472E-06-0.257E-06
 gam= 0.538 trial= 0.605  step= 0.390 mean= 0.605
 gam= 0.367 g(H,U,f)=  0.168E-06 0.559E-08 0.403E-25 ort(H,U,f) = 0.852E-07-0.100E-08 0.245E-24
CGA:  11    -0.202701706461E+04   -0.56039E-07   -0.65083E-07  1304   0.173E-06 0.842E-07
 gam= 0.367 trial= 0.594  step= 0.468 mean= 0.594
 final diagonalization
  73 F= -.20484670E+04 E0= -.20484670E+04  d E =-.464257E-03
 trial-energy change:   -0.000464  1 .order   -0.000457   -0.000674   -0.000240
 step:   0.5769(harm=  0.6041)  dis= 0.00104  next Energy= -2048.467056 (dE=-0.523E-03)
 bond charge predicted
       N       E                     dE             d eps       ncg     rms          ort
 gam= 0.000 g(H,U,f)=  0.691E-02 0.578E-03 0.470E-21 ort(H,U,f) = 0.000E+00 0.000E+00 0.000E+00
SDA:   1    -0.202701482422E+04    0.22403E-02    0.00000E+00  1304   0.749E-02 0.000E+00
 gam= 0.000 trial= 0.588  step= 0.592 mean= 0.588
 gam= 0.284 g(H,U,f)=  0.198E-02 0.152E-03 0.182E-19 ort(H,U,f) = 0.155E-03-0.163E-03-0.359E-20
CGA:   2    -0.202701704252E+04   -0.22183E-02   -0.22183E-02  1304   0.213E-02-0.819E-05
 gam= 0.284 trial= 0.588  step= 0.567 mean= 0.588
 gam= 0.164 g(H,U,f)=  0.336E-03 0.127E-04 0.248E-19 ort(H,U,f) =-0.157E-05 0.888E-05-0.229E-19
CGA:   3    -0.202701764593E+04   -0.60341E-03   -0.60348E-03  1304   0.349E-03 0.731E-05
 gam= 0.164 trial= 0.587  step= 0.481 mean= 0.587
 gam= 0.209 g(H,U,f)=  0.672E-04 0.589E-05 0.231E-20 ort(H,U,f) =-0.648E-05 0.305E-05-0.518E-20
CGA:   4    -0.202701773045E+04   -0.84524E-04   -0.84344E-04  1304   0.731E-04-0.343E-05
 gam= 0.209 trial= 0.582  step= 0.533 mean= 0.582
 gam= 0.221 g(H,U,f)=  0.144E-04 0.179E-05 0.602E-22 ort(H,U,f) =-0.109E-05 0.303E-05-0.218E-21
CGA:   5    -0.202701774971E+04   -0.19256E-04   -0.19304E-04  1304   0.162E-04 0.194E-05
 gam= 0.221 trial= 0.579  step= 0.691 mean= 0.579
 gam= 0.525 g(H,U,f)=  0.791E-05 0.595E-06 0.875E-22 ort(H,U,f) =-0.261E-05 0.119E-05 0.145E-22
CGA:   6    -0.202701775538E+04   -0.56663E-05   -0.57457E-05  1304   0.851E-05-0.142E-05
 gam= 0.525 trial= 0.585  step= 0.443 mean= 0.585
 gam= 0.322 g(H,U,f)=  0.250E-05 0.242E-06 0.206E-24 ort(H,U,f) = 0.271E-06 0.720E-06-0.447E-23
CGA:   7    -0.202701775702E+04   -0.16481E-05   -0.17186E-05  1304   0.274E-05 0.991E-06
 gam= 0.322 trial= 0.578  step= 0.691 mean= 0.578
 gam= 0.386 g(H,U,f)=  0.101E-05 0.447E-07 0.678E-25 ort(H,U,f) =-0.354E-06 0.148E-06-0.725E-24
CGA:   8    -0.202701775807E+04   -0.10453E-05   -0.10572E-05  1304   0.106E-05-0.206E-06
 gam= 0.386 trial= 0.583  step= 0.890 mean= 0.583
 gam= 0.838 g(H,U,f)=  0.861E-06 0.261E-07 0.249E-24 ort(H,U,f) =-0.422E-06-0.395E-07 0.418E-24
CGA:   9    -0.202701775843E+04   -0.36487E-06   -0.43568E-06  1304   0.887E-06-0.462E-06
 gam= 0.838 trial= 0.599  step= 0.201 mean= 0.599
 gam= 0.457 g(H,U,f)=  0.390E-06 0.152E-07 0.290E-24 ort(H,U,f) = 0.181E-06-0.242E-07 0.647E-24
CGA:  10    -0.202701775845E+04   -0.19078E-07   -0.50222E-07  1304   0.405E-06 0.157E-06
 gam= 0.457 trial= 0.579  step= 0.177 mean= 0.579
 final diagonalization
  74 F= -.20484671E+04 E0= -.20484671E+04  d E =-.532330E-03
 curvature:  -1.12 expect dE=-0.150E-02 dE for cont linesearch -0.141E-05
 trial: gam= 0.82148 g(F)=  0.133E-02 g(S)=  0.105E-04 ort = 0.906E-04 (trialstep = 0.427E+00)
 search vector abs. value=  0.591E-02
 bond charge predicted
       N       E                     dE             d eps       ncg     rms          ort
 gam= 0.000 g(H,U,f)=  0.329E-01 0.275E-02 0.239E-19 ort(H,U,f) = 0.000E+00 0.000E+00 0.000E+00
SDA:   1    -0.202700486999E+04    0.12888E-01    0.00000E+00  1304   0.357E-01 0.000E+00
 gam= 0.000 trial= 0.559  step= 0.593 mean= 0.559
 gam= 0.285 g(H,U,f)=  0.942E-02 0.737E-03 0.126E-18 ort(H,U,f) = 0.800E-03-0.806E-03-0.521E-19
CGA:   2    -0.202701544641E+04   -0.10576E-01   -0.10577E-01  1304   0.102E-01-0.635E-05
 gam= 0.285 trial= 0.560  step= 0.564 mean= 0.560
 gam= 0.164 g(H,U,f)=  0.160E-02 0.619E-04 0.229E-18 ort(H,U,f) =-0.394E-04 0.434E-04-0.221E-18
CGA:   3    -0.202701831116E+04   -0.28647E-02   -0.28647E-02  1304   0.166E-02 0.396E-05
 gam= 0.164 trial= 0.561  step= 0.480 mean= 0.561
 gam= 0.200 g(H,U,f)=  0.303E-03 0.296E-04 0.118E-19 ort(H,U,f) =-0.167E-04 0.146E-04-0.258E-19
CGA:   4    -0.202701870989E+04   -0.39873E-03   -0.39865E-03  1304   0.333E-03-0.207E-05
 gam= 0.200 trial= 0.557  step= 0.572 mean= 0.557
 gam= 0.217 g(H,U,f)=  0.642E-04 0.802E-05 0.747E-21 ort(H,U,f) =-0.131E-04 0.135E-04-0.203E-20
CGA:   5    -0.202701880499E+04   -0.95102E-04   -0.95099E-04  1304   0.722E-04 0.383E-06
 gam= 0.217 trial= 0.557  step= 0.705 mean= 0.557
 gam= 0.340 g(H,U,f)=  0.218E-04 0.275E-05 0.304E-23 ort(H,U,f) =-0.476E-05 0.578E-05 0.189E-22
CGA:   6    -0.202701883056E+04   -0.25570E-04   -0.25495E-04  1304   0.246E-04 0.102E-05
 gam= 0.340 trial= 0.565  step= 0.768 mean= 0.565
 gam= 0.517 g(H,U,f)=  0.120E-04 0.698E-06 0.465E-22 ort(H,U,f) =-0.342E-05 0.188E-05-0.367E-22
CGA:   7    -0.202701883997E+04   -0.94121E-05   -0.95680E-05  1304   0.127E-04-0.153E-05
 gam= 0.517 trial= 0.575  step= 0.454 mean= 0.575
 gam= 0.289 g(H,U,f)=  0.357E-05 0.101E-06 0.128E-23 ort(H,U,f) = 0.799E-06 0.554E-06-0.460E-23
CGA:   8    -0.202701884260E+04   -0.26220E-05   -0.27039E-05  1304   0.367E-05 0.135E-05
 gam= 0.289 trial= 0.569  step= 0.656 mean= 0.569
 gam= 0.335 g(H,U,f)=  0.120E-05 0.251E-07 0.367E-24 ort(H,U,f) =-0.456E-06 0.972E-08-0.298E-25
CGA:   9    -0.202701884391E+04   -0.13123E-05   -0.13319E-05  1304   0.123E-05-0.446E-06
 gam= 0.335 trial= 0.573  step= 0.610 mean= 0.573
 gam= 0.264 g(H,U,f)=  0.312E-06 0.122E-07 0.440E-24 ort(H,U,f) = 0.253E-07-0.181E-07-0.388E-24
CGA:  10    -0.202701884424E+04   -0.32939E-06   -0.32927E-06  1304   0.325E-06 0.722E-08
 gam= 0.264 trial= 0.575  step= 0.476 mean= 0.575
 gam= 0.307 g(H,U,f)=  0.947E-07 0.493E-08 0.347E-27 ort(H,U,f) = 0.743E-07-0.692E-09-0.943E-26
CGA:  11    -0.202701884431E+04   -0.73960E-07   -0.77681E-07  1304   0.996E-07 0.736E-07
 gam= 0.307 trial= 0.570  step= 1.943 mean= 0.570
 gam= 0.000 g(H,U,f)=  0.667E-06 0.220E-07 0.326E-25 ort(H,U,f) =-0.233E-06-0.460E-08 0.262E-25
CGA:  12    -0.202701884427E+04    0.44762E-07   -0.11866E-06  1304   0.689E-06-0.238E-06
 gam= 0.000 trial= 0.639  step= 0.310 mean= 0.639
 gam= 0.165 g(H,U,f)=  0.112E-06 0.130E-08 0.634E-27 ort(H,U,f) = 0.188E-06 0.219E-08-0.453E-26
CGA:  13    -0.202701884434E+04   -0.75590E-07   -0.10688E-06  1304   0.113E-06 0.190E-06
 gam= 0.165 trial= 0.622  step= 0.541 mean= 0.622
 final diagonalization
  75 F= -.20484675E+04 E0= -.20484675E+04  d E =-.423482E-03
 trial-energy change:   -0.000423  1 .order   -0.000421   -0.000602   -0.000241
 step:   0.6953(harm=  0.7114)  dis= 0.00116  next Energy= -2048.467565 (dE=-0.500E-03)
 bond charge predicted
       N       E                     dE             d eps       ncg     rms          ort
 gam= 0.000 g(H,U,f)=  0.131E-01 0.109E-02 0.113E-19 ort(H,U,f) = 0.000E+00 0.000E+00 0.000E+00
SDA:   1    -0.202701379558E+04    0.50487E-02    0.00000E+00  1304   0.142E-01 0.000E+00
 gam= 0.000 trial= 0.618  step= 0.593 mean= 0.618
 gam= 0.284 g(H,U,f)=  0.374E-02 0.293E-03 0.594E-19 ort(H,U,f) = 0.316E-03-0.320E-03-0.251E-19
CGA:   2    -0.202701799810E+04   -0.42025E-02   -0.42025E-02  1304   0.403E-02-0.363E-05
 gam= 0.284 trial= 0.617  step= 0.564 mean= 0.617
 gam= 0.164 g(H,U,f)=  0.635E-03 0.246E-04 0.810E-19 ort(H,U,f) =-0.154E-04 0.176E-04-0.779E-19
CGA:   3    -0.202701913526E+04   -0.11372E-02   -0.11372E-02  1304   0.660E-03 0.222E-05
 gam= 0.164 trial= 0.614  step= 0.480 mean= 0.614
 gam= 0.202 g(H,U,f)=  0.121E-03 0.118E-04 0.623E-20 ort(H,U,f) =-0.708E-05 0.590E-05-0.136E-19
CGA:   4    -0.202701929373E+04   -0.15847E-03   -0.15839E-03  1304   0.133E-03-0.119E-05
 gam= 0.202 trial= 0.608  step= 0.571 mean= 0.608
 gam= 0.217 g(H,U,f)=  0.257E-04 0.321E-05 0.309E-21 ort(H,U,f) =-0.526E-05 0.544E-05-0.881E-21
CGA:   5    -0.202701933169E+04   -0.37954E-04   -0.37957E-04  1304   0.289E-04 0.182E-06
 gam= 0.217 trial= 0.606  step= 0.697 mean= 0.606
 gam= 0.338 g(H,U,f)=  0.869E-05 0.110E-05 0.449E-23 ort(H,U,f) =-0.172E-05 0.233E-05 0.140E-22
CGA:   6    -0.202701934180E+04   -0.10117E-04   -0.10089E-04  1304   0.979E-05 0.617E-06
 gam= 0.338 trial= 0.610  step= 0.788 mean= 0.610
 gam= 0.564 g(H,U,f)=  0.523E-05 0.289E-06 0.370E-22 ort(H,U,f) =-0.170E-05 0.742E-06-0.262E-22
CGA:   7    -0.202701934566E+04   -0.38541E-05   -0.39390E-05  1304   0.552E-05-0.957E-06
 gam= 0.564 trial= 0.619  step= 0.418 mean= 0.619
 gam= 0.273 g(H,U,f)=  0.147E-05 0.387E-07 0.110E-25 ort(H,U,f) = 0.530E-06 0.241E-06-0.332E-24
CGA:   8    -0.202701934662E+04   -0.96532E-06   -0.10428E-05  1304   0.151E-05 0.770E-06
 gam= 0.273 trial= 0.609  step= 0.603 mean= 0.609
 gam= 0.344 g(H,U,f)=  0.506E-06 0.125E-07 0.241E-23 ort(H,U,f) =-0.846E-07 0.661E-08-0.143E-23
CGA:   9    -0.202701934714E+04   -0.51843E-06   -0.51834E-06  1304   0.519E-06-0.780E-07
 gam= 0.344 trial= 0.609  step= 0.926 mean= 0.609
 gam= 0.000 g(H,U,f)=  0.671E-06 0.281E-07 0.667E-23 ort(H,U,f) =-0.341E-06-0.192E-07-0.319E-23
CGA:  10    -0.202701934731E+04   -0.17056E-06   -0.22771E-06  1304   0.699E-06-0.360E-06
 gam= 0.000 trial= 0.625  step= 0.217 mean= 0.625
 gam= 0.161 g(H,U,f)=  0.108E-06 0.464E-08 0.494E-24 ort(H,U,f) = 0.216E-06 0.942E-08 0.182E-23
CGA:  11    -0.202701934734E+04   -0.29977E-07   -0.75884E-07  1304   0.112E-06 0.226E-06
 gam= 0.161 trial= 0.604  step= 0.218 mean= 0.604
 final diagonalization
  76 F= -.20484676E+04 E0= -.20484676E+04  d E =-.508835E-03
 curvature:  -1.48 expect dE=-0.218E-02 dE for cont linesearch -0.544E-06
 trial: gam= 1.12502 g(F)=  0.143E-02 g(S)=  0.418E-04 ort = 0.465E-04 (trialstep = 0.313E+00)
 search vector abs. value=  0.905E-02
 bond charge predicted
       N       E                     dE             d eps       ncg     rms          ort
 gam= 0.000 g(H,U,f)=  0.279E-01 0.240E-02 0.253E-19 ort(H,U,f) = 0.000E+00 0.000E+00 0.000E+00
SDA:   1    -0.202700831267E+04    0.11035E-01    0.00000E+00  1304   0.303E-01 0.000E+00
 gam= 0.000 trial= 0.585  step= 0.589 mean= 0.585
 gam= 0.285 g(H,U,f)=  0.802E-02 0.622E-03 0.124E-20 ort(H,U,f) = 0.677E-03-0.673E-03 0.100E-19
CGA:   2    -0.202701724538E+04   -0.89327E-02   -0.89327E-02  1304   0.864E-02 0.349E-05
 gam= 0.285 trial= 0.585  step= 0.562 mean= 0.585
 gam= 0.167 g(H,U,f)=  0.139E-02 0.520E-04 0.801E-19 ort(H,U,f) =-0.408E-04 0.380E-04-0.326E-19
CGA:   3    -0.202701967146E+04   -0.24261E-02   -0.24260E-02  1304   0.144E-02-0.279E-05
 gam= 0.167 trial= 0.584  step= 0.471 mean= 0.584
 gam= 0.209 g(H,U,f)=  0.276E-03 0.249E-04 0.383E-20 ort(H,U,f) =-0.108E-04 0.135E-04-0.123E-19
CGA:   4    -0.202702001012E+04   -0.33867E-03   -0.33882E-03  1304   0.301E-03 0.278E-05
 gam= 0.209 trial= 0.578  step= 0.551 mean= 0.578
 gam= 0.253 g(H,U,f)=  0.685E-04 0.761E-05 0.124E-20 ort(H,U,f) =-0.162E-04 0.128E-04-0.761E-21
CGA:   5    -0.202702009327E+04   -0.83151E-04   -0.83105E-04  1304   0.761E-04-0.338E-05
 gam= 0.253 trial= 0.577  step= 0.548 mean= 0.577
 gam= 0.399 g(H,U,f)=  0.273E-04 0.308E-05 0.181E-21 ort(H,U,f) =-0.260E-05 0.620E-05 0.383E-21
CGA:   6    -0.202702011382E+04   -0.20552E-04   -0.20604E-04  1304   0.304E-04 0.360E-05
 gam= 0.399 trial= 0.576  step= 0.605 mean= 0.576
 gam= 0.482 g(H,U,f)=  0.134E-04 0.126E-05 0.837E-22 ort(H,U,f) =-0.490E-05 0.272E-05-0.217E-21
CGA:   7    -0.202702012341E+04   -0.95806E-05   -0.96124E-05  1304   0.146E-04-0.218E-05
 gam= 0.482 trial= 0.577  step= 0.549 mean= 0.577
 gam= 0.235 g(H,U,f)=  0.329E-05 0.142E-06 0.758E-22 ort(H,U,f) = 0.507E-06 0.847E-06 0.200E-22
CGA:   8    -0.202702012711E+04   -0.37083E-05   -0.37273E-05  1304   0.343E-05 0.135E-05
 gam= 0.235 trial= 0.576  step= 0.721 mean= 0.576
 gam= 0.334 g(H,U,f)=  0.111E-05 0.355E-07 0.886E-23 ort(H,U,f) =-0.303E-06 0.334E-07-0.271E-22
CGA:   9    -0.202702012845E+04   -0.13323E-05   -0.13521E-05  1304   0.115E-05-0.269E-06
 gam= 0.334 trial= 0.583  step= 0.496 mean= 0.583
 gam= 0.248 g(H,U,f)=  0.278E-06 0.653E-08 0.383E-24 ort(H,U,f) = 0.171E-06-0.309E-09-0.400E-25
CGA:  10    -0.202702012870E+04   -0.25490E-06   -0.26229E-06  1304   0.284E-06 0.171E-06
 gam= 0.248 trial= 0.578  step= 0.640 mean= 0.578
 gam= 0.364 g(H,U,f)=  0.984E-07 0.504E-08 0.408E-23 ort(H,U,f) =-0.388E-08-0.293E-09-0.123E-23
CGA:  11    -0.202702012881E+04   -0.10466E-06   -0.10456E-06  1304   0.103E-06-0.418E-08
 gam= 0.364 trial= 0.582  step= 0.652 mean= 0.582
 gam= 0.407 g(H,U,f)=  0.403E-07 0.184E-08 0.120E-23 ort(H,U,f) = 0.847E-08-0.103E-08-0.198E-23
CGA:  12    -0.202702012884E+04   -0.33477E-07   -0.33251E-07  1304   0.421E-07 0.744E-08
 gam= 0.407 trial= 0.585  step= 0.779 mean= 0.585
 final diagonalization
  77 F= -.20484679E+04 E0= -.20484679E+04  d E =-.363824E-03
 trial-energy change:   -0.000364  1 .order   -0.000366   -0.000477   -0.000255
 step:   0.7294(harm=  0.6719)  dis= 0.00179  next Energy= -2048.468102 (dE=-0.528E-03)
 bond charge predicted
       N       E                     dE             d eps       ncg     rms          ort
 gam= 0.000 g(H,U,f)=  0.492E-01 0.423E-02 0.571E-19 ort(H,U,f) = 0.000E+00 0.000E+00 0.000E+00
SDA:   1    -0.202700000814E+04    0.20121E-01    0.00000E+00  1304   0.534E-01 0.000E+00
 gam= 0.000 trial= 0.595  step= 0.589 mean= 0.595
 gam= 0.285 g(H,U,f)=  0.141E-01 0.110E-02 0.310E-20 ort(H,U,f) = 0.119E-02-0.119E-02 0.285E-19
CGA:   2    -0.202701574472E+04   -0.15737E-01   -0.15737E-01  1304   0.152E-01 0.469E-05
 gam= 0.285 trial= 0.595  step= 0.561 mean= 0.595
 gam= 0.167 g(H,U,f)=  0.244E-02 0.918E-04 0.238E-18 ort(H,U,f) =-0.716E-04 0.679E-04-0.974E-19
CGA:   3    -0.202702001713E+04   -0.42724E-02   -0.42723E-02  1304   0.254E-02-0.371E-05
 gam= 0.167 trial= 0.593  step= 0.471 mean= 0.593
 gam= 0.210 g(H,U,f)=  0.488E-03 0.439E-04 0.934E-20 ort(H,U,f) =-0.203E-04 0.241E-04-0.301E-19
CGA:   4    -0.202702061395E+04   -0.59682E-03   -0.59705E-03  1304   0.532E-03 0.379E-05
 gam= 0.210 trial= 0.587  step= 0.549 mean= 0.587
 gam= 0.252 g(H,U,f)=  0.121E-03 0.135E-04 0.308E-20 ort(H,U,f) =-0.273E-04 0.228E-04-0.187E-20
CGA:   5    -0.202702076034E+04   -0.14639E-03   -0.14631E-03  1304   0.134E-03-0.449E-05
 gam= 0.252 trial= 0.585  step= 0.553 mean= 0.585
 gam= 0.409 g(H,U,f)=  0.494E-04 0.545E-05 0.475E-21 ort(H,U,f) =-0.610E-05 0.109E-04 0.966E-21
CGA:   6    -0.202702079707E+04   -0.36732E-04   -0.36807E-04  1304   0.549E-04 0.481E-05
 gam= 0.409 trial= 0.583  step= 0.588 mean= 0.583
 gam= 0.451 g(H,U,f)=  0.226E-04 0.220E-05 0.175E-21 ort(H,U,f) =-0.778E-05 0.493E-05-0.497E-21
CGA:   7    -0.202702081377E+04   -0.16694E-04   -0.16700E-04  1304   0.248E-04-0.285E-05
 gam= 0.451 trial= 0.584  step= 0.578 mean= 0.584
 gam= 0.241 g(H,U,f)=  0.572E-05 0.249E-06 0.221E-21 ort(H,U,f) = 0.353E-06 0.142E-05 0.562E-22
CGA:   8    -0.202702082055E+04   -0.67774E-05   -0.67827E-05  1304   0.597E-05 0.177E-05
 gam= 0.241 trial= 0.583  step= 0.729 mean= 0.583
 gam= 0.346 g(H,U,f)=  0.201E-05 0.550E-07 0.517E-22 ort(H,U,f) =-0.586E-06 0.642E-07-0.111E-21
CGA:   9    -0.202702082284E+04   -0.22951E-05   -0.23332E-05  1304   0.207E-05-0.522E-06
 gam= 0.346 trial= 0.591  step= 0.431 mean= 0.591
 gam= 0.264 g(H,U,f)=  0.538E-06 0.753E-08 0.707E-24 ort(H,U,f) = 0.383E-06 0.663E-08 0.158E-23
CGA:  10    -0.202702082322E+04   -0.37540E-06   -0.40638E-06  1304   0.545E-06 0.389E-06
 gam= 0.264 trial= 0.583  step= 0.633 mean= 0.583
 gam= 0.402 g(H,U,f)=  0.209E-06 0.108E-07 0.185E-22 ort(H,U,f) =-0.463E-07-0.110E-08-0.579E-23
CGA:  11    -0.202702082342E+04   -0.20435E-06   -0.20523E-06  1304   0.219E-06-0.475E-07
 gam= 0.402 trial= 0.585  step= 0.705 mean= 0.585
 gam= 0.462 g(H,U,f)=  0.966E-07 0.480E-08 0.758E-23 ort(H,U,f) =-0.915E-08-0.371E-08-0.103E-22
CGA:  12    -0.202702082349E+04   -0.69769E-07   -0.70598E-07  1304   0.101E-06-0.129E-07
 gam= 0.462 trial= 0.591  step= 0.444 mean= 0.591
 final diagonalization
  78 F= -.20484681E+04 E0= -.20484681E+04  d E =-.503523E-03
 curvature:  -1.94 expect dE=-0.395E-02 dE for cont linesearch -0.354E-05
 trial: gam= 1.48806 g(F)=  0.203E-02 g(S)=  0.227E-05 ort =-0.128E-03 (trialstep = 0.166E+00)
 search vector abs. value=  0.217E-01
 bond charge predicted
       N       E                     dE             d eps       ncg     rms          ort
 gam= 0.000 g(H,U,f)=  0.188E-01 0.165E-02 0.260E-19 ort(H,U,f) = 0.000E+00 0.000E+00 0.000E+00
SDA:   1    -0.202701324477E+04    0.75787E-02    0.00000E+00  1304   0.205E-01 0.000E+00
 gam= 0.000 trial= 0.584  step= 0.580 mean= 0.584
 gam= 0.282 g(H,U,f)=  0.535E-02 0.411E-03 0.531E-21 ort(H,U,f) = 0.456E-03-0.453E-03 0.608E-20
CGA:   2    -0.202701917976E+04   -0.59350E-02   -0.59350E-02  1304   0.576E-02 0.316E-05
 gam= 0.282 trial= 0.584  step= 0.565 mean= 0.584
 gam= 0.165 g(H,U,f)=  0.916E-03 0.338E-04 0.123E-18 ort(H,U,f) =-0.277E-04 0.275E-04-0.313E-19
CGA:   3    -0.202702080671E+04   -0.16270E-02   -0.16270E-02  1304   0.950E-03-0.235E-06
 gam= 0.165 trial= 0.583  step= 0.475 mean= 0.583
 gam= 0.205 g(H,U,f)=  0.177E-03 0.173E-04 0.325E-20 ort(H,U,f) =-0.647E-05 0.856E-05-0.136E-19
CGA:   4    -0.202702103237E+04   -0.22566E-03   -0.22577E-03  1304   0.194E-03 0.208E-05
 gam= 0.205 trial= 0.577  step= 0.568 mean= 0.577
 gam= 0.230 g(H,U,f)=  0.400E-04 0.475E-05 0.219E-20 ort(H,U,f) =-0.931E-05 0.808E-05-0.399E-21
CGA:   5    -0.202702108773E+04   -0.55360E-04   -0.55355E-04  1304   0.447E-04-0.122E-05
 gam= 0.230 trial= 0.577  step= 0.626 mean= 0.577
 gam= 0.383 g(H,U,f)=  0.154E-04 0.175E-05 0.748E-22 ort(H,U,f) =-0.184E-05 0.368E-05 0.355E-21
CGA:   6    -0.202702110169E+04   -0.13963E-04   -0.13918E-04  1304   0.171E-04 0.184E-05
 gam= 0.383 trial= 0.579  step= 0.642 mean= 0.579
 gam= 0.610 g(H,U,f)=  0.974E-05 0.696E-06 0.133E-25 ort(H,U,f) =-0.330E-05 0.151E-05-0.182E-23
CGA:   7    -0.202702110735E+04   -0.56614E-05   -0.57174E-05  1304   0.104E-04-0.179E-05
 gam= 0.610 trial= 0.582  step= 0.446 mean= 0.582
 gam= 0.225 g(H,U,f)=  0.226E-05 0.869E-07 0.419E-22 ort(H,U,f) = 0.634E-06 0.566E-06 0.883E-22
CGA:   8    -0.202702110936E+04   -0.20029E-05   -0.20846E-05  1304   0.235E-05 0.120E-05
 gam= 0.225 trial= 0.576  step= 0.575 mean= 0.576
 gam= 0.369 g(H,U,f)=  0.840E-06 0.256E-07 0.725E-24 ort(H,U,f) = 0.135E-06 0.376E-07 0.796E-23
CGA:   9    -0.202702111011E+04   -0.75227E-06   -0.75223E-06  1304   0.866E-06 0.173E-06
 gam= 0.369 trial= 0.576  step= 0.776 mean= 0.576
 gam= 0.000 g(H,U,f)=  0.127E-05 0.300E-07 0.307E-23 ort(H,U,f) =-0.642E-06-0.161E-07-0.743E-23
CGA:  10    -0.202702111040E+04   -0.29458E-06   -0.36058E-06  1304   0.130E-05-0.658E-06
 gam= 0.000 trial= 0.586  step= 0.202 mean= 0.586
 gam= 0.131 g(H,U,f)=  0.168E-06 0.352E-08 0.109E-25 ort(H,U,f) = 0.364E-06 0.822E-08 0.182E-24
CGA:  11    -0.202702111046E+04   -0.60354E-07   -0.13162E-06  1304   0.171E-06 0.372E-06
 gam= 0.131 trial= 0.566  step= 0.192 mean= 0.566
 final diagonalization
  79 F= -.20484683E+04 E0= -.20484683E+04  d E =-.265723E-03
 ZBRENT: can't locate minimum, use default step
 trial-energy change:   -0.000266  1 .order   -0.000268   -0.000304   -0.000232
 step:   0.6621(harm=  0.6984)  dis= 0.00274  next Energy= -2048.468719 (dE=-0.642E-03)
 bond charge predicted
       N       E                     dE             d eps       ncg     rms          ort
 gam= 0.000 g(H,U,f)=  0.169E+00 0.149E-01 0.149E-18 ort(H,U,f) = 0.000E+00 0.000E+00 0.000E+00
SDA:   1    -0.202695072972E+04    0.70381E-01    0.00000E+00  1304   0.184E+00 0.000E+00
 gam= 0.000 trial= 0.548  step= 0.580 mean= 0.548
 gam= 0.281 g(H,U,f)=  0.481E-01 0.370E-02 0.263E-20 ort(H,U,f) = 0.408E-02-0.407E-02 0.830E-19
CGA:   2    -0.202700416837E+04   -0.53439E-01   -0.53439E-01  1304   0.518E-01 0.693E-05
 gam= 0.281 trial= 0.549  step= 0.565 mean= 0.549
 gam= 0.165 g(H,U,f)=  0.824E-02 0.305E-03 0.244E-17 ort(H,U,f) =-0.248E-03 0.250E-03-0.627E-18
CGA:   3    -0.202701881431E+04   -0.14646E-01   -0.14646E-01  1304   0.855E-02 0.119E-05
 gam= 0.165 trial= 0.550  step= 0.476 mean= 0.550
 gam= 0.205 g(H,U,f)=  0.160E-02 0.157E-03 0.153E-19 ort(H,U,f) =-0.706E-04 0.775E-04-0.647E-19
CGA:   4    -0.202702084995E+04   -0.20356E-02   -0.20359E-02  1304   0.175E-02 0.685E-05
 gam= 0.205 trial= 0.546  step= 0.565 mean= 0.546
 gam= 0.228 g(H,U,f)=  0.356E-03 0.429E-04 0.113E-19 ort(H,U,f) =-0.768E-04 0.733E-04-0.187E-20
CGA:   5    -0.202702134546E+04   -0.49551E-03   -0.49555E-03  1304   0.399E-03-0.357E-05
 gam= 0.228 trial= 0.547  step= 0.650 mean= 0.547
 gam= 0.402 g(H,U,f)=  0.145E-03 0.154E-04 0.218E-21 ort(H,U,f) =-0.266E-04 0.325E-04 0.113E-20
CGA:   6    -0.202702147495E+04   -0.12949E-03   -0.12919E-03  1304   0.160E-03 0.586E-05
 gam= 0.402 trial= 0.552  step= 0.591 mean= 0.552
 gam= 0.507 g(H,U,f)=  0.753E-04 0.600E-05 0.391E-23 ort(H,U,f) =-0.196E-04 0.143E-04 0.757E-22
CGA:   7    -0.202702152289E+04   -0.47934E-04   -0.48036E-04  1304   0.813E-04-0.529E-05
 gam= 0.507 trial= 0.554  step= 0.519 mean= 0.554
 gam= 0.248 g(H,U,f)=  0.194E-04 0.766E-06 0.158E-21 ort(H,U,f) =-0.339E-06 0.430E-05 0.248E-21
CGA:   8    -0.202702154321E+04   -0.20327E-04   -0.20397E-04  1304   0.201E-04 0.396E-05
 gam= 0.248 trial= 0.553  step= 0.697 mean= 0.553
 gam= 0.272 g(H,U,f)=  0.535E-05 0.125E-06 0.182E-22 ort(H,U,f) =-0.109E-05 0.212E-06-0.679E-22
CGA:   9    -0.202702155051E+04   -0.72987E-05   -0.73619E-05  1304   0.548E-05-0.873E-06
 gam= 0.272 trial= 0.560  step= 0.602 mean= 0.560
 gam= 0.246 g(H,U,f)=  0.128E-05 0.626E-07 0.932E-23 ort(H,U,f) = 0.316E-06-0.275E-07 0.118E-24
CGA:  10    -0.202702155210E+04   -0.15825E-05   -0.15765E-05  1304   0.135E-05 0.289E-06
 gam= 0.246 trial= 0.562  step= 0.727 mean= 0.562
 gam= 0.377 g(H,U,f)=  0.476E-06 0.323E-07 0.711E-25 ort(H,U,f) =-0.438E-07-0.233E-07 0.792E-24
CGA:  11    -0.202702155260E+04   -0.50979E-06   -0.51526E-06  1304   0.508E-06-0.671E-07
 gam= 0.377 trial= 0.570  step= 0.783 mean= 0.570
 gam= 0.387 g(H,U,f)=  0.186E-06 0.110E-07 0.122E-23 ort(H,U,f) =-0.122E-07-0.751E-08-0.151E-23
CGA:  12    -0.202702155279E+04   -0.18656E-06   -0.18882E-06  1304   0.197E-06-0.197E-07
 gam= 0.387 trial= 0.581  step= 0.648 mean= 0.581
 gam= 0.364 g(H,U,f)=  0.687E-07 0.302E-08 0.557E-24 ort(H,U,f) = 0.391E-08 0.239E-08-0.431E-24
CGA:  13    -0.202702155285E+04   -0.61511E-07   -0.61263E-07  1304   0.717E-07 0.631E-08
 gam= 0.364 trial= 0.584  step= 0.684 mean= 0.584
 final diagonalization
  80 F= -.20484687E+04 E0= -.20484687E+04  d E =-.645441E-03
 curvature:  -4.10 expect dE=-0.119E-01 dE for cont linesearch -0.404E-05
 trial: gam= 1.07135 g(F)=  0.289E-02 g(S)=  0.267E-04 ort = 0.146E-03 (trialstep = 0.204E+00)
 search vector abs. value=  0.281E-01
 bond charge predicted
       N       E                     dE             d eps       ncg     rms          ort
 gam= 0.000 g(H,U,f)=  0.376E-01 0.333E-02 0.446E-20 ort(H,U,f) = 0.000E+00 0.000E+00 0.000E+00
SDA:   1    -0.202700676925E+04    0.14784E-01    0.00000E+00  1304   0.409E-01 0.000E+00
 gam= 0.000 trial= 0.589  step= 0.575 mean= 0.589
 gam= 0.279 g(H,U,f)=  0.106E-01 0.786E-03 0.816E-20 ort(H,U,f) = 0.867E-03-0.872E-03 0.134E-19
CGA:   2    -0.202701853822E+04   -0.11769E-01   -0.11769E-01  1304   0.114E-01-0.503E-05
 gam= 0.279 trial= 0.588  step= 0.571 mean= 0.588
 gam= 0.166 g(H,U,f)=  0.183E-02 0.699E-04 0.597E-19 ort(H,U,f) =-0.373E-04 0.454E-04-0.295E-19
CGA:   3    -0.202702179390E+04   -0.32557E-02   -0.32557E-02  1304   0.190E-02 0.810E-05
 gam= 0.166 trial= 0.588  step= 0.476 mean= 0.588
 gam= 0.200 g(H,U,f)=  0.345E-03 0.343E-04 0.270E-20 ort(H,U,f) =-0.168E-04 0.157E-04-0.740E-20
CGA:   4    -0.202702224646E+04   -0.45256E-03   -0.45251E-03  1304   0.379E-03-0.103E-05
 gam= 0.200 trial= 0.582  step= 0.573 mean= 0.582
 gam= 0.214 g(H,U,f)=  0.720E-04 0.898E-05 0.511E-21 ort(H,U,f) =-0.138E-04 0.154E-04-0.593E-21
CGA:   5    -0.202702235492E+04   -0.10846E-03   -0.10847E-03  1304   0.810E-04 0.160E-05
 gam= 0.214 trial= 0.582  step= 0.726 mean= 0.582
 gam= 0.361 g(H,U,f)=  0.263E-04 0.293E-05 0.197E-22 ort(H,U,f) =-0.749E-05 0.637E-05-0.696E-22
CGA:   6    -0.202702238437E+04   -0.29451E-04   -0.29532E-04  1304   0.292E-04-0.113E-05
 gam= 0.361 trial= 0.589  step= 0.666 mean= 0.589
 gam= 0.394 g(H,U,f)=  0.106E-04 0.857E-06 0.123E-22 ort(H,U,f) =-0.107E-05 0.246E-05 0.425E-23
CGA:   7    -0.202702239402E+04   -0.96501E-05   -0.95963E-05  1304   0.115E-04 0.139E-05
 gam= 0.394 trial= 0.593  step= 0.617 mean= 0.593
 gam= 0.487 g(H,U,f)=  0.543E-05 0.166E-06 0.172E-23 ort(H,U,f) =-0.144E-05 0.425E-06 0.515E-23
CGA:   8    -0.202702239773E+04   -0.37039E-05   -0.37161E-05  1304   0.560E-05-0.102E-05
 gam= 0.487 trial= 0.594  step= 0.429 mean= 0.594
 gam= 0.209 g(H,U,f)=  0.115E-05 0.180E-07 0.284E-23 ort(H,U,f) = 0.441E-06 0.718E-07-0.538E-23
CGA:   9    -0.202702239878E+04   -0.10537E-05   -0.10959E-05  1304   0.117E-05 0.513E-06
 gam= 0.209 trial= 0.586  step= 0.610 mean= 0.586
 gam= 0.323 g(H,U,f)=  0.361E-06 0.164E-07 0.213E-24 ort(H,U,f) =-0.710E-08-0.737E-08-0.472E-24
CGA:  10    -0.202702239917E+04   -0.38873E-06   -0.38908E-06  1304   0.378E-06-0.145E-07
 gam= 0.323 trial= 0.587  step= 1.045 mean= 0.587
 gam= 0.000 g(H,U,f)=  0.801E-06 0.340E-07 0.307E-25 ort(H,U,f) =-0.308E-06-0.191E-07 0.225E-25
CGA:  11    -0.202702239929E+04   -0.11996E-06   -0.19487E-06  1304   0.835E-06-0.327E-06
 gam= 0.000 trial= 0.610  step= 0.218 mean= 0.610
 gam= 0.119 g(H,U,f)=  0.943E-07 0.493E-08 0.133E-25 ort(H,U,f) = 0.190E-06 0.106E-07-0.202E-25
CGA:  12    -0.202702239934E+04   -0.51870E-07   -0.91077E-07  1304   0.992E-07 0.201E-06
 gam= 0.119 trial= 0.590  step= 0.257 mean= 0.590
 final diagonalization
  81 F= -.20484693E+04 E0= -.20484693E+04  d E =-.531963E-03
 trial-energy change:   -0.000532  1 .order   -0.000530   -0.000627   -0.000433
 step:   0.5913(harm=  0.6606)  dis= 0.00265  next Energy= -2048.469679 (dE=-0.956E-03)
 bond charge predicted
       N       E                     dE             d eps       ncg     rms          ort
 gam= 0.000 g(H,U,f)=  0.135E+00 0.120E-01 0.224E-19 ort(H,U,f) = 0.000E+00 0.000E+00 0.000E+00
SDA:   1    -0.202696735345E+04    0.55046E-01    0.00000E+00  1304   0.147E+00 0.000E+00
 gam= 0.000 trial= 0.574  step= 0.576 mean= 0.574
 gam= 0.279 g(H,U,f)=  0.381E-01 0.282E-02 0.132E-18 ort(H,U,f) = 0.311E-02-0.312E-02 0.240E-18
CGA:   2    -0.202700960305E+04   -0.42250E-01   -0.42250E-01  1304   0.409E-01-0.100E-04
 gam= 0.279 trial= 0.574  step= 0.571 mean= 0.574
 gam= 0.166 g(H,U,f)=  0.656E-02 0.251E-03 0.911E-18 ort(H,U,f) =-0.146E-03 0.163E-03-0.452E-18
CGA:   3    -0.202702129123E+04   -0.11688E-01   -0.11688E-01  1304   0.681E-02 0.168E-04
 gam= 0.166 trial= 0.574  step= 0.476 mean= 0.574
 gam= 0.199 g(H,U,f)=  0.124E-02 0.123E-03 0.183E-19 ort(H,U,f) =-0.586E-04 0.566E-04-0.506E-19
CGA:   4    -0.202702291430E+04   -0.16231E-02   -0.16230E-02  1304   0.136E-02-0.198E-05
 gam= 0.199 trial= 0.569  step= 0.574 mean= 0.569
 gam= 0.215 g(H,U,f)=  0.259E-03 0.322E-04 0.432E-20 ort(H,U,f) =-0.517E-04 0.550E-04-0.488E-20
CGA:   5    -0.202702330420E+04   -0.38990E-03   -0.38989E-03  1304   0.292E-03 0.337E-05
 gam= 0.215 trial= 0.569  step= 0.721 mean= 0.569
 gam= 0.356 g(H,U,f)=  0.933E-04 0.106E-04 0.132E-21 ort(H,U,f) =-0.253E-04 0.230E-04-0.490E-21
CGA:   6    -0.202702340939E+04   -0.10519E-03   -0.10537E-03  1304   0.104E-03-0.236E-05
 gam= 0.356 trial= 0.577  step= 0.681 mean= 0.577
 gam= 0.413 g(H,U,f)=  0.399E-04 0.307E-05 0.976E-22 ort(H,U,f) =-0.567E-05 0.870E-05 0.360E-22
CGA:   7    -0.202702344467E+04   -0.35279E-04   -0.35120E-04  1304   0.429E-04 0.303E-05
 gam= 0.413 trial= 0.582  step= 0.583 mean= 0.582
 gam= 0.435 g(H,U,f)=  0.181E-04 0.563E-06 0.118E-22 ort(H,U,f) =-0.384E-05 0.167E-05 0.378E-22
CGA:   8    -0.202702345754E+04   -0.12878E-04   -0.12880E-04  1304   0.187E-04-0.217E-05
 gam= 0.435 trial= 0.582  step= 0.468 mean= 0.582
 gam= 0.216 g(H,U,f)=  0.396E-05 0.647E-07 0.228E-22 ort(H,U,f) = 0.842E-06 0.243E-06-0.386E-22
CGA:   9    -0.202702346163E+04   -0.40884E-05   -0.41504E-05  1304   0.403E-05 0.109E-05
 gam= 0.216 trial= 0.576  step= 0.661 mean= 0.576
 gam= 0.302 g(H,U,f)=  0.116E-05 0.571E-07 0.632E-23 ort(H,U,f) =-0.211E-06-0.279E-07-0.772E-23
CGA:  10    -0.202702346303E+04   -0.13990E-05   -0.14091E-05  1304   0.122E-05-0.239E-06
 gam= 0.302 trial= 0.580  step= 0.743 mean= 0.580
 gam= 0.371 g(H,U,f)=  0.416E-06 0.351E-07 0.105E-23 ort(H,U,f) =-0.642E-07-0.314E-07-0.161E-23
CGA:  11    -0.202702346345E+04   -0.41719E-06   -0.42486E-06  1304   0.451E-06-0.956E-07
 gam= 0.371 trial= 0.589  step= 0.537 mean= 0.589
 gam= 0.296 g(H,U,f)=  0.127E-06 0.673E-08 0.103E-23 ort(H,U,f) = 0.784E-07 0.221E-08 0.449E-24
CGA:  12    -0.202702346356E+04   -0.10958E-06   -0.11175E-06  1304   0.133E-06 0.807E-07
 gam= 0.296 trial= 0.586  step= 1.536 mean= 0.586
 gam= 0.000 g(H,U,f)=  0.433E-06 0.182E-07 0.586E-23 ort(H,U,f) =-0.181E-06-0.339E-08-0.281E-23
CGA:  13    -0.202702346359E+04   -0.32967E-07   -0.12076E-06  1304   0.451E-06-0.184E-06
 gam= 0.000 trial= 0.633  step= 0.285 mean= 0.633
 final diagonalization
  82 F= -.20484697E+04 E0= -.20484697E+04  d E =-.100131E-02
 curvature:  -2.96 expect dE=-0.459E-02 dE for cont linesearch -0.876E-05
 trial: gam= 0.61870 g(F)=  0.150E-02 g(S)=  0.497E-04 ort = 0.289E-03 (trialstep = 0.282E+00)
 search vector abs. value=  0.127E-01
 bond charge predicted
       N       E                     dE             d eps       ncg     rms          ort
 gam= 0.000 g(H,U,f)=  0.332E-01 0.285E-02 0.151E-21 ort(H,U,f) = 0.000E+00 0.000E+00 0.000E+00
SDA:   1    -0.202701073177E+04    0.12732E-01    0.00000E+00  1304   0.361E-01 0.000E+00
 gam= 0.000 trial= 0.616  step= 0.579 mean= 0.616
 gam= 0.280 g(H,U,f)=  0.943E-02 0.671E-03 0.610E-19 ort(H,U,f) = 0.717E-03-0.732E-03 0.745E-20
CGA:   2    -0.202702118175E+04   -0.10450E-01   -0.10450E-01  1304   0.101E-01-0.145E-04
 gam= 0.280 trial= 0.614  step= 0.567 mean= 0.614
 gam= 0.167 g(H,U,f)=  0.163E-02 0.608E-04 0.164E-18 ort(H,U,f) =-0.327E-04 0.448E-04-0.115E-18
CGA:   3    -0.202702404386E+04   -0.28621E-02   -0.28624E-02  1304   0.169E-02 0.120E-04
 gam= 0.167 trial= 0.612  step= 0.471 mean= 0.612
 gam= 0.212 g(H,U,f)=  0.328E-03 0.293E-04 0.832E-20 ort(H,U,f) =-0.216E-04 0.134E-04-0.212E-19
CGA:   4    -0.202702444245E+04   -0.39859E-03   -0.39802E-03  1304   0.358E-03-0.818E-05
 gam= 0.212 trial= 0.605  step= 0.535 mean= 0.605
 gam= 0.232 g(H,U,f)=  0.741E-04 0.883E-05 0.411E-21 ort(H,U,f) =-0.102E-04 0.153E-04-0.961E-21
CGA:   5    -0.202702453750E+04   -0.95048E-04   -0.95224E-04  1304   0.829E-04 0.504E-05
 gam= 0.232 trial= 0.601  step= 0.615 mean= 0.601
 gam= 0.492 g(H,U,f)=  0.375E-04 0.334E-05 0.606E-21 ort(H,U,f) =-0.980E-05 0.654E-05 0.226E-21
CGA:   6    -0.202702456332E+04   -0.25822E-04   -0.25844E-04  1304   0.408E-04-0.327E-05
 gam= 0.492 trial= 0.602  step= 0.484 mean= 0.602
 gam= 0.330 g(H,U,f)=  0.121E-04 0.134E-05 0.108E-23 ort(H,U,f) =-0.166E-05 0.369E-05-0.278E-22
CGA:   7    -0.202702457269E+04   -0.93665E-05   -0.94865E-05  1304   0.135E-04 0.203E-05
 gam= 0.330 trial= 0.596  step= 0.722 mean= 0.596
 gam= 0.323 g(H,U,f)=  0.419E-05 0.163E-06 0.275E-22 ort(H,U,f) =-0.148E-05 0.700E-06 0.425E-22
CGA:   8    -0.202702457774E+04   -0.50495E-05   -0.50985E-05  1304   0.435E-05-0.780E-06
 gam= 0.323 trial= 0.602  step= 0.681 mean= 0.602
 gam= 0.218 g(H,U,f)=  0.922E-06 0.244E-07 0.382E-26 ort(H,U,f) =-0.154E-07 0.331E-07 0.105E-24
CGA:   9    -0.202702457913E+04   -0.13958E-05   -0.13953E-05  1304   0.946E-06 0.177E-07
 gam= 0.218 trial= 0.606  step= 0.612 mean= 0.606
 gam= 0.329 g(H,U,f)=  0.300E-06 0.113E-07 0.356E-23 ort(H,U,f) = 0.210E-07-0.928E-08 0.321E-23
CGA:  10    -0.202702457943E+04   -0.29077E-06   -0.29068E-06  1304   0.312E-06 0.118E-07
 gam= 0.329 trial= 0.607  step= 0.823 mean= 0.607
 gam= 0.939 g(H,U,f)=  0.282E-06 0.105E-07 0.104E-24 ort(H,U,f) =-0.127E-06-0.683E-08-0.788E-24
CGA:  11    -0.202702457954E+04   -0.11508E-06   -0.12974E-06  1304   0.292E-06-0.134E-06
 gam= 0.939 trial= 0.617  step= 0.292 mean= 0.617
 gam= 0.436 g(H,U,f)=  0.121E-06 0.607E-08 0.620E-24 ort(H,U,f) = 0.318E-07 0.115E-08-0.155E-23
CGA:  12    -0.202702457956E+04   -0.18896E-07   -0.24264E-07  1304   0.127E-06 0.329E-07
 gam= 0.436 trial= 0.601  step= 0.250 mean= 0.601
 final diagonalization
  83 F= -.20484701E+04 E0= -.20484701E+04  d E =-.396163E-03
 trial-energy change:   -0.000396  1 .order   -0.000390   -0.000487   -0.000293
 step:   0.5846(harm=  0.7043)  dis= 0.00172  next Energy= -2048.470286 (dE=-0.561E-03)
 bond charge predicted
       N       E                     dE             d eps       ncg     rms          ort
 gam= 0.000 g(H,U,f)=  0.384E-01 0.330E-02 0.295E-21 ort(H,U,f) = 0.000E+00 0.000E+00 0.000E+00
SDA:   1    -0.202700953653E+04    0.15043E-01    0.00000E+00  1304   0.417E-01 0.000E+00
 gam= 0.000 trial= 0.584  step= 0.580 mean= 0.584
 gam= 0.280 g(H,U,f)=  0.109E-01 0.776E-03 0.120E-18 ort(H,U,f) = 0.831E-03-0.847E-03 0.153E-19
CGA:   2    -0.202702163006E+04   -0.12094E-01   -0.12093E-01  1304   0.117E-01-0.164E-04
 gam= 0.280 trial= 0.583  step= 0.567 mean= 0.583
 gam= 0.167 g(H,U,f)=  0.188E-02 0.703E-04 0.327E-18 ort(H,U,f) =-0.376E-04 0.513E-04-0.231E-18
CGA:   3    -0.202702494049E+04   -0.33104E-02   -0.33105E-02  1304   0.195E-02 0.136E-04
 gam= 0.167 trial= 0.582  step= 0.471 mean= 0.582
 gam= 0.212 g(H,U,f)=  0.380E-03 0.339E-04 0.158E-19 ort(H,U,f) =-0.246E-04 0.154E-04-0.402E-19
CGA:   4    -0.202702540148E+04   -0.46098E-03   -0.46047E-03  1304   0.414E-03-0.925E-05
 gam= 0.212 trial= 0.577  step= 0.535 mean= 0.577
 gam= 0.231 g(H,U,f)=  0.854E-04 0.102E-04 0.791E-21 ort(H,U,f) =-0.119E-04 0.176E-04-0.186E-20
CGA:   5    -0.202702551168E+04   -0.11020E-03   -0.11032E-03  1304   0.956E-04 0.569E-05
 gam= 0.231 trial= 0.575  step= 0.615 mean= 0.575
 gam= 0.492 g(H,U,f)=  0.432E-04 0.385E-05 0.114E-20 ort(H,U,f) =-0.112E-04 0.752E-05 0.430E-21
CGA:   6    -0.202702554141E+04   -0.29737E-04   -0.29812E-04  1304   0.470E-04-0.369E-05
 gam= 0.492 trial= 0.577  step= 0.485 mean= 0.577
 gam= 0.332 g(H,U,f)=  0.140E-04 0.154E-05 0.217E-23 ort(H,U,f) =-0.194E-05 0.425E-05-0.542E-22
CGA:   7    -0.202702555227E+04   -0.10854E-04   -0.10960E-04  1304   0.156E-04 0.231E-05
 gam= 0.332 trial= 0.572  step= 0.721 mean= 0.572
 gam= 0.322 g(H,U,f)=  0.483E-05 0.187E-06 0.530E-22 ort(H,U,f) =-0.170E-05 0.807E-06 0.809E-22
CGA:   8    -0.202702555809E+04   -0.58250E-05   -0.58914E-05  1304   0.502E-05-0.896E-06
 gam= 0.322 trial= 0.580  step= 0.678 mean= 0.580
 gam= 0.217 g(H,U,f)=  0.106E-05 0.281E-07 0.812E-26 ort(H,U,f) = 0.357E-08 0.392E-07-0.319E-24
CGA:   9    -0.202702555970E+04   -0.16062E-05   -0.16041E-05  1304   0.109E-05 0.427E-07
 gam= 0.217 trial= 0.585  step= 0.629 mean= 0.585
 gam= 0.344 g(H,U,f)=  0.359E-06 0.143E-07 0.740E-23 ort(H,U,f) =-0.198E-08-0.115E-07 0.624E-23
CGA:  10    -0.202702556004E+04   -0.34419E-06   -0.34469E-06  1304   0.373E-06-0.135E-07
 gam= 0.344 trial= 0.587  step= 0.722 mean= 0.587
 gam= 0.667 g(H,U,f)=  0.240E-06 0.892E-08 0.355E-25 ort(H,U,f) =-0.940E-07-0.663E-08-0.659E-24
CGA:  11    -0.202702556017E+04   -0.12623E-06   -0.13316E-06  1304   0.249E-06-0.101E-06
 gam= 0.667 trial= 0.594  step= 0.381 mean= 0.594
 gam= 0.319 g(H,U,f)=  0.748E-07 0.453E-08 0.854E-24 ort(H,U,f) = 0.248E-07 0.118E-08-0.198E-23
CGA:  12    -0.202702556020E+04   -0.31869E-07   -0.34606E-07  1304   0.794E-07 0.260E-07
 gam= 0.319 trial= 0.583  step= 0.432 mean= 0.583
 final diagonalization
  84 F= -.20484703E+04 E0= -.20484703E+04  d E =-.601975E-03
 curvature:  -2.37 expect dE=-0.310E-02 dE for cont linesearch -0.164E-04
 ZBRENT: extrapolating
 opt :   0.7053  next Energy= -2048.470344 (dE=-0.620E-03)
 bond charge predicted
       N       E                     dE             d eps       ncg     rms          ort
 gam= 0.000 g(H,U,f)=  0.609E-02 0.523E-03 0.705E-22 ort(H,U,f) = 0.000E+00 0.000E+00 0.000E+00
SDA:   1    -0.202702334772E+04    0.22124E-02    0.00000E+00  1304   0.661E-02 0.000E+00
 gam= 0.000 trial= 0.575  step= 0.580 mean= 0.575
 gam= 0.280 g(H,U,f)=  0.173E-02 0.123E-03 0.172E-19 ort(H,U,f) = 0.128E-03-0.135E-03 0.164E-20
CGA:   2    -0.202702526550E+04   -0.19178E-02   -0.19178E-02  1304   0.185E-02-0.680E-05
 gam= 0.280 trial= 0.576  step= 0.566 mean= 0.576
 gam= 0.166 g(H,U,f)=  0.297E-03 0.111E-04 0.395E-19 ort(H,U,f) =-0.270E-05 0.821E-05-0.281E-19
CGA:   3    -0.202702578897E+04   -0.52347E-03   -0.52350E-03  1304   0.308E-03 0.550E-05
 gam= 0.166 trial= 0.575  step= 0.476 mean= 0.575
 gam= 0.216 g(H,U,f)=  0.611E-04 0.541E-05 0.362E-20 ort(H,U,f) =-0.613E-05 0.233E-05-0.880E-20
CGA:   4    -0.202702586262E+04   -0.73655E-04   -0.73466E-04  1304   0.665E-04-0.380E-05
 gam= 0.216 trial= 0.570  step= 0.520 mean= 0.570
 gam= 0.219 g(H,U,f)=  0.130E-04 0.160E-05 0.110E-21 ort(H,U,f) =-0.541E-06 0.282E-05-0.318E-21
CGA:   5    -0.202702587966E+04   -0.17034E-04   -0.17091E-04  1304   0.146E-04 0.228E-05
 gam= 0.219 trial= 0.568  step= 0.666 mean= 0.568
 gam= 0.578 g(H,U,f)=  0.782E-05 0.591E-06 0.255E-21 ort(H,U,f) =-0.263E-05 0.111E-05 0.621E-22
CGA:   6    -0.202702588459E+04   -0.49363E-05   -0.50108E-05  1304   0.841E-05-0.152E-05
 gam= 0.578 trial= 0.573  step= 0.427 mean= 0.573
 gam= 0.294 g(H,U,f)=  0.225E-05 0.218E-06 0.269E-23 ort(H,U,f) = 0.173E-06 0.715E-06 0.293E-22
CGA:   7    -0.202702588614E+04   -0.15441E-05   -0.16086E-05  1304   0.247E-05 0.888E-06
 gam= 0.294 trial= 0.565  step= 0.655 mean= 0.565
 gam= 0.402 g(H,U,f)=  0.944E-06 0.489E-07 0.173E-24 ort(H,U,f) =-0.188E-06 0.165E-06 0.285E-23
CGA:   8    -0.202702588703E+04   -0.89227E-06   -0.89331E-06  1304   0.993E-06-0.237E-07
 gam= 0.402 trial= 0.570  step= 0.864 mean= 0.570
 gam= 0.000 g(H,U,f)=  0.161E-05 0.428E-07 0.742E-23 ort(H,U,f) =-0.667E-06-0.420E-07 0.864E-23
CGA:   9    -0.202702588735E+04   -0.32064E-06   -0.42474E-06  1304   0.165E-05-0.709E-06
 gam= 0.000 trial= 0.584  step= 0.201 mean= 0.584
 gam= 0.105 g(H,U,f)=  0.171E-06 0.349E-08 0.146E-23 ort(H,U,f) = 0.398E-06 0.105E-07 0.329E-23
CGA:  10    -0.202702588744E+04   -0.88119E-07   -0.16649E-06  1304   0.174E-06 0.408E-06
 gam= 0.105 trial= 0.565  step= 0.200 mean= 0.565
 final diagonalization
  85 F= -.20484703E+04 E0= -.20484703E+04  d E =-.620688E-03
 curvature:  -2.58 expect dE=-0.499E-02 dE for cont linesearch -0.939E-08
 trial: gam= 1.39620 g(F)=  0.193E-02 g(S)=  0.228E-05 ort = 0.678E-05 (trialstep = 0.174E+00)
 search vector abs. value=  0.267E-01
 bond charge predicted
       N       E                     dE             d eps       ncg     rms          ort
 gam= 0.000 g(H,U,f)=  0.264E-01 0.237E-02 0.147E-20 ort(H,U,f) = 0.000E+00 0.000E+00 0.000E+00
SDA:   1    -0.202701605053E+04    0.98368E-02    0.00000E+00  1304   0.288E-01 0.000E+00
 gam= 0.000 trial= 0.547  step= 0.573 mean= 0.547
 gam= 0.278 g(H,U,f)=  0.747E-02 0.542E-03 0.128E-18 ort(H,U,f) = 0.602E-03-0.615E-03-0.146E-19
CGA:   2    -0.202702430461E+04   -0.82541E-02   -0.82542E-02  1304   0.801E-02-0.130E-04
 gam= 0.278 trial= 0.548  step= 0.570 mean= 0.548
 gam= 0.168 g(H,U,f)=  0.130E-02 0.505E-04 0.300E-18 ort(H,U,f) =-0.273E-04 0.373E-04-0.209E-18
CGA:   3    -0.202702658437E+04   -0.22798E-02   -0.22797E-02  1304   0.135E-02 0.999E-05
 gam= 0.168 trial= 0.549  step= 0.470 mean= 0.549
 gam= 0.210 g(H,U,f)=  0.260E-03 0.234E-04 0.182E-19 ort(H,U,f) =-0.184E-04 0.101E-04-0.441E-19
CGA:   4    -0.202702690214E+04   -0.31777E-03   -0.31744E-03  1304   0.284E-03-0.822E-05
 gam= 0.210 trial= 0.545  step= 0.536 mean= 0.545
 gam= 0.226 g(H,U,f)=  0.573E-04 0.685E-05 0.512E-21 ort(H,U,f) =-0.659E-05 0.121E-04-0.169E-20
CGA:   5    -0.202702697768E+04   -0.75541E-04   -0.75567E-04  1304   0.642E-04 0.547E-05
 gam= 0.226 trial= 0.545  step= 0.636 mean= 0.545
 gam= 0.507 g(H,U,f)=  0.300E-04 0.253E-05 0.109E-20 ort(H,U,f) =-0.822E-05 0.499E-05 0.186E-21
CGA:   6    -0.202702699834E+04   -0.20657E-04   -0.20804E-04  1304   0.325E-04-0.323E-05
 gam= 0.507 trial= 0.550  step= 0.473 mean= 0.550
 gam= 0.326 g(H,U,f)=  0.958E-05 0.101E-05 0.617E-24 ort(H,U,f) =-0.906E-06 0.286E-05-0.241E-22
CGA:   7    -0.202702700557E+04   -0.72283E-05   -0.73034E-05  1304   0.106E-04 0.196E-05
 gam= 0.326 trial= 0.546  step= 0.721 mean= 0.546
 gam= 0.331 g(H,U,f)=  0.338E-05 0.125E-06 0.296E-22 ort(H,U,f) =-0.126E-05 0.540E-06 0.568E-22
CGA:   8    -0.202702700956E+04   -0.39862E-05   -0.40491E-05  1304   0.350E-05-0.719E-06
 gam= 0.331 trial= 0.554  step= 0.697 mean= 0.554
 gam= 0.232 g(H,U,f)=  0.791E-06 0.210E-07 0.553E-23 ort(H,U,f) =-0.849E-07 0.116E-07 0.207E-22
CGA:   9    -0.202702701069E+04   -0.11324E-05   -0.11378E-05  1304   0.812E-06-0.733E-07
 gam= 0.232 trial= 0.562  step= 0.457 mean= 0.562
 gam= 0.292 g(H,U,f)=  0.232E-06 0.431E-08 0.435E-23 ort(H,U,f) = 0.165E-06-0.291E-08 0.915E-23
CGA:  10    -0.202702701086E+04   -0.17281E-06   -0.18149E-06  1304   0.237E-06 0.162E-06
 gam= 0.292 trial= 0.556  step= 1.341 mean= 0.556
 gam= 0.000 g(H,U,f)=  0.695E-06 0.130E-07 0.478E-25 ort(H,U,f) =-0.332E-06-0.492E-08 0.722E-24
CGA:  11    -0.202702701092E+04   -0.58215E-07   -0.19050E-06  1304   0.708E-06-0.337E-06
 gam= 0.000 trial= 0.596  step= 0.265 mean= 0.596
 final diagonalization
  86 F= -.20484706E+04 E0= -.20484706E+04  d E =-.300235E-03
 trial-energy change:   -0.000300  1 .order   -0.000297   -0.000338   -0.000257
 step:   0.5080(harm=  0.7231)  dis= 0.00226  next Energy= -2048.470912 (dE=-0.567E-03)
 bond charge predicted
       N       E                     dE             d eps       ncg     rms          ort
 gam= 0.000 g(H,U,f)=  0.971E-01 0.871E-02 0.581E-20 ort(H,U,f) = 0.000E+00 0.000E+00 0.000E+00
SDA:   1    -0.202698869624E+04    0.38315E-01    0.00000E+00  1304   0.106E+00 0.000E+00
 gam= 0.000 trial= 0.579  step= 0.573 mean= 0.579
 gam= 0.278 g(H,U,f)=  0.274E-01 0.199E-02 0.887E-18 ort(H,U,f) = 0.223E-02-0.226E-02-0.746E-19
CGA:   2    -0.202701900576E+04   -0.30310E-01   -0.30309E-01  1304   0.294E-01-0.223E-04
 gam= 0.278 trial= 0.579  step= 0.570 mean= 0.579
 gam= 0.168 g(H,U,f)=  0.477E-02 0.185E-03 0.252E-17 ort(H,U,f) =-0.118E-03 0.136E-03-0.176E-17
CGA:   3    -0.202702737983E+04   -0.83741E-02   -0.83741E-02  1304   0.495E-02 0.180E-04
 gam= 0.168 trial= 0.578  step= 0.469 mean= 0.578
 gam= 0.210 g(H,U,f)=  0.952E-03 0.857E-04 0.733E-19 ort(H,U,f) =-0.522E-04 0.375E-04-0.179E-18
CGA:   4    -0.202702854234E+04   -0.11625E-02   -0.11617E-02  1304   0.104E-02-0.147E-04
 gam= 0.210 trial= 0.573  step= 0.543 mean= 0.573
 gam= 0.230 g(H,U,f)=  0.214E-03 0.251E-04 0.304E-20 ort(H,U,f) =-0.338E-04 0.438E-04-0.913E-20
CGA:   5    -0.202702882281E+04   -0.28046E-03   -0.28061E-03  1304   0.239E-03 0.100E-04
 gam= 0.230 trial= 0.571  step= 0.617 mean= 0.571
 gam= 0.473 g(H,U,f)=  0.104E-03 0.932E-05 0.487E-20 ort(H,U,f) =-0.245E-04 0.187E-04 0.117E-20
CGA:   6    -0.202702889704E+04   -0.74236E-04   -0.74368E-04  1304   0.113E-03-0.583E-05
 gam= 0.473 trial= 0.574  step= 0.500 mean= 0.574
 gam= 0.355 g(H,U,f)=  0.362E-04 0.387E-05 0.353E-22 ort(H,U,f) =-0.648E-05 0.101E-04-0.425E-21
CGA:   7    -0.202702892442E+04   -0.27377E-04   -0.27512E-04  1304   0.401E-04 0.367E-05
 gam= 0.355 trial= 0.570  step= 0.694 mean= 0.570
 gam= 0.304 g(H,U,f)=  0.117E-04 0.442E-06 0.245E-21 ort(H,U,f) =-0.375E-05 0.202E-05 0.303E-21
CGA:   8    -0.202702893866E+04   -0.14246E-04   -0.14354E-04  1304   0.122E-04-0.174E-05
 gam= 0.304 trial= 0.576  step= 0.647 mean= 0.576
 gam= 0.217 g(H,U,f)=  0.258E-05 0.653E-07 0.188E-22 ort(H,U,f) = 0.344E-06 0.184E-06 0.912E-22
CGA:   9    -0.202702894245E+04   -0.37854E-05   -0.37667E-05  1304   0.264E-05 0.528E-06
 gam= 0.217 trial= 0.580  step= 0.709 mean= 0.580
 gam= 0.569 g(H,U,f)=  0.145E-05 0.511E-07 0.221E-22 ort(H,U,f) =-0.479E-06-0.274E-07 0.414E-22
CGA:  10    -0.202702894340E+04   -0.94563E-06   -0.97851E-06  1304   0.151E-05-0.507E-06
 gam= 0.569 trial= 0.586  step= 0.348 mean= 0.586
 gam= 0.287 g(H,U,f)=  0.419E-06 0.133E-07 0.893E-23 ort(H,U,f) = 0.235E-06 0.708E-09 0.289E-22
CGA:  11    -0.202702894358E+04   -0.18357E-06   -0.21155E-06  1304   0.432E-06 0.235E-06
 gam= 0.287 trial= 0.574  step= 0.429 mean= 0.574
 gam= 0.483 g(H,U,f)=  0.197E-06 0.115E-07 0.261E-24 ort(H,U,f) = 0.807E-07-0.397E-08 0.293E-23
CGA:  12    -0.202702894368E+04   -0.10129E-06   -0.10717E-06  1304   0.209E-06 0.767E-07
 gam= 0.483 trial= 0.567  step= 1.046 mean= 0.567
 gam= 0.000 g(H,U,f)=  0.724E-06 0.130E-07 0.463E-23 ort(H,U,f) =-0.326E-06-0.381E-08-0.705E-23
CGA:  13    -0.202702894373E+04   -0.49316E-07   -0.12851E-06  1304   0.737E-06-0.330E-06
 gam= 0.000 trial= 0.591  step= 0.228 mean= 0.591
 final diagonalization
  87 F= -.20484710E+04 E0= -.20484710E+04  d E =-.656952E-03
 curvature:  -4.20 expect dE=-0.640E-02 dE for cont linesearch -0.630E-04
 ZBRENT: increasing intervall
 opt :   1.1756  next Energy= -2048.470863 (dE=-0.518E-03)
 bond charge predicted
       N       E                     dE             d eps       ncg     rms          ort
 gam= 0.000 g(H,U,f)=  0.388E+00 0.348E-01 0.268E-19 ort(H,U,f) = 0.000E+00 0.000E+00 0.000E+00
SDA:   1    -0.202687100171E+04    0.15794E+00    0.00000E+00  1304   0.423E+00 0.000E+00
 gam= 0.000 trial= 0.573  step= 0.573 mean= 0.573
 gam= 0.278 g(H,U,f)=  0.110E+00 0.794E-02 0.117E-16 ort(H,U,f) = 0.897E-02-0.900E-02-0.279E-18
CGA:   2    -0.202699219837E+04   -0.12120E+00   -0.12120E+00  1304   0.118E+00-0.371E-04
 gam= 0.278 trial= 0.573  step= 0.570 mean= 0.573
 gam= 0.169 g(H,U,f)=  0.191E-01 0.742E-03 0.513E-16 ort(H,U,f) =-0.510E-03 0.546E-03-0.360E-16
CGA:   3    -0.202702569638E+04   -0.33498E-01   -0.33498E-01  1304   0.198E-01 0.359E-04
 gam= 0.169 trial= 0.573  step= 0.468 mean= 0.573
 gam= 0.209 g(H,U,f)=  0.379E-02 0.342E-03 0.332E-18 ort(H,U,f) =-0.181E-03 0.153E-03-0.828E-18
CGA:   4    -0.202703033907E+04   -0.46427E-02   -0.46413E-02  1304   0.414E-02-0.285E-04
 gam= 0.209 trial= 0.567  step= 0.546 mean= 0.567
 gam= 0.234 g(H,U,f)=  0.867E-03 0.101E-03 0.245E-19 ort(H,U,f) =-0.154E-03 0.175E-03-0.672E-19
CGA:   5    -0.202703146619E+04   -0.11271E-02   -0.11273E-02  1304   0.968E-03 0.206E-04
 gam= 0.234 trial= 0.566  step= 0.605 mean= 0.566
 gam= 0.458 g(H,U,f)=  0.405E-03 0.377E-04 0.334E-19 ort(H,U,f) =-0.878E-04 0.761E-04 0.977E-20
CGA:   6    -0.202703176015E+04   -0.29396E-03   -0.29419E-03  1304   0.443E-03-0.117E-04
 gam= 0.458 trial= 0.568  step= 0.513 mean= 0.568
 gam= 0.370 g(H,U,f)=  0.148E-03 0.159E-04 0.325E-21 ort(H,U,f) =-0.326E-04 0.401E-04-0.319E-20
CGA:   7    -0.202703187227E+04   -0.11212E-03   -0.11233E-03  1304   0.164E-03 0.752E-05
 gam= 0.370 trial= 0.566  step= 0.674 mean= 0.566
 gam= 0.289 g(H,U,f)=  0.456E-04 0.178E-05 0.164E-20 ort(H,U,f) =-0.121E-04 0.840E-05 0.187E-20
CGA:   8    -0.202703192829E+04   -0.56022E-04   -0.56221E-04  1304   0.474E-04-0.368E-05
 gam= 0.289 trial= 0.571  step= 0.651 mean= 0.571
 gam= 0.244 g(H,U,f)=  0.113E-04 0.290E-06 0.115E-21 ort(H,U,f) = 0.558E-06 0.854E-06 0.546E-21
CGA:   9    -0.202703194342E+04   -0.15126E-04   -0.15070E-04  1304   0.116E-04 0.141E-05
 gam= 0.244 trial= 0.575  step= 0.612 mean= 0.575
 gam= 0.506 g(H,U,f)=  0.571E-05 0.152E-06 0.913E-22 ort(H,U,f) =-0.129E-05-0.448E-07 0.216E-21
CGA:  10    -0.202703194704E+04   -0.36189E-05   -0.36435E-05  1304   0.586E-05-0.134E-05
 gam= 0.506 trial= 0.577  step= 0.395 mean= 0.577
 gam= 0.242 g(H,U,f)=  0.137E-05 0.436E-07 0.488E-22 ort(H,U,f) = 0.633E-06-0.459E-08 0.145E-21
CGA:  11    -0.202703194801E+04   -0.96789E-06   -0.10247E-05  1304   0.142E-05 0.629E-06
 gam= 0.242 trial= 0.568  step= 0.611 mean= 0.568
 gam= 0.475 g(H,U,f)=  0.630E-06 0.437E-07 0.127E-25 ort(H,U,f) = 0.819E-07-0.151E-07-0.114E-23
CGA:  12    -0.202703194849E+04   -0.48099E-06   -0.47960E-06  1304   0.673E-06 0.668E-07
 gam= 0.475 trial= 0.570  step= 0.912 mean= 0.570
 gam= 0.000 g(H,U,f)=  0.144E-05 0.443E-07 0.375E-23 ort(H,U,f) =-0.587E-06-0.198E-07-0.107E-22
CGA:  13    -0.202703194870E+04   -0.21773E-06   -0.32172E-06  1304   0.148E-05-0.607E-06
 gam= 0.000 trial= 0.587  step= 0.215 mean= 0.587
 gam= 0.116 g(H,U,f)=  0.166E-06 0.581E-08 0.154E-23 ort(H,U,f) = 0.338E-06 0.119E-07 0.241E-23
CGA:  14    -0.202703194880E+04   -0.94435E-07   -0.15939E-06  1304   0.172E-06 0.350E-06
 gam= 0.116 trial= 0.568  step= 0.247 mean= 0.568
 final diagonalization
  88 F= -.20484709E+04 E0= -.20484709E+04  d E =-.511026E-03
 curvature:   9.30 expect dE= 0.571E-01 dE for cont linesearch  0.412E-03
 ZBRENT: bracketing found
 ZBRENT: interpolating
 opt :   0.7534  next Energy= -2048.471080 (dE=-0.735E-03)
 bond charge predicted
       N       E                     dE             d eps       ncg     rms          ort
 gam= 0.000 g(H,U,f)=  0.155E+00 0.139E-01 0.178E-19 ort(H,U,f) = 0.000E+00 0.000E+00 0.000E+00
SDA:   1    -0.202696583357E+04    0.66115E-01    0.00000E+00  1304   0.169E+00 0.000E+00
 gam= 0.000 trial= 0.552  step= 0.573 mean= 0.552
 gam= 0.278 g(H,U,f)=  0.438E-01 0.319E-02 0.178E-18 ort(H,U,f) = 0.364E-02-0.361E-02-0.389E-19
CGA:   2    -0.202701427642E+04   -0.48443E-01   -0.48443E-01  1304   0.470E-01 0.293E-04
 gam= 0.278 trial= 0.553  step= 0.571 mean= 0.553
 gam= 0.169 g(H,U,f)=  0.763E-02 0.297E-03 0.214E-18 ort(H,U,f) =-0.240E-03 0.218E-03-0.150E-18
CGA:   3    -0.202702768780E+04   -0.13411E-01   -0.13412E-01  1304   0.793E-02-0.224E-04
 gam= 0.169 trial= 0.554  step= 0.467 mean= 0.554
 gam= 0.206 g(H,U,f)=  0.150E-02 0.137E-03 0.200E-18 ort(H,U,f) =-0.424E-04 0.619E-04-0.480E-18
CGA:   4    -0.202702953585E+04   -0.18480E-02   -0.18489E-02  1304   0.163E-02 0.195E-04
 gam= 0.206 trial= 0.550  step= 0.558 mean= 0.550
 gam= 0.238 g(H,U,f)=  0.349E-03 0.400E-04 0.355E-20 ort(H,U,f) =-0.813E-04 0.687E-04-0.101E-19
CGA:   5    -0.202702999238E+04   -0.45653E-03   -0.45658E-03  1304   0.389E-03-0.126E-04
 gam= 0.238 trial= 0.550  step= 0.591 mean= 0.550
 gam= 0.419 g(H,U,f)=  0.148E-03 0.149E-04 0.330E-20 ort(H,U,f) =-0.234E-04 0.310E-04 0.116E-20
CGA:   6    -0.202703010669E+04   -0.11431E-03   -0.11415E-03  1304   0.163E-03 0.755E-05
 gam= 0.419 trial= 0.552  step= 0.554 mean= 0.552
 gam= 0.439 g(H,U,f)=  0.652E-04 0.654E-05 0.358E-21 ort(H,U,f) =-0.198E-04 0.150E-04-0.137E-20
CGA:   7    -0.202703015280E+04   -0.46117E-04   -0.46122E-04  1304   0.717E-04-0.482E-05
 gam= 0.439 trial= 0.552  step= 0.589 mean= 0.552
 gam= 0.248 g(H,U,f)=  0.171E-04 0.721E-06 0.397E-21 ort(H,U,f) =-0.103E-05 0.394E-05 0.263E-21
CGA:   8    -0.202703017336E+04   -0.20559E-04   -0.20505E-04  1304   0.178E-04 0.291E-05
 gam= 0.248 trial= 0.554  step= 0.720 mean= 0.554
 gam= 0.311 g(H,U,f)=  0.539E-05 0.140E-06 0.884E-22 ort(H,U,f) =-0.137E-05 0.313E-06 0.227E-21
CGA:   9    -0.202703017994E+04   -0.65729E-05   -0.66603E-05  1304   0.553E-05-0.106E-05
 gam= 0.311 trial= 0.563  step= 0.454 mean= 0.563
 gam= 0.282 g(H,U,f)=  0.153E-05 0.274E-07 0.129E-22 ort(H,U,f) = 0.724E-06 0.252E-07 0.620E-22
CGA:  10    -0.202703018108E+04   -0.11413E-05   -0.11820E-05  1304   0.156E-05 0.749E-06
 gam= 0.282 trial= 0.557  step= 0.675 mean= 0.557
 gam= 0.470 g(H,U,f)=  0.709E-06 0.240E-07 0.181E-22 ort(H,U,f) =-0.271E-06-0.474E-08 0.367E-22
CGA:  11    -0.202703018166E+04   -0.58146E-06   -0.59780E-06  1304   0.733E-06-0.276E-06
 gam= 0.470 trial= 0.563  step= 0.443 mean= 0.563
 gam= 0.362 g(H,U,f)=  0.258E-06 0.694E-08 0.903E-24 ort(H,U,f) = 0.150E-06 0.138E-08 0.796E-23
CGA:  12    -0.202703018178E+04   -0.12478E-06   -0.13373E-06  1304   0.265E-06 0.151E-06
 gam= 0.362 trial= 0.557  step= 0.517 mean= 0.557
 gam= 0.327 g(H,U,f)=  0.827E-07 0.401E-08 0.726E-24 ort(H,U,f) = 0.322E-07 0.156E-09-0.342E-23
CGA:  13    -0.202703018187E+04   -0.82036E-07   -0.82624E-07  1304   0.867E-07 0.324E-07
 gam= 0.327 trial= 0.555  step=23.497 mean= 0.555
 gam= 0.327 trial= 3.607  step= 3.607 mean= 0.876
 gam= 0.000 g(H,U,f)=  0.336E-05 0.101E-06 0.536E-22 ort(H,U,f) =-0.484E-06-0.108E-07 0.358E-23
CGA:  14    -0.202703018131E+04    0.55767E-06    0.25338E+03  1304   0.346E-05-0.495E-06
 gam= 0.000 trial= 1.012  step= 0.299 mean= 1.012
 gam= 0.128 g(H,U,f)=  0.436E-06 0.497E-08 0.333E-23 ort(H,U,f) = 0.341E-06 0.171E-08-0.134E-22
CGA:  15    -0.202703018170E+04   -0.39439E-06   -0.51646E-06  1304   0.441E-06 0.343E-06
 gam= 0.128 trial= 0.977  step= 0.645 mean= 0.977
 gam= 0.267 g(H,U,f)=  0.106E-06 0.114E-07 0.177E-22 ort(H,U,f) =-0.393E-07-0.303E-08 0.373E-23
CGA:  16    -0.202703018187E+04   -0.16325E-06   -0.15644E-06  1304   0.118E-06-0.423E-07
 gam= 0.267 trial= 0.960  step= 0.984 mean= 0.960
 gam= 0.000 g(H,U,f)=  0.145E-06 0.108E-07 0.239E-22 ort(H,U,f) =-0.632E-07-0.693E-08-0.216E-22
CGA:  17    -0.202703018192E+04   -0.51747E-07   -0.52433E-07  1304   0.156E-06-0.702E-07
 gam= 0.000 trial= 0.961  step= 0.251 mean= 0.961
 final diagonalization
  89 F= -.20484711E+04 E0= -.20484711E+04  d E =-.736439E-03
 curvature:  -1.75 expect dE=-0.444E-02 dE for cont linesearch -0.523E-11
 trial: gam= 1.12132 g(F)=  0.238E-02 g(S)=  0.156E-03 ort =-0.282E-06 (trialstep = 0.214E+00)
 search vector abs. value=  0.360E-01
 bond charge predicted
       N       E                     dE             d eps       ncg     rms          ort
 gam= 0.000 g(H,U,f)=  0.535E-01 0.488E-02 0.244E-19 ort(H,U,f) = 0.000E+00 0.000E+00 0.000E+00
SDA:   1    -0.202700865414E+04    0.21528E-01    0.00000E+00  1304   0.584E-01 0.000E+00
 gam= 0.000 trial= 0.926  step= 0.573 mean= 0.926
 gam= 0.277 g(H,U,f)=  0.150E-01 0.113E-02 0.987E-19 ort(H,U,f) = 0.126E-02-0.126E-02 0.996E-19
CGA:   2    -0.202702537471E+04   -0.16721E-01   -0.16721E-01  1304   0.162E-01 0.229E-05
 gam= 0.277 trial= 0.908  step= 0.571 mean= 0.908
 gam= 0.168 g(H,U,f)=  0.261E-02 0.105E-03 0.613E-18 ort(H,U,f) =-0.743E-04 0.762E-04-0.272E-18
CGA:   3    -0.202702998804E+04   -0.46133E-02   -0.46137E-02  1304   0.272E-02 0.194E-05
 gam= 0.168 trial= 0.891  step= 0.476 mean= 0.891
 gam= 0.201 g(H,U,f)=  0.497E-03 0.503E-04 0.525E-19 ort(H,U,f) =-0.217E-04 0.208E-04-0.103E-18
CGA:   4    -0.202703063519E+04   -0.64715E-03   -0.64698E-03  1304   0.548E-03-0.917E-06
 gam= 0.201 trial= 0.870  step= 0.573 mean= 0.870
 gam= 0.212 g(H,U,f)=  0.104E-03 0.127E-04 0.172E-20 ort(H,U,f) =-0.204E-04 0.224E-04-0.683E-20
CGA:   5    -0.202703079165E+04   -0.15647E-03   -0.15676E-03  1304   0.116E-03 0.199E-05
 gam= 0.212 trial= 0.856  step= 0.730 mean= 0.856
 gam= 0.343 g(H,U,f)=  0.356E-04 0.422E-05 0.957E-21 ort(H,U,f) =-0.991E-05 0.939E-05-0.190E-21
CGA:   6    -0.202703083432E+04   -0.42667E-04   -0.42635E-04  1304   0.399E-04-0.522E-06
 gam= 0.343 trial= 0.849  step= 0.743 mean= 0.849
 gam= 0.375 g(H,U,f)=  0.139E-04 0.102E-05 0.856E-23 ort(H,U,f) =-0.289E-05 0.314E-05-0.859E-22
CGA:   7    -0.202703084905E+04   -0.14733E-04   -0.14746E-04  1304   0.150E-04 0.254E-06
 gam= 0.375 trial= 0.844  step= 0.626 mean= 0.844
 gam= 0.367 g(H,U,f)=  0.532E-05 0.176E-06 0.294E-22 ort(H,U,f) =-0.406E-06 0.449E-06 0.449E-22
CGA:   8    -0.202703085376E+04   -0.47040E-05   -0.47086E-05  1304   0.549E-05 0.431E-07
 gam= 0.367 trial= 0.833  step= 0.507 mean= 0.833
 gam= 0.293 g(H,U,f)=  0.159E-05 0.232E-07 0.612E-22 ort(H,U,f) =-0.388E-07 0.678E-07 0.666E-22
CGA:   9    -0.202703085515E+04   -0.13915E-05   -0.13964E-05  1304   0.161E-05 0.290E-07
 gam= 0.293 trial= 0.817  step= 0.560 mean= 0.817
 gam= 0.291 g(H,U,f)=  0.452E-06 0.162E-07 0.678E-23 ort(H,U,f) =-0.187E-07-0.676E-08-0.271E-22
CGA:  10    -0.202703085561E+04   -0.45644E-06   -0.45315E-06  1304   0.469E-06-0.255E-07
 gam= 0.291 trial= 0.804  step= 0.602 mean= 0.804
 gam= 0.319 g(H,U,f)=  0.142E-06 0.777E-08 0.135E-23 ort(H,U,f) = 0.255E-07-0.592E-08 0.499E-24
CGA:  11    -0.202703085574E+04   -0.13687E-06   -0.13886E-06  1304   0.149E-06 0.196E-07
 gam= 0.319 trial= 0.794  step= 0.850 mean= 0.794
 gam= 0.652 g(H,U,f)=  0.938E-07 0.369E-08 0.228E-23 ort(H,U,f) =-0.322E-07-0.137E-08 0.197E-23
CGA:  12    -0.202703085581E+04   -0.65127E-07   -0.66142E-07  1304   0.975E-07-0.336E-07
 gam= 0.652 trial= 0.797  step= 0.384 mean= 0.797
 final diagonalization
  90 F= -.20484715E+04 E0= -.20484715E+04  d E =-.459882E-03
 trial-energy change:   -0.000460  1 .order   -0.000463   -0.000544   -0.000381
 step:   0.7159(harm=  0.7159)  dis= 0.00363  next Energy= -2048.471990 (dE=-0.908E-03)
 bond charge predicted
       N       E                     dE             d eps       ncg     rms          ort
 gam= 0.000 g(H,U,f)=  0.293E+00 0.267E-01 0.173E-18 ort(H,U,f) = 0.000E+00 0.000E+00 0.000E+00
SDA:   1    -0.202691039525E+04    0.12046E+00    0.00000E+00  1304   0.319E+00 0.000E+00
 gam= 0.000 trial= 0.776  step= 0.573 mean= 0.776
 gam= 0.277 g(H,U,f)=  0.822E-01 0.618E-02 0.262E-17 ort(H,U,f) = 0.688E-02-0.687E-02 0.336E-17
CGA:   2    -0.202700182115E+04   -0.91426E-01   -0.91424E-01  1304   0.883E-01 0.642E-05
 gam= 0.277 trial= 0.766  step= 0.571 mean= 0.766
 gam= 0.168 g(H,U,f)=  0.143E-01 0.572E-03 0.127E-16 ort(H,U,f) =-0.411E-03 0.418E-03-0.569E-17
CGA:   3    -0.202702704868E+04   -0.25228E-01   -0.25228E-01  1304   0.149E-01 0.640E-05
 gam= 0.168 trial= 0.756  step= 0.476 mean= 0.756
 gam= 0.202 g(H,U,f)=  0.272E-02 0.275E-03 0.306E-18 ort(H,U,f) =-0.116E-03 0.114E-03-0.608E-18
CGA:   4    -0.202703058378E+04   -0.35351E-02   -0.35349E-02  1304   0.299E-02-0.222E-05
 gam= 0.202 trial= 0.742  step= 0.573 mean= 0.742
 gam= 0.213 g(H,U,f)=  0.568E-03 0.696E-04 0.176E-19 ort(H,U,f) =-0.117E-03 0.122E-03-0.663E-19
CGA:   5    -0.202703144133E+04   -0.85755E-03   -0.85803E-03  1304   0.637E-03 0.573E-05
 gam= 0.213 trial= 0.734  step= 0.727 mean= 0.734
 gam= 0.340 g(H,U,f)=  0.194E-03 0.232E-04 0.792E-20 ort(H,U,f) =-0.530E-04 0.514E-04-0.216E-20
CGA:   6    -0.202703167358E+04   -0.23225E-03   -0.23224E-03  1304   0.217E-03-0.154E-05
 gam= 0.340 trial= 0.733  step= 0.744 mean= 0.733
 gam= 0.382 g(H,U,f)=  0.772E-04 0.563E-05 0.102E-21 ort(H,U,f) =-0.162E-04 0.172E-04-0.855E-21
CGA:   7    -0.202703175409E+04   -0.80512E-04   -0.80507E-04  1304   0.829E-04 0.998E-06
 gam= 0.382 trial= 0.734  step= 0.618 mean= 0.734
 gam= 0.376 g(H,U,f)=  0.302E-04 0.978E-06 0.222E-21 ort(H,U,f) =-0.270E-05 0.257E-05 0.343E-21
CGA:   8    -0.202703177983E+04   -0.25738E-04   -0.25730E-04  1304   0.312E-04-0.136E-06
 gam= 0.376 trial= 0.728  step= 0.497 mean= 0.728
 gam= 0.282 g(H,U,f)=  0.867E-05 0.126E-06 0.579E-21 ort(H,U,f) =-0.111E-06 0.393E-06 0.572E-21
CGA:   9    -0.202703178755E+04   -0.77142E-05   -0.77466E-05  1304   0.880E-05 0.281E-06
 gam= 0.282 trial= 0.717  step= 0.572 mean= 0.717
 gam= 0.289 g(H,U,f)=  0.245E-05 0.929E-07 0.680E-22 ort(H,U,f) =-0.125E-06-0.394E-07-0.258E-21
CGA:  10    -0.202703179010E+04   -0.25505E-05   -0.25386E-05  1304   0.254E-05-0.164E-06
 gam= 0.289 trial= 0.709  step= 0.609 mean= 0.709
 gam= 0.323 g(H,U,f)=  0.779E-06 0.436E-07 0.155E-22 ort(H,U,f) = 0.132E-06-0.330E-07 0.316E-23
CGA:  11    -0.202703179085E+04   -0.75519E-06   -0.76010E-06  1304   0.822E-06 0.987E-07
 gam= 0.323 trial= 0.704  step= 0.796 mean= 0.704
 gam= 0.576 g(H,U,f)=  0.456E-06 0.176E-07 0.187E-22 ort(H,U,f) =-0.126E-06-0.561E-08 0.182E-22
CGA:  12    -0.202703179119E+04   -0.33381E-06   -0.33981E-06  1304   0.474E-06-0.132E-06
 gam= 0.576 trial= 0.709  step= 0.423 mean= 0.709
 gam= 0.316 g(H,U,f)=  0.144E-06 0.588E-08 0.271E-24 ort(H,U,f) = 0.716E-07 0.721E-08-0.350E-23
CGA:  13    -0.202703179126E+04   -0.72832E-07   -0.84055E-07  1304   0.150E-06 0.788E-07
 gam= 0.316 trial= 0.695  step= 0.611 mean= 0.695
 final diagonalization
  91 F= -.20484720E+04 E0= -.20484720E+04  d E =-.897177E-03
 curvature:  -5.08 expect dE=-0.192E-01 dE for cont linesearch -0.179E-09
 trial: gam= 1.47725 g(F)=  0.354E-02 g(S)=  0.239E-03 ort =-0.113E-05 (trialstep = 0.138E+00)
 search vector abs. value=  0.824E-01
 bond charge predicted
       N       E                     dE             d eps       ncg     rms          ort
 gam= 0.000 g(H,U,f)=  0.499E-01 0.448E-02 0.752E-19 ort(H,U,f) = 0.000E+00 0.000E+00 0.000E+00
SDA:   1    -0.202701117230E+04    0.20619E-01    0.00000E+00  1304   0.544E-01 0.000E+00
 gam= 0.000 trial= 0.690  step= 0.575 mean= 0.690
 gam= 0.278 g(H,U,f)=  0.141E-01 0.103E-02 0.632E-22 ort(H,U,f) = 0.116E-02-0.115E-02-0.100E-20
CGA:   2    -0.202702680576E+04   -0.15633E-01   -0.15634E-01  1304   0.151E-01 0.138E-04
 gam= 0.278 trial= 0.685  step= 0.566 mean= 0.685
 gam= 0.172 g(H,U,f)=  0.250E-02 0.948E-04 0.137E-17 ort(H,U,f) =-0.692E-04 0.656E-04-0.161E-18
CGA:   3    -0.202703109569E+04   -0.42899E-02   -0.42897E-02  1304   0.260E-02-0.362E-05
 gam= 0.172 trial= 0.679  step= 0.467 mean= 0.679
 gam= 0.206 g(H,U,f)=  0.491E-03 0.451E-04 0.435E-19 ort(H,U,f) =-0.145E-04 0.200E-04-0.141E-18
CGA:   4    -0.202703170225E+04   -0.60655E-03   -0.60715E-03  1304   0.536E-03 0.559E-05
 gam= 0.206 trial= 0.668  step= 0.551 mean= 0.668
 gam= 0.245 g(H,U,f)=  0.119E-03 0.127E-04 0.378E-20 ort(H,U,f) =-0.247E-04 0.222E-04-0.454E-20
CGA:   5    -0.202703185036E+04   -0.14811E-03   -0.14797E-03  1304   0.131E-03-0.244E-05
 gam= 0.245 trial= 0.662  step= 0.567 mean= 0.662
 gam= 0.423 g(H,U,f)=  0.504E-04 0.514E-05 0.139E-20 ort(H,U,f) =-0.683E-05 0.103E-04 0.152E-20
CGA:   6    -0.202703188723E+04   -0.36870E-04   -0.37034E-04  1304   0.555E-04 0.343E-05
 gam= 0.423 trial= 0.658  step= 0.569 mean= 0.658
 gam= 0.435 g(H,U,f)=  0.220E-04 0.215E-05 0.948E-21 ort(H,U,f) =-0.752E-05 0.493E-05-0.157E-20
CGA:   7    -0.202703190356E+04   -0.16330E-04   -0.16216E-04  1304   0.242E-04-0.259E-05
 gam= 0.435 trial= 0.653  step= 0.574 mean= 0.653
 gam= 0.239 g(H,U,f)=  0.553E-05 0.252E-06 0.138E-21 ort(H,U,f) = 0.394E-06 0.138E-05-0.100E-21
CGA:   8    -0.202703191010E+04   -0.65431E-05   -0.66134E-05  1304   0.578E-05 0.178E-05
 gam= 0.239 trial= 0.649  step= 0.720 mean= 0.649
 gam= 0.330 g(H,U,f)=  0.186E-05 0.526E-07 0.653E-22 ort(H,U,f) =-0.457E-06 0.941E-07-0.764E-22
CGA:   9    -0.202703191233E+04   -0.22222E-05   -0.22352E-05  1304   0.191E-05-0.363E-06
 gam= 0.330 trial= 0.653  step= 0.467 mean= 0.653
 gam= 0.266 g(H,U,f)=  0.498E-06 0.101E-07 0.181E-23 ort(H,U,f) = 0.269E-06 0.131E-07 0.667E-23
CGA:  10    -0.202703191272E+04   -0.39169E-06   -0.41790E-06  1304   0.508E-06 0.283E-06
 gam= 0.266 trial= 0.643  step= 0.732 mean= 0.643
 gam= 0.558 g(H,U,f)=  0.274E-06 0.960E-08 0.142E-22 ort(H,U,f) =-0.128E-06-0.186E-08-0.100E-22
CGA:  11    -0.202703191293E+04   -0.20774E-06   -0.21347E-06  1304   0.283E-06-0.130E-06
 gam= 0.558 trial= 0.648  step= 0.410 mean= 0.648
 gam= 0.415 g(H,U,f)=  0.115E-06 0.261E-08 0.494E-25 ort(H,U,f) = 0.542E-07 0.109E-09 0.505E-24
CGA:  12    -0.202703191296E+04   -0.36976E-07   -0.43274E-07  1304   0.118E-06 0.543E-07
 gam= 0.415 trial= 0.636  step= 0.439 mean= 0.636
 final diagonalization
  92 F= -.20484725E+04 E0= -.20484725E+04  d E =-.474411E-03
 ZBRENT: can't locate minimum, use default step
 trial-energy change:   -0.000474  1 .order   -0.000479   -0.000520   -0.000438
 step:   0.5504(harm=  0.8781)  dis= 0.00398  next Energy= -2048.473638 (dE=-0.166E-02)
 bond charge predicted
       N       E                     dE             d eps       ncg     rms          ort
 gam= 0.000 g(H,U,f)=  0.449E+00 0.403E-01 0.430E-18 ort(H,U,f) = 0.000E+00 0.000E+00 0.000E+00
SDA:   1    -0.202684508355E+04    0.18683E+00    0.00000E+00  1304   0.489E+00 0.000E+00
 gam= 0.000 trial= 0.626  step= 0.575 mean= 0.626
 gam= 0.278 g(H,U,f)=  0.127E+00 0.928E-02 0.103E-17 ort(H,U,f) = 0.103E-01-0.103E-01-0.877E-17
CGA:   2    -0.202698580983E+04   -0.14073E+00   -0.14073E+00  1304   0.136E+00 0.233E-04
 gam= 0.278 trial= 0.624  step= 0.566 mean= 0.624
 gam= 0.171 g(H,U,f)=  0.225E-01 0.853E-03 0.337E-16 ort(H,U,f) =-0.603E-03 0.598E-03-0.400E-17
CGA:   3    -0.202702438749E+04   -0.38578E-01   -0.38578E-01  1304   0.233E-01-0.522E-05
 gam= 0.171 trial= 0.621  step= 0.469 mean= 0.621
 gam= 0.207 g(H,U,f)=  0.441E-02 0.408E-03 0.128E-18 ort(H,U,f) =-0.163E-03 0.182E-03-0.418E-18
CGA:   4    -0.202702984987E+04   -0.54624E-02   -0.54639E-02  1304   0.482E-02 0.194E-04
 gam= 0.207 trial= 0.613  step= 0.549 mean= 0.613
 gam= 0.242 g(H,U,f)=  0.105E-02 0.114E-03 0.159E-19 ort(H,U,f) =-0.208E-03 0.201E-03-0.178E-19
CGA:   5    -0.202703117512E+04   -0.13252E-02   -0.13250E-02  1304   0.117E-02-0.750E-05
 gam= 0.242 trial= 0.610  step= 0.581 mean= 0.610
 gam= 0.439 g(H,U,f)=  0.467E-03 0.460E-04 0.408E-20 ort(H,U,f) =-0.799E-04 0.912E-04 0.483E-20
CGA:   6    -0.202703151364E+04   -0.33852E-03   -0.33868E-03  1304   0.513E-03 0.113E-04
 gam= 0.439 trial= 0.608  step= 0.543 mean= 0.608
 gam= 0.400 g(H,U,f)=  0.186E-03 0.188E-04 0.155E-20 ort(H,U,f) =-0.540E-04 0.458E-04-0.314E-20
CGA:   7    -0.202703165458E+04   -0.14094E-03   -0.14068E-03  1304   0.205E-03-0.820E-05
 gam= 0.400 trial= 0.605  step= 0.622 mean= 0.605
 gam= 0.260 g(H,U,f)=  0.511E-04 0.217E-05 0.477E-21 ort(H,U,f) =-0.525E-05 0.111E-04-0.163E-21
CGA:   8    -0.202703171741E+04   -0.62828E-04   -0.62778E-04  1304   0.533E-04 0.586E-05
 gam= 0.260 trial= 0.606  step= 0.688 mean= 0.606
 gam= 0.306 g(H,U,f)=  0.159E-04 0.396E-06 0.268E-21 ort(H,U,f) =-0.260E-05 0.964E-06-0.300E-21
CGA:   9    -0.202703173620E+04   -0.18788E-04   -0.18855E-04  1304   0.163E-04-0.164E-05
 gam= 0.306 trial= 0.610  step= 0.477 mean= 0.610
 gam= 0.302 g(H,U,f)=  0.483E-05 0.100E-06 0.533E-24 ort(H,U,f) = 0.121E-05 0.949E-07-0.781E-23
CGA:  10    -0.202703173989E+04   -0.36909E-05   -0.37777E-05  1304   0.493E-05 0.130E-05
 gam= 0.302 trial= 0.604  step= 0.640 mean= 0.604
 gam= 0.452 g(H,U,f)=  0.216E-05 0.698E-07 0.244E-22 ort(H,U,f) =-0.647E-06-0.166E-07-0.124E-22
CGA:  11    -0.202703174158E+04   -0.16906E-05   -0.17027E-05  1304   0.223E-05-0.663E-06
 gam= 0.452 trial= 0.605  step= 0.471 mean= 0.605
 gam= 0.320 g(H,U,f)=  0.693E-06 0.196E-07 0.285E-23 ort(H,U,f) = 0.300E-06-0.331E-08-0.632E-23
CGA:  12    -0.202703174202E+04   -0.43422E-06   -0.45414E-06  1304   0.712E-06 0.296E-06
 gam= 0.320 trial= 0.599  step= 0.690 mean= 0.599
 gam= 0.372 g(H,U,f)=  0.253E-06 0.120E-07 0.789E-24 ort(H,U,f) =-0.417E-07-0.220E-08 0.436E-24
CGA:  13    -0.202703174229E+04   -0.27631E-06   -0.27831E-06  1304   0.265E-06-0.439E-07
 gam= 0.372 trial= 0.603  step= 1.353 mean= 0.603
 gam= 0.000 g(H,U,f)=  0.629E-06 0.263E-07 0.226E-22 ort(H,U,f) =-0.258E-06-0.427E-08-0.507E-23
CGA:  14    -0.202703174236E+04   -0.70366E-07   -0.16818E-06  1304   0.655E-06-0.262E-06
 gam= 0.000 trial= 0.641  step= 0.241 mean= 0.641
 final diagonalization
  93 F= -.20484733E+04 E0= -.20484733E+04  d E =-.136352E-02
 curvature:  -7.70 expect dE=-0.187E-01 dE for cont linesearch -0.138E-03
 ZBRENT: increasing intervall
 opt :   1.3761  next Energy= -2048.472718 (dE=-0.739E-03)
 bond charge predicted
       N       E                     dE             d eps       ncg     rms          ort
 gam= 0.000 g(H,U,f)=  0.180E+01 0.161E+00 0.344E-18 ort(H,U,f) = 0.000E+00 0.000E+00 0.000E+00
SDA:   1    -0.202628241902E+04    0.74932E+00    0.00000E+00  1304   0.196E+01 0.000E+00
 gam= 0.000 trial= 0.621  step= 0.575 mean= 0.621
 gam= 0.278 g(H,U,f)=  0.508E+00 0.370E-01 0.198E-17 ort(H,U,f) = 0.409E-01-0.410E-01-0.443E-17
CGA:   2    -0.202684537070E+04   -0.56295E+00   -0.56294E+00  1304   0.545E+00-0.110E-03
 gam= 0.278 trial= 0.618  step= 0.566 mean= 0.618
 gam= 0.171 g(H,U,f)=  0.897E-01 0.342E-02 0.282E-15 ort(H,U,f) =-0.237E-02 0.241E-02-0.357E-16
CGA:   3    -0.202699964180E+04   -0.15427E+00   -0.15427E+00  1304   0.931E-01 0.420E-04
 gam= 0.171 trial= 0.616  step= 0.470 mean= 0.616
 gam= 0.207 g(H,U,f)=  0.176E-01 0.164E-02 0.426E-19 ort(H,U,f) =-0.693E-03 0.736E-03-0.143E-18
CGA:   4    -0.202702149211E+04   -0.21850E-01   -0.21854E-01  1304   0.193E-01 0.431E-04
 gam= 0.207 trial= 0.609  step= 0.549 mean= 0.609
 gam= 0.242 g(H,U,f)=  0.420E-02 0.456E-03 0.901E-20 ort(H,U,f) =-0.816E-03 0.802E-03-0.879E-20
CGA:   5    -0.202702677865E+04   -0.52865E-02   -0.52861E-02  1304   0.465E-02-0.136E-04
 gam= 0.242 trial= 0.606  step= 0.585 mean= 0.606
 gam= 0.443 g(H,U,f)=  0.188E-02 0.184E-03 0.141E-20 ort(H,U,f) =-0.342E-03 0.364E-03 0.177E-20
CGA:   6    -0.202702813912E+04   -0.13605E-02   -0.13607E-02  1304   0.206E-02 0.226E-04
 gam= 0.443 trial= 0.605  step= 0.536 mean= 0.605
 gam= 0.392 g(H,U,f)=  0.733E-03 0.748E-04 0.252E-21 ort(H,U,f) =-0.201E-03 0.185E-03-0.611E-21
CGA:   7    -0.202702869516E+04   -0.55604E-03   -0.55550E-03  1304   0.808E-03-0.158E-04
 gam= 0.392 trial= 0.601  step= 0.635 mean= 0.601
 gam= 0.268 g(H,U,f)=  0.208E-03 0.865E-05 0.103E-21 ort(H,U,f) =-0.311E-04 0.431E-04-0.859E-23
CGA:   8    -0.202702894982E+04   -0.25466E-03   -0.25446E-03  1304   0.217E-03 0.120E-04
 gam= 0.268 trial= 0.603  step= 0.673 mean= 0.603
 gam= 0.292 g(H,U,f)=  0.616E-04 0.151E-05 0.418E-22 ort(H,U,f) =-0.730E-05 0.401E-05-0.537E-22
CGA:   9    -0.202702902364E+04   -0.73817E-04   -0.73933E-04  1304   0.632E-04-0.330E-05
 gam= 0.292 trial= 0.606  step= 0.501 mean= 0.606
 gam= 0.328 g(H,U,f)=  0.203E-04 0.451E-06 0.642E-24 ort(H,U,f) = 0.235E-05 0.304E-06-0.323E-23
CGA:  10    -0.202702903907E+04   -0.15429E-04   -0.15569E-04  1304   0.207E-04 0.265E-05
 gam= 0.328 trial= 0.601  step= 0.580 mean= 0.601
 gam= 0.388 g(H,U,f)=  0.781E-05 0.248E-06 0.270E-23 ort(H,U,f) =-0.134E-05-0.562E-07-0.860E-24
CGA:  11    -0.202702904535E+04   -0.62793E-05   -0.62642E-05  1304   0.806E-05-0.140E-05
 gam= 0.388 trial= 0.600  step= 0.535 mean= 0.600
 gam= 0.328 g(H,U,f)=  0.255E-05 0.845E-07 0.115E-23 ort(H,U,f) = 0.640E-06-0.304E-07-0.148E-23
CGA:  12    -0.202702904733E+04   -0.19884E-05   -0.20080E-05  1304   0.264E-05 0.609E-06
 gam= 0.328 trial= 0.597  step= 0.767 mean= 0.597
 gam= 0.419 g(H,U,f)=  0.105E-05 0.513E-07 0.157E-24 ort(H,U,f) =-0.330E-06-0.963E-08-0.243E-24
CGA:  13    -0.202702904839E+04   -0.10589E-05   -0.10880E-05  1304   0.111E-05-0.340E-06
 gam= 0.419 trial= 0.605  step= 0.575 mean= 0.605
 gam= 0.332 g(H,U,f)=  0.353E-06 0.146E-07 0.821E-25 ort(H,U,f) = 0.942E-07 0.151E-07 0.386E-25
CGA:  14    -0.202702904867E+04   -0.27566E-06   -0.27712E-06  1304   0.367E-06 0.109E-06
 gam= 0.332 trial= 0.604  step= 0.727 mean= 0.604
 gam= 0.532 g(H,U,f)=  0.189E-06 0.657E-08 0.148E-24 ort(H,U,f) =-0.968E-07 0.649E-08-0.125E-24
CGA:  15    -0.202702904881E+04   -0.14139E-06   -0.14671E-06  1304   0.195E-06-0.903E-07
 gam= 0.532 trial= 0.610  step= 0.384 mean= 0.610
 gam= 0.376 g(H,U,f)=  0.716E-07 0.191E-08 0.117E-25 ort(H,U,f) = 0.313E-07 0.424E-08 0.229E-25
CGA:  16    -0.202702904884E+04   -0.24178E-07   -0.28269E-07  1304   0.735E-07 0.356E-07
 gam= 0.376 trial= 0.599  step= 0.482 mean= 0.599
 final diagonalization
  94 F= -.20484728E+04 E0= -.20484728E+04  d E =-.800369E-03
 curvature:  34.85 expect dE= 0.509E+00 dE for cont linesearch  0.271E-02
 ZBRENT: bracketing found
 ZBRENT: interpolating
 opt :   0.8181  next Energy= -2048.473505 (dE=-0.153E-02)
 bond charge predicted
       N       E                     dE             d eps       ncg     rms          ort
 gam= 0.000 g(H,U,f)=  0.820E+00 0.738E-01 0.437E-20 ort(H,U,f) = 0.000E+00 0.000E+00 0.000E+00
SDA:   1    -0.202669021534E+04    0.33883E+00    0.00000E+00  1304   0.894E+00 0.000E+00
 gam= 0.000 trial= 0.593  step= 0.575 mean= 0.593
 gam= 0.279 g(H,U,f)=  0.232E+00 0.171E-01 0.442E-24 ort(H,U,f) = 0.191E-01-0.190E-01 0.631E-24
CGA:   2    -0.202694725405E+04   -0.25704E+00   -0.25704E+00  1304   0.249E+00 0.101E-04
 gam= 0.279 trial= 0.592  step= 0.566 mean= 0.592
 gam= 0.172 g(H,U,f)=  0.412E-01 0.156E-02 0.164E-20 ort(H,U,f) =-0.108E-02 0.109E-02-0.189E-21
CGA:   3    -0.202701772048E+04   -0.70466E-01   -0.70466E-01  1304   0.428E-01 0.819E-05
 gam= 0.172 trial= 0.591  step= 0.468 mean= 0.591
 gam= 0.208 g(H,U,f)=  0.816E-02 0.746E-03 0.183E-19 ort(H,U,f) =-0.353E-03 0.328E-03-0.554E-19
CGA:   4    -0.202702773549E+04   -0.10015E-01   -0.10013E-01  1304   0.890E-02-0.246E-04
 gam= 0.208 trial= 0.584  step= 0.545 mean= 0.584
 gam= 0.242 g(H,U,f)=  0.195E-02 0.212E-03 0.491E-21 ort(H,U,f) =-0.359E-03 0.373E-03-0.832E-21
CGA:   5    -0.202703016088E+04   -0.24254E-02   -0.24256E-02  1304   0.216E-02 0.134E-04
 gam= 0.242 trial= 0.582  step= 0.584 mean= 0.582
 gam= 0.456 g(H,U,f)=  0.901E-03 0.843E-04 0.435E-21 ort(H,U,f) =-0.182E-03 0.165E-03 0.347E-21
CGA:   6    -0.202703079250E+04   -0.63162E-03   -0.63164E-03  1304   0.985E-03-0.164E-04
 gam= 0.456 trial= 0.583  step= 0.521 mean= 0.583
 gam= 0.359 g(H,U,f)=  0.320E-03 0.337E-04 0.517E-21 ort(H,U,f) =-0.743E-04 0.865E-04-0.830E-21
CGA:   7    -0.202703104673E+04   -0.25423E-03   -0.25460E-03  1304   0.354E-03 0.122E-04
 gam= 0.359 trial= 0.579  step= 0.684 mean= 0.579
 gam= 0.290 g(H,U,f)=  0.989E-04 0.386E-05 0.168E-21 ort(H,U,f) =-0.255E-04 0.181E-04-0.126E-21
CGA:   8    -0.202703116890E+04   -0.12218E-03   -0.12256E-03  1304   0.103E-03-0.736E-05
 gam= 0.290 trial= 0.585  step= 0.643 mean= 0.585
 gam= 0.256 g(H,U,f)=  0.257E-04 0.623E-06 0.167E-21 ort(H,U,f) = 0.585E-06 0.178E-05-0.147E-21
CGA:   9    -0.202703120131E+04   -0.32410E-04   -0.32342E-04  1304   0.263E-04 0.236E-05
 gam= 0.256 trial= 0.588  step= 0.586 mean= 0.588
 gam= 0.441 g(H,U,f)=  0.113E-04 0.300E-06 0.165E-22 ort(H,U,f) =-0.210E-05-0.294E-08-0.407E-22
CGA:  10    -0.202703120919E+04   -0.78779E-05   -0.78760E-05  1304   0.116E-04-0.210E-05
 gam= 0.441 trial= 0.587  step= 0.432 mean= 0.587
 gam= 0.255 g(H,U,f)=  0.287E-05 0.916E-07 0.106E-22 ort(H,U,f) = 0.105E-05-0.477E-09-0.117E-23
CGA:  11    -0.202703121141E+04   -0.22211E-05   -0.23030E-05  1304   0.296E-05 0.105E-05
 gam= 0.255 trial= 0.580  step= 0.691 mean= 0.580
 gam= 0.425 g(H,U,f)=  0.118E-05 0.797E-07 0.231E-22 ort(H,U,f) =-0.374E-07-0.375E-07-0.160E-22
CGA:  12    -0.202703121252E+04   -0.11100E-05   -0.11141E-05  1304   0.126E-05-0.749E-07
 gam= 0.425 trial= 0.585  step= 0.792 mean= 0.585
 gam= 0.680 g(H,U,f)=  0.806E-06 0.504E-07 0.122E-22 ort(H,U,f) =-0.287E-06-0.240E-07-0.119E-22
CGA:  13    -0.202703121298E+04   -0.45353E-06   -0.48585E-06  1304   0.856E-06-0.311E-06
 gam= 0.680 trial= 0.596  step= 0.315 mean= 0.596
 gam= 0.364 g(H,U,f)=  0.291E-06 0.203E-07 0.654E-23 ort(H,U,f) = 0.188E-06 0.196E-07 0.301E-23
CGA:  14    -0.202703121305E+04   -0.72177E-07   -0.10145E-06  1304   0.312E-06 0.208E-06
 gam= 0.364 trial= 0.582  step= 0.288 mean= 0.582
 final diagonalization
  95 F= -.20484735E+04 E0= -.20484735E+04  d E =-.152348E-02
 curvature:  -2.09 expect dE=-0.942E-02 dE for cont linesearch -0.595E-08
 trial: gam= 1.20071 g(F)=  0.450E-02 g(S)=  0.745E-05 ort = 0.153E-04 (trialstep = 0.183E+00)
 search vector abs. value=  0.123E+00
 bond charge predicted
       N       E                     dE             d eps       ncg     rms          ort
 gam= 0.000 g(H,U,f)=  0.132E+00 0.119E-01 0.423E-19 ort(H,U,f) = 0.000E+00 0.000E+00 0.000E+00
SDA:   1    -0.202697641289E+04    0.54800E-01    0.00000E+00  1304   0.144E+00 0.000E+00
 gam= 0.000 trial= 0.567  step= 0.575 mean= 0.567
 gam= 0.278 g(H,U,f)=  0.374E-01 0.262E-02 0.929E-19 ort(H,U,f) = 0.292E-02-0.289E-02-0.280E-18
CGA:   2    -0.202701775638E+04   -0.41343E-01   -0.41343E-01  1304   0.400E-01 0.231E-04
 gam= 0.278 trial= 0.567  step= 0.566 mean= 0.567
 gam= 0.172 g(H,U,f)=  0.663E-02 0.250E-03 0.169E-18 ort(H,U,f) =-0.172E-03 0.167E-03 0.335E-20
CGA:   3    -0.202702908906E+04   -0.11333E-01   -0.11333E-01  1304   0.688E-02-0.480E-05
 gam= 0.172 trial= 0.567  step= 0.470 mean= 0.567
 gam= 0.207 g(H,U,f)=  0.130E-02 0.122E-03 0.339E-20 ort(H,U,f) =-0.428E-04 0.532E-04-0.116E-19
CGA:   4    -0.202703070557E+04   -0.16165E-02   -0.16170E-02  1304   0.143E-02 0.105E-04
 gam= 0.207 trial= 0.562  step= 0.550 mean= 0.562
 gam= 0.243 g(H,U,f)=  0.313E-03 0.337E-04 0.599E-21 ort(H,U,f) =-0.633E-04 0.589E-04-0.445E-21
CGA:   5    -0.202703109860E+04   -0.39302E-03   -0.39300E-03  1304   0.347E-03-0.444E-05
 gam= 0.243 trial= 0.562  step= 0.576 mean= 0.562
 gam= 0.433 g(H,U,f)=  0.136E-03 0.136E-04 0.966E-22 ort(H,U,f) =-0.206E-04 0.269E-04 0.175E-21
CGA:   6    -0.202703119813E+04   -0.99530E-04   -0.99485E-04  1304   0.150E-03 0.635E-05
 gam= 0.433 trial= 0.562  step= 0.553 mean= 0.562
 gam= 0.418 g(H,U,f)=  0.572E-04 0.554E-05 0.282E-22 ort(H,U,f) =-0.178E-04 0.132E-04-0.834E-22
CGA:   7    -0.202703124040E+04   -0.42270E-04   -0.42249E-04  1304   0.627E-04-0.462E-05
 gam= 0.418 trial= 0.562  step= 0.596 mean= 0.562
 gam= 0.247 g(H,U,f)=  0.148E-04 0.653E-06 0.356E-22 ort(H,U,f) =-0.184E-06 0.348E-05 0.727E-23
CGA:   8    -0.202703125855E+04   -0.18148E-04   -0.18093E-04  1304   0.155E-04 0.329E-05
 gam= 0.247 trial= 0.564  step= 0.705 mean= 0.564
 gam= 0.327 g(H,U,f)=  0.494E-05 0.135E-06 0.170E-22 ort(H,U,f) =-0.105E-05 0.257E-06-0.243E-22
CGA:   9    -0.202703126424E+04   -0.56950E-05   -0.57509E-05  1304   0.507E-05-0.791E-06
 gam= 0.327 trial= 0.571  step= 0.460 mean= 0.571
 gam= 0.281 g(H,U,f)=  0.140E-05 0.251E-07 0.110E-24 ort(H,U,f) = 0.537E-06 0.340E-07-0.721E-24
CGA:  10    -0.202703126532E+04   -0.10766E-05   -0.11082E-05  1304   0.142E-05 0.571E-06
 gam= 0.281 trial= 0.565  step= 0.682 mean= 0.565
 gam= 0.497 g(H,U,f)=  0.684E-06 0.241E-07 0.202E-23 ort(H,U,f) =-0.271E-06-0.555E-08-0.400E-24
CGA:  11    -0.202703126584E+04   -0.52432E-06   -0.54071E-06  1304   0.709E-06-0.276E-06
 gam= 0.497 trial= 0.571  step= 0.451 mean= 0.571
 gam= 0.351 g(H,U,f)=  0.243E-06 0.620E-08 0.173E-24 ort(H,U,f) = 0.104E-06-0.876E-09-0.528E-24
CGA:  12    -0.202703126597E+04   -0.12251E-06   -0.12889E-06  1304   0.249E-06 0.103E-06
 gam= 0.351 trial= 0.565  step= 0.584 mean= 0.565
 gam= 0.373 g(H,U,f)=  0.883E-07 0.438E-08 0.377E-24 ort(H,U,f) = 0.187E-08-0.152E-08-0.173E-25
CGA:  13    -0.202703126605E+04   -0.83077E-07   -0.83223E-07  1304   0.927E-07 0.350E-09
 gam= 0.373 trial= 0.566  step= 2.338 mean= 0.566
 gam= 0.000 g(H,U,f)=  0.148E-05 0.460E-07 0.110E-22 ort(H,U,f) =-0.305E-06-0.638E-08-0.199E-23
CGA:  14    -0.202703126588E+04    0.16785E-06   -0.10852E-06  1304   0.153E-05-0.312E-06
 gam= 0.000 trial= 0.655  step= 0.258 mean= 0.655
 gam= 0.108 g(H,U,f)=  0.163E-06 0.246E-08 0.353E-24 ort(H,U,f) = 0.241E-06 0.657E-08 0.196E-23
CGA:  15    -0.202703126603E+04   -0.14854E-06   -0.19758E-06  1304   0.166E-06 0.247E-06
 gam= 0.108 trial= 0.635  step= 0.490 mean= 0.635
 gam= 0.347 g(H,U,f)=  0.544E-07 0.313E-08 0.894E-24 ort(H,U,f) = 0.112E-07-0.251E-08-0.897E-24
CGA:  16    -0.202703126608E+04   -0.46624E-07   -0.47227E-07  1304   0.575E-07 0.867E-08
 gam= 0.347 trial= 0.628  step= 4.079 mean= 0.628
 gam= 0.347 trial= 4.079  step= 4.079 mean= 0.990
 gam= 0.000 g(H,U,f)=  0.523E-05 0.119E-06 0.391E-22 ort(H,U,f) =-0.519E-06-0.110E-07-0.398E-23
CGA:  17    -0.202703126528E+04    0.79244E-06    0.25338E+03  1304   0.535E-05-0.530E-06
 gam= 0.000 trial= 1.145  step= 0.273 mean= 1.145
 gam= 0.095 g(H,U,f)=  0.504E-06 0.404E-08 0.145E-23 ort(H,U,f) = 0.320E-06 0.156E-08 0.742E-23
CGA:  18    -0.202703126587E+04   -0.58951E-06   -0.72960E-06  1304   0.508E-06 0.321E-06
 gam= 0.095 trial= 1.101  step= 0.690 mean= 1.101
 gam= 0.212 g(H,U,f)=  0.101E-06 0.641E-08 0.566E-23 ort(H,U,f) =-0.305E-07-0.336E-08-0.422E-23
CGA:  19    -0.202703126607E+04   -0.19291E-06   -0.18592E-06  1304   0.108E-06-0.339E-07
 gam= 0.212 trial= 1.081  step= 0.551 mean= 1.081
 gam= 0.400 g(H,U,f)=  0.416E-07 0.146E-08 0.907E-24 ort(H,U,f) =-0.234E-07-0.180E-08-0.193E-23
CGA:  20    -0.202703126610E+04   -0.34161E-07   -0.27673E-07  1304   0.430E-07-0.252E-07
 gam= 0.400 trial= 1.054  step= 0.269 mean= 1.054
 final diagonalization
  96 F= -.20484742E+04 E0= -.20484742E+04  d E =-.662996E-03
 trial-energy change:   -0.000663  1 .order   -0.000672   -0.000828   -0.000516
 step:   0.4852(harm=  0.4852)  dis= 0.00446  next Energy= -2048.474600 (dE=-0.110E-02)
 bond charge predicted
       N       E                     dE             d eps       ncg     rms          ort
 gam= 0.000 g(H,U,f)=  0.361E+00 0.325E-01 0.589E-19 ort(H,U,f) = 0.000E+00 0.000E+00 0.000E+00
SDA:   1    -0.202688068422E+04    0.15058E+00    0.00000E+00  1304   0.393E+00 0.000E+00
 gam= 0.000 trial= 1.015  step= 0.575 mean= 1.015
 gam= 0.278 g(H,U,f)=  0.102E+00 0.714E-02 0.924E-18 ort(H,U,f) = 0.796E-02-0.791E-02-0.267E-17
CGA:   2    -0.202699372703E+04   -0.11304E+00   -0.11304E+00  1304   0.109E+00 0.514E-04
 gam= 0.278 trial= 0.993  step= 0.566 mean= 0.993
 gam= 0.172 g(H,U,f)=  0.181E-01 0.682E-03 0.552E-18 ort(H,U,f) =-0.461E-03 0.455E-03 0.814E-20
CGA:   3    -0.202702470818E+04   -0.30981E-01   -0.30982E-01  1304   0.188E-01-0.602E-05
 gam= 0.172 trial= 0.972  step= 0.470 mean= 0.972
 gam= 0.208 g(H,U,f)=  0.358E-02 0.331E-03 0.403E-20 ort(H,U,f) =-0.134E-03 0.144E-03-0.140E-19
CGA:   4    -0.202702913054E+04   -0.44224E-02   -0.44252E-02  1304   0.391E-02 0.102E-04
 gam= 0.208 trial= 0.946  step= 0.548 mean= 0.946
 gam= 0.243 g(H,U,f)=  0.857E-03 0.921E-04 0.760E-21 ort(H,U,f) =-0.165E-03 0.161E-03-0.544E-21
CGA:   5    -0.202703020314E+04   -0.10726E-02   -0.10717E-02  1304   0.949E-03-0.439E-05
 gam= 0.243 trial= 0.927  step= 0.580 mean= 0.927
 gam= 0.443 g(H,U,f)=  0.384E-03 0.370E-04 0.118E-21 ort(H,U,f) =-0.664E-04 0.729E-04 0.200E-21
CGA:   6    -0.202703047693E+04   -0.27379E-03   -0.27491E-03  1304   0.421E-03 0.652E-05
 gam= 0.443 trial= 0.909  step= 0.537 mean= 0.909
 gam= 0.391 g(H,U,f)=  0.150E-03 0.149E-04 0.215E-22 ort(H,U,f) =-0.415E-04 0.368E-04-0.730E-22
CGA:   7    -0.202703059163E+04   -0.11470E-03   -0.11384E-03  1304   0.165E-03-0.463E-05
 gam= 0.391 trial= 0.891  step= 0.634 mean= 0.891
 gam= 0.265 g(H,U,f)=  0.419E-04 0.173E-05 0.369E-22 ort(H,U,f) =-0.531E-05 0.873E-05 0.867E-23
CGA:   8    -0.202703064279E+04   -0.51162E-04   -0.51600E-04  1304   0.436E-04 0.341E-05
 gam= 0.265 trial= 0.878  step= 0.676 mean= 0.878
 gam= 0.308 g(H,U,f)=  0.131E-04 0.332E-06 0.164E-22 ort(H,U,f) =-0.172E-05 0.753E-06-0.235E-22
CGA:   9    -0.202703065793E+04   -0.15140E-04   -0.15042E-04  1304   0.134E-04-0.967E-06
 gam= 0.308 trial= 0.868  step= 0.479 mean= 0.868
 gam= 0.315 g(H,U,f)=  0.414E-05 0.806E-07 0.395E-24 ort(H,U,f) = 0.658E-06 0.711E-07-0.141E-23
CGA:  10    -0.202703066094E+04   -0.30053E-05   -0.31470E-05  1304   0.422E-05 0.729E-06
 gam= 0.315 trial= 0.848  step= 0.605 mean= 0.848
 gam= 0.401 g(H,U,f)=  0.164E-05 0.543E-07 0.139E-23 ort(H,U,f) =-0.363E-06-0.148E-07-0.952E-25
CGA:  11    -0.202703066233E+04   -0.13925E-05   -0.13465E-05  1304   0.170E-05-0.377E-06
 gam= 0.401 trial= 0.836  step= 0.517 mean= 0.836
 gam= 0.324 g(H,U,f)=  0.532E-06 0.170E-07 0.546E-24 ort(H,U,f) = 0.160E-06-0.558E-08-0.828E-24
CGA:  12    -0.202703066270E+04   -0.37420E-06   -0.39902E-06  1304   0.549E-06 0.154E-06
 gam= 0.324 trial= 0.820  step= 0.783 mean= 0.820
 gam= 0.429 g(H,U,f)=  0.225E-06 0.103E-07 0.435E-26 ort(H,U,f) =-0.856E-07-0.308E-08-0.246E-25
CGA:  13    -0.202703066294E+04   -0.23642E-06   -0.23463E-06  1304   0.235E-06-0.887E-07
 gam= 0.429 trial= 0.818  step= 0.595 mean= 0.818
 gam= 0.314 g(H,U,f)=  0.711E-07 0.284E-08 0.218E-25 ort(H,U,f) = 0.230E-07 0.321E-08-0.139E-25
CGA:  14    -0.202703066300E+04   -0.55923E-07   -0.58691E-07  1304   0.739E-07 0.262E-07
 gam= 0.314 trial= 0.807  step= 0.772 mean= 0.807
 final diagonalization
  97 F= -.20484746E+04 E0= -.20484746E+04  d E =-.107183E-02
 curvature:  -6.61 expect dE=-0.169E-01 dE for cont linesearch -0.860E-07
 trial: gam= 0.58440 g(F)=  0.243E-02 g(S)=  0.122E-03 ort =-0.401E-04 (trialstep = 0.243E+00)
 search vector abs. value=  0.447E-01
 bond charge predicted
       N       E                     dE             d eps       ncg     rms          ort
 gam= 0.000 g(H,U,f)=  0.835E-01 0.787E-02 0.197E-21 ort(H,U,f) = 0.000E+00 0.000E+00 0.000E+00
SDA:   1    -0.202699690468E+04    0.33758E-01    0.00000E+00  1304   0.914E-01 0.000E+00
 gam= 0.000 trial= 0.805  step= 0.570 mean= 0.805
 gam= 0.278 g(H,U,f)=  0.237E-01 0.171E-02 0.323E-20 ort(H,U,f) = 0.197E-02-0.196E-02 0.199E-20
CGA:   2    -0.202702295568E+04   -0.26051E-01   -0.26051E-01  1304   0.254E-01 0.276E-05
 gam= 0.278 trial= 0.794  step= 0.574 mean= 0.794
 gam= 0.169 g(H,U,f)=  0.412E-02 0.162E-03 0.187E-19 ort(H,U,f) =-0.996E-04 0.105E-03-0.764E-20
CGA:   3    -0.202703023948E+04   -0.72838E-02   -0.72844E-02  1304   0.428E-02 0.515E-05
 gam= 0.169 trial= 0.783  step= 0.477 mean= 0.783
 gam= 0.204 g(H,U,f)=  0.792E-03 0.799E-04 0.448E-21 ort(H,U,f) =-0.289E-04 0.270E-04-0.132E-20
CGA:   4    -0.202703126093E+04   -0.10214E-02   -0.10212E-02  1304   0.872E-03-0.191E-05
 gam= 0.204 trial= 0.767  step= 0.572 mean= 0.767
 gam= 0.213 g(H,U,f)=  0.166E-03 0.196E-04 0.976E-22 ort(H,U,f) =-0.318E-04 0.341E-04-0.958E-22
CGA:   5    -0.202703151015E+04   -0.24922E-03   -0.24945E-03  1304   0.186E-03 0.228E-05
 gam= 0.213 trial= 0.758  step= 0.724 mean= 0.758
 gam= 0.350 g(H,U,f)=  0.587E-04 0.645E-05 0.131E-23 ort(H,U,f) =-0.146E-04 0.143E-04 0.784E-23
CGA:   6    -0.202703157766E+04   -0.67503E-04   -0.67497E-04  1304   0.652E-04-0.331E-06
 gam= 0.350 trial= 0.756  step= 0.702 mean= 0.756
 gam= 0.434 g(H,U,f)=  0.264E-04 0.185E-05 0.197E-23 ort(H,U,f) =-0.474E-05 0.505E-05 0.465E-23
CGA:   7    -0.202703160049E+04   -0.22829E-04   -0.22837E-04  1304   0.283E-04 0.310E-06
 gam= 0.434 trial= 0.753  step= 0.535 mean= 0.753
 gam= 0.370 g(H,U,f)=  0.101E-04 0.308E-06 0.140E-23 ort(H,U,f) =-0.879E-06 0.112E-05 0.323E-23
CGA:   8    -0.202703160806E+04   -0.75774E-05   -0.76035E-05  1304   0.105E-04 0.239E-06
 gam= 0.370 trial= 0.742  step= 0.534 mean= 0.742
 gam= 0.251 g(H,U,f)=  0.257E-05 0.481E-07 0.326E-25 ort(H,U,f) =-0.179E-06 0.147E-06-0.383E-24
CGA:   9    -0.202703161088E+04   -0.28170E-05   -0.28136E-05  1304   0.262E-05-0.323E-07
 gam= 0.251 trial= 0.732  step= 0.601 mean= 0.732
 gam= 0.288 g(H,U,f)=  0.726E-06 0.280E-07 0.224E-24 ort(H,U,f) = 0.762E-08-0.107E-07 0.165E-24
CGA:  10    -0.202703161167E+04   -0.78615E-06   -0.78611E-06  1304   0.754E-06-0.309E-08
 gam= 0.288 trial= 0.725  step= 0.626 mean= 0.725
 gam= 0.380 g(H,U,f)=  0.274E-06 0.132E-07 0.427E-26 ort(H,U,f) = 0.484E-08-0.943E-08 0.371E-25
CGA:  11    -0.202703161190E+04   -0.23608E-06   -0.23594E-06  1304   0.287E-06-0.459E-08
 gam= 0.380 trial= 0.720  step= 0.652 mean= 0.720
 gam= 0.489 g(H,U,f)=  0.137E-06 0.387E-08 0.148E-25 ort(H,U,f) =-0.169E-07-0.733E-09-0.340E-25
CGA:  12    -0.202703161200E+04   -0.93714E-07   -0.92983E-07  1304   0.140E-06-0.177E-07
 gam= 0.489 trial= 0.717  step= 0.528 mean= 0.717
 final diagonalization
  98 F= -.20484751E+04 E0= -.20484751E+04  d E =-.517371E-03
 trial-energy change:   -0.000517  1 .order   -0.000514   -0.000615   -0.000412
 step:   0.6350(harm=  0.7376)  dis= 0.00380  next Energy= -2048.475437 (dE=-0.863E-03)
 bond charge predicted
       N       E                     dE             d eps       ncg     rms          ort
 gam= 0.000 g(H,U,f)=  0.216E+00 0.204E-01 0.245E-21 ort(H,U,f) = 0.000E+00 0.000E+00 0.000E+00
SDA:   1    -0.202694278325E+04    0.88829E-01    0.00000E+00  1304   0.237E+00 0.000E+00
 gam= 0.000 trial= 0.708  step= 0.570 mean= 0.708
 gam= 0.278 g(H,U,f)=  0.613E-01 0.442E-02 0.909E-20 ort(H,U,f) = 0.508E-02-0.508E-02 0.648E-20
CGA:   2    -0.202701027441E+04   -0.67491E-01   -0.67490E-01  1304   0.658E-01 0.317E-05
 gam= 0.278 trial= 0.701  step= 0.574 mean= 0.701
 gam= 0.169 g(H,U,f)=  0.107E-01 0.420E-03 0.453E-19 ort(H,U,f) =-0.262E-03 0.272E-03-0.186E-19
CGA:   3    -0.202702913999E+04   -0.18866E-01   -0.18866E-01  1304   0.111E-01 0.100E-04
 gam= 0.169 trial= 0.694  step= 0.477 mean= 0.694
 gam= 0.204 g(H,U,f)=  0.205E-02 0.207E-03 0.441E-21 ort(H,U,f) =-0.735E-04 0.703E-04-0.131E-20
CGA:   4    -0.202703178515E+04   -0.26452E-02   -0.26449E-02  1304   0.226E-02-0.326E-05
 gam= 0.204 trial= 0.683  step= 0.573 mean= 0.683
 gam= 0.214 g(H,U,f)=  0.431E-03 0.508E-04 0.118E-21 ort(H,U,f) =-0.838E-04 0.881E-04-0.112E-21
CGA:   5    -0.202703243128E+04   -0.64613E-03   -0.64636E-03  1304   0.482E-03 0.428E-05
 gam= 0.214 trial= 0.678  step= 0.724 mean= 0.678
 gam= 0.350 g(H,U,f)=  0.152E-03 0.167E-04 0.138E-23 ort(H,U,f) =-0.377E-04 0.370E-04 0.823E-23
CGA:   6    -0.202703260600E+04   -0.17472E-03   -0.17474E-03  1304   0.169E-03-0.679E-06
 gam= 0.350 trial= 0.680  step= 0.702 mean= 0.680
 gam= 0.437 g(H,U,f)=  0.690E-04 0.479E-05 0.193E-23 ort(H,U,f) =-0.123E-04 0.131E-04 0.451E-23
CGA:   7    -0.202703266514E+04   -0.59134E-04   -0.59126E-04  1304   0.738E-04 0.745E-06
 gam= 0.437 trial= 0.681  step= 0.534 mean= 0.681
 gam= 0.372 g(H,U,f)=  0.266E-04 0.799E-06 0.124E-23 ort(H,U,f) =-0.260E-05 0.290E-05 0.293E-23
CGA:   8    -0.202703268492E+04   -0.19780E-04   -0.19802E-04  1304   0.274E-04 0.300E-06
 gam= 0.372 trial= 0.674  step= 0.531 mean= 0.674
 gam= 0.245 g(H,U,f)=  0.660E-05 0.123E-06 0.250E-25 ort(H,U,f) =-0.357E-06 0.378E-06-0.313E-24
CGA:   9    -0.202703269223E+04   -0.73100E-05   -0.73115E-05  1304   0.672E-05 0.207E-07
 gam= 0.245 trial= 0.667  step= 0.610 mean= 0.667
 gam= 0.291 g(H,U,f)=  0.188E-05 0.748E-07 0.194E-24 ort(H,U,f) =-0.124E-07-0.309E-07 0.143E-24
CGA:  10    -0.202703269428E+04   -0.20535E-05   -0.20523E-05  1304   0.196E-05-0.433E-07
 gam= 0.291 trial= 0.664  step= 0.617 mean= 0.664
 gam= 0.369 g(H,U,f)=  0.688E-06 0.336E-07 0.306E-26 ort(H,U,f) = 0.406E-07-0.237E-07 0.290E-25
CGA:  11    -0.202703269488E+04   -0.59947E-06   -0.59988E-06  1304   0.722E-06 0.169E-07
 gam= 0.369 trial= 0.662  step= 0.675 mean= 0.662
 gam= 0.519 g(H,U,f)=  0.365E-06 0.104E-07 0.127E-25 ort(H,U,f) =-0.581E-07-0.231E-08-0.278E-25
CGA:  12    -0.202703269513E+04   -0.24551E-06   -0.24586E-06  1304   0.375E-06-0.604E-07
 gam= 0.519 trial= 0.662  step= 0.484 mean= 0.662
 gam= 0.317 g(H,U,f)=  0.114E-06 0.502E-08 0.107E-27 ort(H,U,f) = 0.157E-07 0.260E-08 0.160E-27
CGA:  13    -0.202703269521E+04   -0.81644E-07   -0.83137E-07  1304   0.119E-06 0.183E-07
 gam= 0.317 trial= 0.653  step= 0.724 mean= 0.653
 final diagonalization
  99 F= -.20484755E+04 E0= -.20484755E+04  d E =-.907834E-03
 curvature:  -6.23 expect dE=-0.154E-01 dE for cont linesearch -0.136E-04
 trial: gam= 0.82196 g(F)=  0.243E-02 g(S)=  0.403E-04 ort = 0.313E-03 (trialstep = 0.322E+00)
 search vector abs. value=  0.331E-01
 bond charge predicted
       N       E                     dE             d eps       ncg     rms          ort
 gam= 0.000 g(H,U,f)=  0.110E+00 0.103E-01 0.258E-22 ort(H,U,f) = 0.000E+00 0.000E+00 0.000E+00
SDA:   1    -0.202698827125E+04    0.44424E-01    0.00000E+00  1304   0.120E+00 0.000E+00
 gam= 0.000 trial= 0.657  step= 0.573 mean= 0.657
 gam= 0.277 g(H,U,f)=  0.310E-01 0.226E-02 0.104E-20 ort(H,U,f) = 0.257E-02-0.258E-02 0.435E-21
CGA:   2    -0.202702264429E+04   -0.34373E-01   -0.34372E-01  1304   0.332E-01-0.933E-05
 gam= 0.277 trial= 0.653  step= 0.576 mean= 0.653
 gam= 0.167 g(H,U,f)=  0.534E-02 0.212E-03 0.344E-20 ort(H,U,f) =-0.154E-03 0.168E-03-0.201E-20
CGA:   3    -0.202703220950E+04   -0.95652E-02   -0.95657E-02  1304   0.555E-02 0.140E-04
 gam= 0.167 trial= 0.649  step= 0.476 mean= 0.649
 gam= 0.212 g(H,U,f)=  0.107E-02 0.102E-03 0.179E-21 ort(H,U,f) =-0.502E-04 0.394E-04-0.360E-21
CGA:   4    -0.202703353316E+04   -0.13237E-02   -0.13228E-02  1304   0.118E-02-0.107E-04
 gam= 0.212 trial= 0.640  step= 0.548 mean= 0.640
 gam= 0.228 g(H,U,f)=  0.240E-03 0.275E-04 0.208E-23 ort(H,U,f) =-0.392E-04 0.484E-04-0.142E-22
CGA:   5    -0.202703385437E+04   -0.32121E-03   -0.32163E-03  1304   0.268E-03 0.916E-05
 gam= 0.228 trial= 0.636  step= 0.648 mean= 0.636
 gam= 0.456 g(H,U,f)=  0.112E-03 0.102E-04 0.135E-23 ort(H,U,f) =-0.264E-04 0.208E-04-0.949E-24
CGA:   6    -0.202703394181E+04   -0.87432E-04   -0.87466E-04  1304   0.122E-03-0.561E-05
 gam= 0.456 trial= 0.636  step= 0.511 mean= 0.636
 gam= 0.388 g(H,U,f)=  0.431E-04 0.420E-05 0.946E-24 ort(H,U,f) =-0.691E-05 0.107E-04-0.746E-24
CGA:   7    -0.202703397211E+04   -0.30308E-04   -0.30546E-04  1304   0.473E-04 0.381E-05
 gam= 0.388 trial= 0.630  step= 0.647 mean= 0.630
 gam= 0.302 g(H,U,f)=  0.138E-04 0.475E-06 0.349E-25 ort(H,U,f) =-0.384E-05 0.215E-05-0.128E-24
CGA:   8    -0.202703398790E+04   -0.15785E-04   -0.15800E-04  1304   0.143E-04-0.168E-05
 gam= 0.302 trial= 0.631  step= 0.634 mean= 0.631
 gam= 0.219 g(H,U,f)=  0.306E-05 0.681E-07 0.729E-25 ort(H,U,f) = 0.431E-06 0.248E-06 0.622E-26
CGA:   9    -0.202703399227E+04   -0.43676E-05   -0.43663E-05  1304   0.313E-05 0.679E-06
 gam= 0.219 trial= 0.631  step= 0.740 mean= 0.631
 gam= 0.590 g(H,U,f)=  0.179E-05 0.585E-07 0.957E-25 ort(H,U,f) =-0.656E-06-0.284E-07-0.860E-25
CGA:  10    -0.202703399344E+04   -0.11745E-05   -0.12120E-05  1304   0.184E-05-0.685E-06
 gam= 0.590 trial= 0.636  step= 0.338 mean= 0.636
 gam= 0.301 g(H,U,f)=  0.540E-06 0.164E-07 0.146E-25 ort(H,U,f) = 0.318E-06-0.156E-09 0.175E-25
CGA:  11    -0.202703399364E+04   -0.19575E-06   -0.24324E-06  1304   0.556E-06 0.318E-06
 gam= 0.301 trial= 0.622  step= 0.383 mean= 0.622
 gam= 0.474 g(H,U,f)=  0.252E-06 0.114E-07 0.139E-25 ort(H,U,f) = 0.134E-06-0.246E-08-0.193E-25
CGA:  12    -0.202703399375E+04   -0.10907E-06   -0.12483E-06  1304   0.263E-06 0.132E-06
 gam= 0.474 trial= 0.610  step= 0.917 mean= 0.610
 gam= 0.000 g(H,U,f)=  0.593E-06 0.111E-07 0.958E-26 ort(H,U,f) =-0.338E-06-0.277E-08 0.398E-26
CGA:  13    -0.202703399384E+04   -0.97141E-07   -0.14952E-06  1304   0.604E-06-0.340E-06
 gam= 0.000 trial= 0.625  step= 0.242 mean= 0.625
 final diagonalization
 100 F= -.20484761E+04 E0= -.20484761E+04  d E =-.624817E-03
 trial-energy change:   -0.000625  1 .order   -0.000624   -0.000877   -0.000372
 step:   0.5589(harm=  0.5589)  dis= 0.00290  next Energy= -2048.476243 (dE=-0.761E-03)
 bond charge predicted
       N       E                     dE             d eps       ncg     rms          ort
 gam= 0.000 g(H,U,f)=  0.597E-01 0.560E-02 0.220E-22 ort(H,U,f) = 0.000E+00 0.000E+00 0.000E+00
SDA:   1    -0.202700976812E+04    0.24226E-01    0.00000E+00  1304   0.653E-01 0.000E+00
 gam= 0.000 trial= 0.606  step= 0.573 mean= 0.606
 gam= 0.277 g(H,U,f)=  0.168E-01 0.123E-02 0.645E-21 ort(H,U,f) = 0.140E-02-0.141E-02 0.246E-21
CGA:   2    -0.202702846002E+04   -0.18692E-01   -0.18692E-01  1304   0.181E-01-0.744E-05
 gam= 0.277 trial= 0.604  step= 0.576 mean= 0.604
 gam= 0.167 g(H,U,f)=  0.290E-02 0.115E-03 0.214E-20 ort(H,U,f) =-0.802E-04 0.913E-04-0.125E-20
CGA:   3    -0.202703365770E+04   -0.51977E-02   -0.51978E-02  1304   0.302E-02 0.111E-04
 gam= 0.167 trial= 0.603  step= 0.477 mean= 0.603
 gam= 0.212 g(H,U,f)=  0.585E-03 0.552E-04 0.162E-21 ort(H,U,f) =-0.298E-04 0.212E-04-0.323E-21
CGA:   4    -0.202703437740E+04   -0.71971E-03   -0.71917E-03  1304   0.640E-03-0.861E-05
 gam= 0.212 trial= 0.596  step= 0.546 mean= 0.596
 gam= 0.226 g(H,U,f)=  0.130E-03 0.149E-04 0.141E-23 ort(H,U,f) =-0.192E-04 0.264E-04-0.104E-22
CGA:   5    -0.202703455152E+04   -0.17412E-03   -0.17430E-03  1304   0.145E-03 0.720E-05
 gam= 0.226 trial= 0.594  step= 0.656 mean= 0.594
 gam= 0.468 g(H,U,f)=  0.621E-04 0.549E-05 0.109E-23 ort(H,U,f) =-0.156E-04 0.112E-04-0.853E-24
CGA:   6    -0.202703459935E+04   -0.47824E-04   -0.47963E-04  1304   0.676E-04-0.444E-05
 gam= 0.468 trial= 0.597  step= 0.499 mean= 0.597
 gam= 0.373 g(H,U,f)=  0.230E-04 0.224E-05 0.672E-24 ort(H,U,f) =-0.293E-05 0.589E-05-0.527E-24
CGA:   7    -0.202703461555E+04   -0.16204E-04   -0.16349E-04  1304   0.252E-04 0.297E-05
 gam= 0.373 trial= 0.592  step= 0.663 mean= 0.592
 gam= 0.311 g(H,U,f)=  0.761E-05 0.259E-06 0.199E-25 ort(H,U,f) =-0.235E-05 0.113E-05-0.827E-25
CGA:   8    -0.202703462424E+04   -0.86932E-05   -0.87365E-05  1304   0.786E-05-0.122E-05
 gam= 0.311 trial= 0.596  step= 0.636 mean= 0.596
 gam= 0.206 g(H,U,f)=  0.158E-05 0.345E-07 0.757E-25 ort(H,U,f) = 0.295E-06 0.123E-06 0.120E-25
CGA:   9    -0.202703462663E+04   -0.23901E-05   -0.23817E-05  1304   0.162E-05 0.418E-06
 gam= 0.206 trial= 0.598  step= 0.803 mean= 0.598
 gam= 0.589 g(H,U,f)=  0.918E-06 0.351E-07 0.144E-24 ort(H,U,f) =-0.396E-06-0.207E-07-0.109E-24
CGA:  10    -0.202703462727E+04   -0.64052E-06   -0.68331E-06  1304   0.953E-06-0.417E-06
 gam= 0.589 trial= 0.608  step= 0.334 mean= 0.608
 gam= 0.348 g(H,U,f)=  0.323E-06 0.934E-08 0.153E-25 ort(H,U,f) = 0.191E-06 0.255E-09 0.260E-25
CGA:  11    -0.202703462736E+04   -0.92135E-07   -0.11818E-06  1304   0.332E-06 0.191E-06
 gam= 0.348 trial= 0.594  step= 0.363 mean= 0.594
 final diagonalization
 101 F= -.20484762E+04 E0= -.20484762E+04  d E =-.761135E-03
 curvature:  -3.40 expect dE=-0.571E-02 dE for cont linesearch -0.902E-07
 trial: gam= 0.88396 g(F)=  0.166E-02 g(S)=  0.183E-04 ort =-0.297E-04 (trialstep = 0.369E+00)
 search vector abs. value=  0.275E-01
 bond charge predicted
       N       E                     dE             d eps       ncg     rms          ort
 gam= 0.000 g(H,U,f)=  0.117E+00 0.112E-01 0.102E-21 ort(H,U,f) = 0.000E+00 0.000E+00 0.000E+00
SDA:   1    -0.202698699652E+04    0.47631E-01    0.00000E+00  1304   0.129E+00 0.000E+00
 gam= 0.000 trial= 0.583  step= 0.569 mean= 0.583
 gam= 0.273 g(H,U,f)=  0.327E-01 0.240E-02 0.416E-20 ort(H,U,f) = 0.273E-02-0.274E-02 0.218E-20
CGA:   2    -0.202702358032E+04   -0.36584E-01   -0.36584E-01  1304   0.351E-01-0.567E-05
 gam= 0.273 trial= 0.582  step= 0.578 mean= 0.582
 gam= 0.168 g(H,U,f)=  0.569E-02 0.223E-03 0.113E-19 ort(H,U,f) =-0.128E-03 0.139E-03-0.590E-20
CGA:   3    -0.202703373666E+04   -0.10156E-01   -0.10156E-01  1304   0.592E-02 0.114E-04
 gam= 0.168 trial= 0.582  step= 0.480 mean= 0.582
 gam= 0.207 g(H,U,f)=  0.112E-02 0.107E-03 0.459E-21 ort(H,U,f) =-0.448E-04 0.368E-04-0.982E-21
CGA:   4    -0.202703515851E+04   -0.14219E-02   -0.14215E-02  1304   0.122E-02-0.798E-05
 gam= 0.207 trial= 0.577  step= 0.558 mean= 0.577
 gam= 0.217 g(H,U,f)=  0.239E-03 0.275E-04 0.149E-22 ort(H,U,f) =-0.390E-04 0.472E-04-0.585E-22
CGA:   5    -0.202703549961E+04   -0.34110E-03   -0.34118E-03  1304   0.266E-03 0.821E-05
 gam= 0.217 trial= 0.576  step= 0.696 mean= 0.576
 gam= 0.412 g(H,U,f)=  0.100E-03 0.941E-05 0.974E-24 ort(H,U,f) =-0.253E-04 0.199E-04 0.545E-24
CGA:   6    -0.202703559262E+04   -0.93007E-04   -0.93330E-04  1304   0.110E-03-0.538E-05
 gam= 0.412 trial= 0.582  step= 0.554 mean= 0.582
 gam= 0.429 g(H,U,f)=  0.435E-04 0.361E-05 0.252E-24 ort(H,U,f) =-0.477E-05 0.914E-05-0.580E-24
CGA:   7    -0.202703562237E+04   -0.29748E-04   -0.29809E-04  1304   0.471E-04 0.437E-05
 gam= 0.429 trial= 0.580  step= 0.590 mean= 0.580
 gam= 0.333 g(H,U,f)=  0.152E-04 0.501E-06 0.268E-24 ort(H,U,f) =-0.416E-05 0.200E-05 0.145E-26
CGA:   8    -0.202703563679E+04   -0.14426E-04   -0.14436E-04  1304   0.157E-04-0.216E-05
 gam= 0.333 trial= 0.581  step= 0.575 mean= 0.581
 gam= 0.216 g(H,U,f)=  0.332E-05 0.688E-07 0.984E-26 ort(H,U,f) = 0.735E-06 0.282E-06-0.501E-25
CGA:   9    -0.202703564109E+04   -0.42983E-05   -0.43012E-05  1304   0.338E-05 0.102E-05
 gam= 0.216 trial= 0.581  step= 0.746 mean= 0.581
 gam= 0.526 g(H,U,f)=  0.172E-05 0.553E-07 0.160E-24 ort(H,U,f) =-0.709E-06-0.234E-07 0.446E-26
CGA:  10    -0.202703564238E+04   -0.12840E-05   -0.13446E-05  1304   0.178E-05-0.733E-06
 gam= 0.526 trial= 0.589  step= 0.360 mean= 0.589
 gam= 0.321 g(H,U,f)=  0.558E-06 0.140E-07 0.422E-25 ort(H,U,f) = 0.347E-06-0.645E-10 0.830E-25
CGA:  11    -0.202703564259E+04   -0.21126E-06   -0.25103E-06  1304   0.572E-06 0.347E-06
 gam= 0.321 trial= 0.577  step= 0.419 mean= 0.577
 gam= 0.413 g(H,U,f)=  0.224E-06 0.115E-07 0.484E-26 ort(H,U,f) = 0.123E-06-0.316E-08-0.232E-25
CGA:  12    -0.202703564272E+04   -0.13352E-06   -0.14303E-06  1304   0.236E-06 0.119E-06
 gam= 0.413 trial= 0.570  step= 1.372 mean= 0.570
 gam= 0.000 g(H,U,f)=  0.154E-05 0.286E-07 0.893E-26 ort(H,U,f) =-0.547E-06-0.883E-08-0.640E-26
CGA:  13    -0.202703564269E+04    0.27190E-07   -0.19561E-06  1304   0.157E-05-0.556E-06
 gam= 0.000 trial= 0.610  step= 0.239 mean= 0.610
 gam= 0.138 g(H,U,f)=  0.214E-06 0.200E-08 0.311E-26 ort(H,U,f) = 0.383E-06 0.423E-08 0.527E-26
CGA:  14    -0.202703564281E+04   -0.11557E-06   -0.18733E-06  1304   0.216E-06 0.388E-06
 gam= 0.138 trial= 0.591  step= 0.320 mean= 0.591
 gam= 0.311 g(H,U,f)=  0.658E-07 0.147E-08 0.973E-27 ort(H,U,f) = 0.729E-07 0.283E-09 0.215E-26
CGA:  15    -0.202703564284E+04   -0.33309E-07   -0.43210E-07  1304   0.673E-07 0.732E-07
 gam= 0.311 trial= 0.578  step=22.180 mean= 0.578
 gam= 0.311 trial= 3.754  step= 3.754 mean= 0.911
 gam= 0.000 g(H,U,f)=  0.619E-05 0.719E-07 0.130E-25 ort(H,U,f) =-0.825E-06-0.675E-08-0.609E-26
CGA:  16    -0.202703564171E+04    0.11294E-05    0.25338E+03  1304   0.626E-05-0.832E-06
 gam= 0.000 trial= 1.053  step= 0.323 mean= 1.053
 gam= 0.165 g(H,U,f)=  0.103E-05 0.775E-08 0.879E-26 ort(H,U,f) = 0.598E-06-0.161E-07 0.107E-25
CGA:  17    -0.202703564251E+04   -0.79875E-06   -0.10113E-05  1304   0.103E-05 0.582E-06
 gam= 0.165 trial= 1.017  step= 0.559 mean= 1.017
 gam= 0.067 g(H,U,f)=  0.679E-07 0.101E-08 0.285E-29 ort(H,U,f) =-0.117E-06-0.908E-10-0.185E-27
CGA:  18    -0.202703564286E+04   -0.34294E-06   -0.31612E-06  1304   0.689E-07-0.117E-06
 gam= 0.067 trial= 0.994  step= 0.888 mean= 0.994
 gam= 0.313 g(H,U,f)=  0.210E-07 0.624E-09 0.158E-27 ort(H,U,f) =-0.157E-07-0.117E-09 0.737E-28
CGA:  19    -0.202703564288E+04   -0.27881E-07   -0.27137E-07  1304   0.216E-07-0.158E-07
 gam= 0.313 trial= 0.989  step= 0.273 mean= 0.989
 final diagonalization
 102 F= -.20484767E+04 E0= -.20484767E+04  d E =-.428673E-03
 trial-energy change:   -0.000429  1 .order   -0.000426   -0.000610   -0.000243
 step:   0.5983(harm=  0.6129)  dis= 0.00290  next Energy= -2048.476748 (dE=-0.505E-03)
 bond charge predicted
       N       E                     dE             d eps       ncg     rms          ort
 gam= 0.000 g(H,U,f)=  0.453E-01 0.431E-02 0.489E-22 ort(H,U,f) = 0.000E+00 0.000E+00 0.000E+00
SDA:   1    -0.202701732973E+04    0.18313E-01    0.00000E+00  1304   0.496E-01 0.000E+00
 gam= 0.000 trial= 0.953  step= 0.569 mean= 0.953
 gam= 0.273 g(H,U,f)=  0.126E-01 0.929E-03 0.101E-20 ort(H,U,f) = 0.106E-02-0.106E-02 0.474E-21
CGA:   2    -0.202703143498E+04   -0.14105E-01   -0.14105E-01  1304   0.135E-01-0.550E-06
 gam= 0.273 trial= 0.934  step= 0.579 mean= 0.934
 gam= 0.168 g(H,U,f)=  0.219E-02 0.859E-04 0.331E-20 ort(H,U,f) =-0.502E-04 0.544E-04-0.172E-20
CGA:   3    -0.202703535071E+04   -0.39157E-02   -0.39165E-02  1304   0.228E-02 0.418E-05
 gam= 0.168 trial= 0.916  step= 0.481 mean= 0.916
 gam= 0.207 g(H,U,f)=  0.430E-03 0.414E-04 0.240E-21 ort(H,U,f) =-0.175E-04 0.144E-04-0.509E-21
CGA:   4    -0.202703589914E+04   -0.54843E-03   -0.54776E-03  1304   0.472E-03-0.314E-05
 gam= 0.207 trial= 0.894  step= 0.559 mean= 0.894
 gam= 0.217 g(H,U,f)=  0.917E-04 0.106E-04 0.673E-23 ort(H,U,f) =-0.151E-04 0.183E-04-0.261E-22
CGA:   5    -0.202703603025E+04   -0.13112E-03   -0.13165E-03  1304   0.102E-03 0.318E-05
 gam= 0.217 trial= 0.877  step= 0.702 mean= 0.877
 gam= 0.406 g(H,U,f)=  0.379E-04 0.360E-05 0.299E-24 ort(H,U,f) =-0.978E-05 0.766E-05 0.222E-24
CGA:   6    -0.202703606658E+04   -0.36328E-04   -0.36141E-04  1304   0.415E-04-0.212E-05
 gam= 0.406 trial= 0.869  step= 0.562 mean= 0.869
 gam= 0.429 g(H,U,f)=  0.165E-04 0.135E-05 0.868E-25 ort(H,U,f) =-0.168E-05 0.346E-05-0.201E-24
CGA:   7    -0.202703607774E+04   -0.11162E-04   -0.11435E-04  1304   0.178E-04 0.178E-05
 gam= 0.429 trial= 0.853  step= 0.588 mean= 0.853
 gam= 0.345 g(H,U,f)=  0.596E-05 0.195E-06 0.121E-24 ort(H,U,f) =-0.170E-05 0.749E-06 0.178E-26
CGA:   8    -0.202703608333E+04   -0.55850E-05   -0.54591E-05  1304   0.615E-05-0.949E-06
 gam= 0.345 trial= 0.840  step= 0.557 mean= 0.840
 gam= 0.212 g(H,U,f)=  0.128E-05 0.259E-07 0.341E-26 ort(H,U,f) = 0.344E-06 0.112E-06-0.200E-25
CGA:   9    -0.202703608489E+04   -0.15566E-05   -0.16213E-05  1304   0.130E-05 0.457E-06
 gam= 0.212 trial= 0.826  step= 0.761 mean= 0.826
 gam= 0.518 g(H,U,f)=  0.654E-06 0.219E-07 0.656E-25 ort(H,U,f) =-0.297E-06-0.886E-08 0.390E-26
CGA:  10    -0.202703608543E+04   -0.54349E-06   -0.53358E-06  1304   0.676E-06-0.306E-06
 gam= 0.518 trial= 0.823  step= 0.363 mean= 0.823
 gam= 0.339 g(H,U,f)=  0.224E-06 0.540E-08 0.197E-25 ort(H,U,f) = 0.142E-06 0.144E-09 0.369E-25
CGA:  11    -0.202703608549E+04   -0.61322E-07   -0.93961E-07  1304   0.229E-06 0.142E-06
 gam= 0.339 trial= 0.800  step= 0.403 mean= 0.800
 final diagonalization
 103 F= -.20484768E+04 E0= -.20484768E+04  d E =-.507303E-03
 curvature:  -5.09 expect dE=-0.939E-02 dE for cont linesearch -0.265E-06
 trial: gam= 0.91339 g(F)=  0.176E-02 g(S)=  0.860E-04 ort = 0.378E-04 (trialstep = 0.415E+00)
 search vector abs. value=  0.249E-01
 bond charge predicted
       N       E                     dE             d eps       ncg     rms          ort
 gam= 0.000 g(H,U,f)=  0.129E+00 0.123E-01 0.398E-20 ort(H,U,f) = 0.000E+00 0.000E+00 0.000E+00
SDA:   1    -0.202698249982E+04    0.53586E-01    0.00000E+00  1304   0.141E+00 0.000E+00
 gam= 0.000 trial= 0.780  step= 0.572 mean= 0.780
 gam= 0.272 g(H,U,f)=  0.359E-01 0.247E-02 0.147E-19 ort(H,U,f) = 0.278E-02-0.276E-02-0.389E-19
CGA:   2    -0.202702285478E+04   -0.40355E-01   -0.40356E-01  1304   0.384E-01 0.194E-04
 gam= 0.272 trial= 0.769  step= 0.578 mean= 0.769
 gam= 0.168 g(H,U,f)=  0.622E-02 0.226E-03 0.634E-20 ort(H,U,f) =-0.159E-03 0.154E-03 0.932E-21
CGA:   3    -0.202703394896E+04   -0.11094E-01   -0.11094E-01  1304   0.644E-02-0.475E-05
 gam= 0.168 trial= 0.760  step= 0.483 mean= 0.760
 gam= 0.209 g(H,U,f)=  0.123E-02 0.115E-03 0.297E-21 ort(H,U,f) =-0.406E-04 0.464E-04-0.793E-21
CGA:   4    -0.202703550325E+04   -0.15543E-02   -0.15551E-02  1304   0.135E-02 0.574E-05
 gam= 0.209 trial= 0.746  step= 0.552 mean= 0.746
 gam= 0.229 g(H,U,f)=  0.278E-03 0.309E-04 0.237E-22 ort(H,U,f) =-0.531E-04 0.520E-04-0.405E-22
CGA:   5    -0.202703587554E+04   -0.37229E-03   -0.37218E-03  1304   0.309E-03-0.110E-05
 gam= 0.229 trial= 0.736  step= 0.639 mean= 0.736
 gam= 0.408 g(H,U,f)=  0.115E-03 0.112E-04 0.166E-23 ort(H,U,f) =-0.204E-04 0.234E-04 0.350E-23
CGA:   6    -0.202703597394E+04   -0.98407E-04   -0.98553E-04  1304   0.126E-03 0.299E-05
 gam= 0.408 trial= 0.731  step= 0.563 mean= 0.731
 gam= 0.482 g(H,U,f)=  0.563E-04 0.452E-05 0.533E-26 ort(H,U,f) =-0.137E-04 0.106E-04 0.119E-24
CGA:   7    -0.202703601006E+04   -0.36120E-04   -0.35855E-04  1304   0.608E-04-0.315E-05
 gam= 0.482 trial= 0.723  step= 0.535 mean= 0.723
 gam= 0.246 g(H,U,f)=  0.144E-04 0.574E-06 0.189E-23 ort(H,U,f) =-0.449E-06 0.306E-05 0.151E-23
CGA:   8    -0.202703602567E+04   -0.15607E-04   -0.15853E-04  1304   0.150E-04 0.261E-05
 gam= 0.246 trial= 0.714  step= 0.704 mean= 0.714
 gam= 0.262 g(H,U,f)=  0.383E-05 0.880E-07 0.620E-24 ort(H,U,f) =-0.667E-06 0.253E-06-0.124E-23
CGA:   9    -0.202703603116E+04   -0.54887E-05   -0.54865E-05  1304   0.392E-05-0.413E-06
 gam= 0.262 trial= 0.713  step= 0.612 mean= 0.713
 gam= 0.283 g(H,U,f)=  0.106E-05 0.503E-07 0.916E-24 ort(H,U,f) = 0.182E-06-0.492E-08-0.357E-24
CGA:  10    -0.202703603232E+04   -0.11568E-05   -0.11657E-05  1304   0.111E-05 0.177E-06
 gam= 0.283 trial= 0.708  step= 0.664 mean= 0.708
 gam= 0.496 g(H,U,f)=  0.529E-06 0.211E-07 0.741E-25 ort(H,U,f) =-0.932E-07-0.142E-07-0.226E-24
CGA:  11    -0.202703603270E+04   -0.38731E-06   -0.38493E-06  1304   0.550E-06-0.107E-06
 gam= 0.496 trial= 0.706  step= 0.469 mean= 0.706
 gam= 0.329 g(H,U,f)=  0.175E-06 0.613E-08 0.488E-25 ort(H,U,f) = 0.644E-07-0.923E-09-0.307E-25
CGA:  12    -0.202703603281E+04   -0.10902E-06   -0.11663E-06  1304   0.181E-06 0.635E-07
 gam= 0.329 trial= 0.694  step= 0.742 mean= 0.694
 gam= 0.512 g(H,U,f)=  0.844E-07 0.822E-08 0.974E-25 ort(H,U,f) =-0.333E-07-0.274E-08-0.546E-25
CGA:  13    -0.202703603289E+04   -0.73887E-07   -0.74842E-07  1304   0.926E-07-0.361E-07
 gam= 0.512 trial= 0.696  step= 0.560 mean= 0.696
 final diagonalization
 104 F= -.20484773E+04 E0= -.20484773E+04  d E =-.549901E-03
 trial-energy change:   -0.000550  1 .order   -0.000559   -0.000781   -0.000338
 step:   0.8433(harm=  0.7320)  dis= 0.00394  next Energy= -2048.477464 (dE=-0.714E-03)
 bond charge predicted
       N       E                     dE             d eps       ncg     rms          ort
 gam= 0.000 g(H,U,f)=  0.137E+00 0.131E-01 0.377E-20 ort(H,U,f) = 0.000E+00 0.000E+00 0.000E+00
SDA:   1    -0.202697848288E+04    0.57550E-01    0.00000E+00  1304   0.150E+00 0.000E+00
 gam= 0.000 trial= 0.690  step= 0.572 mean= 0.690
 gam= 0.272 g(H,U,f)=  0.382E-01 0.263E-02 0.153E-19 ort(H,U,f) = 0.296E-02-0.294E-02-0.408E-19
CGA:   2    -0.202702147878E+04   -0.42996E-01   -0.42996E-01  1304   0.409E-01 0.207E-04
 gam= 0.272 trial= 0.684  step= 0.578 mean= 0.684
 gam= 0.168 g(H,U,f)=  0.663E-02 0.241E-03 0.627E-20 ort(H,U,f) =-0.171E-03 0.165E-03 0.901E-21
CGA:   3    -0.202703329881E+04   -0.11820E-01   -0.11820E-01  1304   0.687E-02-0.563E-05
 gam= 0.168 trial= 0.678  step= 0.482 mean= 0.678
 gam= 0.209 g(H,U,f)=  0.131E-02 0.123E-03 0.284E-21 ort(H,U,f) =-0.429E-04 0.498E-04-0.755E-21
CGA:   4    -0.202703495523E+04   -0.16564E-02   -0.16571E-02  1304   0.144E-02 0.689E-05
 gam= 0.209 trial= 0.669  step= 0.552 mean= 0.669
 gam= 0.231 g(H,U,f)=  0.298E-03 0.331E-04 0.219E-22 ort(H,U,f) =-0.571E-04 0.556E-04-0.382E-22
CGA:   5    -0.202703535209E+04   -0.39686E-03   -0.39677E-03  1304   0.331E-03-0.145E-05
 gam= 0.231 trial= 0.663  step= 0.633 mean= 0.663
 gam= 0.410 g(H,U,f)=  0.124E-03 0.120E-04 0.183E-23 ort(H,U,f) =-0.215E-04 0.251E-04 0.347E-23
CGA:   6    -0.202703545681E+04   -0.10473E-03   -0.10478E-03  1304   0.136E-03 0.358E-05
 gam= 0.410 trial= 0.661  step= 0.561 mean= 0.661
 gam= 0.478 g(H,U,f)=  0.601E-04 0.490E-05 0.394E-26 ort(H,U,f) =-0.151E-04 0.114E-04-0.651E-25
CGA:   7    -0.202703549551E+04   -0.38691E-04   -0.38506E-04  1304   0.650E-04-0.368E-05
 gam= 0.478 trial= 0.656  step= 0.538 mean= 0.656
 gam= 0.244 g(H,U,f)=  0.152E-04 0.619E-06 0.181E-23 ort(H,U,f) =-0.340E-06 0.330E-05 0.135E-23
CGA:   8    -0.202703551234E+04   -0.16831E-04   -0.17006E-04  1304   0.158E-04 0.296E-05
 gam= 0.244 trial= 0.650  step= 0.706 mean= 0.650
 gam= 0.264 g(H,U,f)=  0.409E-05 0.965E-07 0.561E-24 ort(H,U,f) =-0.728E-06 0.276E-06-0.114E-23
CGA:   9    -0.202703551817E+04   -0.58368E-05   -0.58492E-05  1304   0.419E-05-0.451E-06
 gam= 0.264 trial= 0.653  step= 0.609 mean= 0.653
 gam= 0.284 g(H,U,f)=  0.114E-05 0.537E-07 0.818E-24 ort(H,U,f) = 0.200E-06-0.300E-08-0.312E-24
CGA:  10    -0.202703551941E+04   -0.12337E-05   -0.12379E-05  1304   0.119E-05 0.197E-06
 gam= 0.284 trial= 0.651  step= 0.662 mean= 0.651
 gam= 0.498 g(H,U,f)=  0.570E-06 0.222E-07 0.557E-25 ort(H,U,f) =-0.105E-06-0.146E-07-0.186E-24
CGA:  11    -0.202703551982E+04   -0.41155E-06   -0.41218E-06  1304   0.593E-06-0.119E-06
 gam= 0.498 trial= 0.651  step= 0.466 mean= 0.651
 gam= 0.328 g(H,U,f)=  0.188E-06 0.654E-08 0.445E-25 ort(H,U,f) = 0.703E-07-0.121E-08-0.326E-25
CGA:  12    -0.202703551994E+04   -0.11789E-06   -0.12415E-06  1304   0.194E-06 0.691E-07
 gam= 0.328 trial= 0.642  step= 0.735 mean= 0.642
 gam= 0.500 g(H,U,f)=  0.884E-07 0.856E-08 0.813E-25 ort(H,U,f) =-0.334E-07-0.299E-08-0.457E-25
CGA:  13    -0.202703552001E+04   -0.78042E-07   -0.79709E-07  1304   0.970E-07-0.364E-07
 gam= 0.500 trial= 0.647  step= 0.574 mean= 0.647
 final diagonalization
 105 F= -.20484774E+04 E0= -.20484774E+04  d E =-.660191E-03
 curvature:  -4.24 expect dE=-0.129E-01 dE for cont linesearch -0.132E-04
 trial: gam= 1.86012 g(F)=  0.301E-02 g(S)=  0.385E-04 ort =-0.278E-03 (trialstep = 0.141E+00)
 search vector abs. value=  0.881E-01
 bond charge predicted
       N       E                     dE             d eps       ncg     rms          ort
 gam= 0.000 g(H,U,f)=  0.522E-01 0.500E-02 0.902E-21 ort(H,U,f) = 0.000E+00 0.000E+00 0.000E+00
SDA:   1    -0.202701360180E+04    0.21918E-01    0.00000E+00  1304   0.572E-01 0.000E+00
 gam= 0.000 trial= 0.643  step= 0.570 mean= 0.643
 gam= 0.272 g(H,U,f)=  0.146E-01 0.995E-03 0.256E-20 ort(H,U,f) = 0.112E-02-0.110E-02-0.429E-20
CGA:   2    -0.202702990553E+04   -0.16304E-01   -0.16304E-01  1304   0.155E-01 0.203E-04
 gam= 0.272 trial= 0.640  step= 0.579 mean= 0.640
 gam= 0.170 g(H,U,f)=  0.256E-02 0.928E-04 0.985E-21 ort(H,U,f) =-0.721E-04 0.646E-04 0.418E-21
CGA:   3    -0.202703440607E+04   -0.45005E-02   -0.45003E-02  1304   0.265E-02-0.746E-05
 gam= 0.170 trial= 0.637  step= 0.474 mean= 0.637
 gam= 0.215 g(H,U,f)=  0.525E-03 0.451E-04 0.562E-22 ort(H,U,f) =-0.131E-04 0.202E-04-0.172E-21
CGA:   4    -0.202703503309E+04   -0.62703E-03   -0.62761E-03  1304   0.570E-03 0.713E-05
 gam= 0.215 trial= 0.628  step= 0.535 mean= 0.628
 gam= 0.252 g(H,U,f)=  0.130E-03 0.134E-04 0.159E-23 ort(H,U,f) =-0.261E-04 0.228E-04-0.334E-23
CGA:   5    -0.202703518629E+04   -0.15320E-03   -0.15305E-03  1304   0.144E-03-0.330E-05
 gam= 0.252 trial= 0.624  step= 0.550 mean= 0.624
 gam= 0.409 g(H,U,f)=  0.535E-04 0.537E-05 0.141E-23 ort(H,U,f) =-0.681E-05 0.108E-04 0.679E-24
CGA:   6    -0.202703522548E+04   -0.39185E-04   -0.39331E-04  1304   0.589E-04 0.395E-05
 gam= 0.409 trial= 0.620  step= 0.575 mean= 0.620
 gam= 0.426 g(H,U,f)=  0.229E-04 0.223E-05 0.827E-24 ort(H,U,f) =-0.769E-05 0.492E-05-0.123E-23
CGA:   7    -0.202703524295E+04   -0.17471E-04   -0.17410E-04  1304   0.251E-04-0.277E-05
 gam= 0.426 trial= 0.618  step= 0.576 mean= 0.618
 gam= 0.237 g(H,U,f)=  0.569E-05 0.262E-06 0.222E-24 ort(H,U,f) = 0.611E-06 0.138E-05-0.155E-24
CGA:   8    -0.202703524980E+04   -0.68512E-05   -0.68925E-05  1304   0.595E-05 0.199E-05
 gam= 0.237 trial= 0.616  step= 0.720 mean= 0.616
 gam= 0.339 g(H,U,f)=  0.196E-05 0.557E-07 0.157E-24 ort(H,U,f) =-0.484E-06 0.132E-06-0.152E-24
CGA:   9    -0.202703525209E+04   -0.22928E-05   -0.23113E-05  1304   0.202E-05-0.352E-06
 gam= 0.339 trial= 0.621  step= 0.455 mean= 0.621
 gam= 0.280 g(H,U,f)=  0.554E-06 0.120E-07 0.778E-26 ort(H,U,f) = 0.294E-06 0.218E-07-0.234E-25
CGA:  10    -0.202703525250E+04   -0.40520E-06   -0.43162E-06  1304   0.566E-06 0.315E-06
 gam= 0.280 trial= 0.613  step= 0.718 mean= 0.613
 gam= 0.534 g(H,U,f)=  0.291E-06 0.107E-07 0.302E-25 ort(H,U,f) =-0.140E-06-0.137E-08 0.233E-26
CGA:  11    -0.202703525273E+04   -0.22744E-06   -0.23480E-06  1304   0.302E-06-0.141E-06
 gam= 0.534 trial= 0.618  step= 0.442 mean= 0.618
 gam= 0.403 g(H,U,f)=  0.119E-06 0.249E-08 0.115E-26 ort(H,U,f) = 0.550E-07-0.447E-09-0.611E-26
CGA:  12    -0.202703525277E+04   -0.45227E-07   -0.50054E-07  1304   0.122E-06 0.545E-07
 gam= 0.403 trial= 0.609  step= 0.450 mean= 0.609
 final diagonalization
 106 F= -.20484777E+04 E0= -.20484777E+04  d E =-.311233E-03
 ZBRENT: can't locate minimum, use default step
 trial-energy change:   -0.000311  1 .order   -0.000324   -0.000358   -0.000289
 step:   0.5655(harm=  0.7360)  dis= 0.00499  next Energy= -2048.478343 (dE=-0.932E-03)
 bond charge predicted
       N       E                     dE             d eps       ncg     rms          ort
 gam= 0.000 g(H,U,f)=  0.470E+00 0.449E-01 0.626E-20 ort(H,U,f) = 0.000E+00 0.000E+00 0.000E+00
SDA:   1    -0.202683916503E+04    0.19609E+00    0.00000E+00  1304   0.515E+00 0.000E+00
 gam= 0.000 trial= 0.601  step= 0.570 mean= 0.601
 gam= 0.272 g(H,U,f)=  0.131E+00 0.894E-02 0.989E-18 ort(H,U,f) = 0.992E-02-0.988E-02-0.162E-17
CGA:   2    -0.202698591408E+04   -0.14675E+00   -0.14675E+00  1304   0.140E+00 0.342E-04
 gam= 0.272 trial= 0.600  step= 0.579 mean= 0.600
 gam= 0.170 g(H,U,f)=  0.229E-01 0.835E-03 0.257E-19 ort(H,U,f) =-0.605E-03 0.587E-03 0.110E-19
CGA:   3    -0.202702639274E+04   -0.40479E-01   -0.40479E-01  1304   0.237E-01-0.185E-04
 gam= 0.170 trial= 0.599  step= 0.476 mean= 0.599
 gam= 0.216 g(H,U,f)=  0.472E-02 0.409E-03 0.316E-21 ort(H,U,f) =-0.159E-03 0.182E-03-0.973E-21
CGA:   4    -0.202703204079E+04   -0.56481E-02   -0.56495E-02  1304   0.513E-02 0.237E-04
 gam= 0.216 trial= 0.592  step= 0.534 mean= 0.592
 gam= 0.249 g(H,U,f)=  0.115E-02 0.120E-03 0.123E-22 ort(H,U,f) =-0.215E-03 0.206E-03-0.234E-22
CGA:   5    -0.202703341052E+04   -0.13697E-02   -0.13694E-02  1304   0.127E-02-0.978E-05
 gam= 0.249 trial= 0.590  step= 0.566 mean= 0.590
 gam= 0.427 g(H,U,f)=  0.496E-03 0.478E-04 0.807E-23 ort(H,U,f) =-0.825E-04 0.952E-04 0.465E-23
CGA:   6    -0.202703377019E+04   -0.35967E-03   -0.35982E-03  1304   0.544E-03 0.127E-04
 gam= 0.427 trial= 0.588  step= 0.548 mean= 0.588
 gam= 0.392 g(H,U,f)=  0.194E-03 0.195E-04 0.255E-23 ort(H,U,f) =-0.543E-04 0.457E-04-0.487E-23
CGA:   7    -0.202703392087E+04   -0.15068E-03   -0.15051E-03  1304   0.213E-03-0.857E-05
 gam= 0.392 trial= 0.586  step= 0.626 mean= 0.586
 gam= 0.258 g(H,U,f)=  0.528E-04 0.226E-05 0.130E-23 ort(H,U,f) =-0.456E-05 0.111E-04-0.439E-24
CGA:   8    -0.202703398671E+04   -0.65833E-04   -0.65702E-04  1304   0.550E-04 0.651E-05
 gam= 0.258 trial= 0.588  step= 0.690 mean= 0.588
 gam= 0.316 g(H,U,f)=  0.170E-04 0.421E-06 0.107E-23 ort(H,U,f) =-0.291E-05 0.124E-05-0.100E-23
CGA:   9    -0.202703400619E+04   -0.19480E-04   -0.19565E-04  1304   0.174E-04-0.167E-05
 gam= 0.316 trial= 0.593  step= 0.464 mean= 0.593
 gam= 0.313 g(H,U,f)=  0.533E-05 0.116E-06 0.102E-24 ort(H,U,f) = 0.127E-05 0.151E-06-0.231E-24
CGA:  10    -0.202703401001E+04   -0.38269E-05   -0.39187E-05  1304   0.544E-05 0.142E-05
 gam= 0.313 trial= 0.587  step= 0.639 mean= 0.587
 gam= 0.417 g(H,U,f)=  0.220E-05 0.745E-07 0.129E-24 ort(H,U,f) =-0.661E-06-0.142E-07 0.321E-25
CGA:  11    -0.202703401188E+04   -0.18641E-05   -0.18818E-05  1304   0.227E-05-0.675E-06
 gam= 0.417 trial= 0.590  step= 0.510 mean= 0.590
 gam= 0.322 g(H,U,f)=  0.713E-06 0.185E-07 0.391E-25 ort(H,U,f) = 0.298E-06-0.496E-08-0.768E-25
CGA:  12    -0.202703401237E+04   -0.49481E-06   -0.50671E-06  1304   0.732E-06 0.293E-06
 gam= 0.322 trial= 0.586  step= 0.722 mean= 0.586
 gam= 0.384 g(H,U,f)=  0.269E-06 0.122E-07 0.268E-26 ort(H,U,f) =-0.854E-07-0.442E-08-0.374E-26
CGA:  13    -0.202703401266E+04   -0.29170E-06   -0.29803E-06  1304   0.281E-06-0.898E-07
 gam= 0.384 trial= 0.592  step= 0.836 mean= 0.592
 gam= 0.437 g(H,U,f)=  0.116E-06 0.627E-08 0.495E-26 ort(H,U,f) =-0.375E-07 0.176E-08 0.166E-26
CGA:  14    -0.202703401276E+04   -0.98298E-07   -0.10298E-06  1304   0.123E-06-0.357E-07
 gam= 0.437 trial= 0.605  step= 0.414 mean= 0.605
 final diagonalization
 107 F= -.20484782E+04 E0= -.20484782E+04  d E =-.810815E-03
 curvature: -11.75 expect dE=-0.411E-01 dE for cont linesearch -0.249E-04
 trial: gam= 0.60688 g(F)=  0.348E-02 g(S)=  0.241E-04 ort = 0.432E-03 (trialstep = 0.226E+00)
 search vector abs. value=  0.365E-01
 bond charge predicted
       N       E                     dE             d eps       ncg     rms          ort
 gam= 0.000 g(H,U,f)=  0.568E-01 0.550E-02 0.272E-22 ort(H,U,f) = 0.000E+00 0.000E+00 0.000E+00
SDA:   1    -0.202701076070E+04    0.23252E-01    0.00000E+00  1304   0.623E-01 0.000E+00
 gam= 0.000 trial= 0.595  step= 0.570 mean= 0.595
 gam= 0.272 g(H,U,f)=  0.159E-01 0.109E-02 0.141E-21 ort(H,U,f) = 0.128E-02-0.126E-02-0.122E-21
CGA:   2    -0.202702851869E+04   -0.17758E-01   -0.17758E-01  1304   0.169E-01 0.193E-04
 gam= 0.272 trial= 0.594  step= 0.587 mean= 0.594
 gam= 0.166 g(H,U,f)=  0.272E-02 0.102E-03 0.249E-21 ort(H,U,f) =-0.826E-04 0.786E-04 0.721E-22
CGA:   3    -0.202703349306E+04   -0.49744E-02   -0.49744E-02  1304   0.282E-02-0.394E-05
 gam= 0.166 trial= 0.593  step= 0.482 mean= 0.593
 gam= 0.214 g(H,U,f)=  0.554E-03 0.485E-04 0.191E-22 ort(H,U,f) =-0.186E-04 0.243E-04-0.438E-22
CGA:   4    -0.202703417238E+04   -0.67932E-03   -0.67964E-03  1304   0.602E-03 0.573E-05
 gam= 0.214 trial= 0.588  step= 0.544 mean= 0.588
 gam= 0.242 g(H,U,f)=  0.132E-03 0.139E-04 0.518E-25 ort(H,U,f) =-0.255E-04 0.235E-04-0.563E-24
CGA:   5    -0.202703433662E+04   -0.16424E-03   -0.16419E-03  1304   0.146E-03-0.207E-05
 gam= 0.242 trial= 0.586  step= 0.594 mean= 0.586
 gam= 0.404 g(H,U,f)=  0.534E-04 0.552E-05 0.599E-26 ort(H,U,f) =-0.748E-05 0.112E-04 0.282E-25
CGA:   6    -0.202703437979E+04   -0.43172E-04   -0.43157E-04  1304   0.589E-04 0.374E-05
 gam= 0.404 trial= 0.586  step= 0.584 mean= 0.586
 gam= 0.487 g(H,U,f)=  0.265E-04 0.221E-05 0.730E-24 ort(H,U,f) =-0.808E-05 0.489E-05 0.190E-24
CGA:   7    -0.202703439743E+04   -0.17639E-04   -0.17635E-04  1304   0.287E-04-0.319E-05
 gam= 0.487 trial= 0.586  step= 0.523 mean= 0.586
 gam= 0.231 g(H,U,f)=  0.638E-05 0.259E-06 0.471E-25 ort(H,U,f) = 0.857E-06 0.147E-05 0.215E-24
CGA:   8    -0.202703440446E+04   -0.70283E-05   -0.71017E-05  1304   0.664E-05 0.233E-05
 gam= 0.231 trial= 0.583  step= 0.704 mean= 0.583
 gam= 0.284 g(H,U,f)=  0.183E-05 0.561E-07 0.161E-25 ort(H,U,f) =-0.292E-06 0.135E-06 0.575E-25
CGA:   9    -0.202703440697E+04   -0.25176E-05   -0.25270E-05  1304   0.189E-05-0.157E-06
 gam= 0.284 trial= 0.589  step= 0.650 mean= 0.589
 gam= 0.286 g(H,U,f)=  0.508E-06 0.322E-07 0.489E-26 ort(H,U,f) = 0.105E-07-0.547E-08 0.179E-25
CGA:  10    -0.202703440757E+04   -0.59848E-06   -0.59850E-06  1304   0.540E-06 0.499E-08
 gam= 0.286 trial= 0.592  step= 0.568 mean= 0.592
 gam= 0.296 g(H,U,f)=  0.153E-06 0.708E-08 0.243E-28 ort(H,U,f) = 0.699E-07-0.477E-08 0.707E-27
CGA:  11    -0.202703440772E+04   -0.15337E-06   -0.15384E-06  1304   0.160E-06 0.651E-07
 gam= 0.296 trial= 0.591  step= 1.250 mean= 0.591
 gam= 0.000 g(H,U,f)=  0.272E-06 0.110E-07 0.732E-27 ort(H,U,f) =-0.121E-06-0.677E-08 0.128E-26
CGA:  12    -0.202703440779E+04   -0.69849E-07   -0.11201E-06  1304   0.283E-06-0.128E-06
 gam= 0.000 trial= 0.624  step= 0.268 mean= 0.624
 final diagonalization
 108 F= -.20484789E+04 E0= -.20484789E+04  d E =-.661085E-03
 trial-energy change:   -0.000661  1 .order   -0.000668   -0.000851   -0.000485
 step:   0.6796(harm=  0.5254)  dis= 0.00364  next Energy= -2048.479312 (dE=-0.109E-02)
 bond charge predicted
       N       E                     dE             d eps       ncg     rms          ort
 gam= 0.000 g(H,U,f)=  0.228E+00 0.221E-01 0.509E-22 ort(H,U,f) = 0.000E+00 0.000E+00 0.000E+00
SDA:   1    -0.202693907424E+04    0.95333E-01    0.00000E+00  1304   0.250E+00 0.000E+00
 gam= 0.000 trial= 0.606  step= 0.571 mean= 0.606
 gam= 0.272 g(H,U,f)=  0.637E-01 0.437E-02 0.984E-21 ort(H,U,f) = 0.510E-02-0.507E-02-0.871E-21
CGA:   2    -0.202701042567E+04   -0.71351E-01   -0.71352E-01  1304   0.681E-01 0.293E-04
 gam= 0.272 trial= 0.604  step= 0.587 mean= 0.604
 gam= 0.166 g(H,U,f)=  0.109E-01 0.409E-03 0.438E-21 ort(H,U,f) =-0.324E-03 0.318E-03 0.127E-21
CGA:   3    -0.202703040262E+04   -0.19977E-01   -0.19977E-01  1304   0.113E-01-0.639E-05
 gam= 0.166 trial= 0.603  step= 0.483 mean= 0.603
 gam= 0.214 g(H,U,f)=  0.223E-02 0.195E-03 0.119E-22 ort(H,U,f) =-0.863E-04 0.981E-04-0.275E-22
CGA:   4    -0.202703313399E+04   -0.27314E-02   -0.27321E-02  1304   0.242E-02 0.118E-04
 gam= 0.214 trial= 0.597  step= 0.543 mean= 0.597
 gam= 0.241 g(H,U,f)=  0.527E-03 0.559E-04 0.472E-25 ort(H,U,f) =-0.985E-04 0.946E-04-0.469E-24
CGA:   5    -0.202703379242E+04   -0.65843E-03   -0.65833E-03  1304   0.583E-03-0.389E-05
 gam= 0.241 trial= 0.595  step= 0.604 mean= 0.595
 gam= 0.415 g(H,U,f)=  0.220E-03 0.221E-04 0.300E-26 ort(H,U,f) =-0.372E-04 0.447E-04 0.159E-25
CGA:   6    -0.202703396808E+04   -0.17566E-03   -0.17563E-03  1304   0.242E-03 0.747E-05
 gam= 0.415 trial= 0.595  step= 0.561 mean= 0.595
 gam= 0.451 g(H,U,f)=  0.100E-03 0.873E-05 0.473E-24 ort(H,U,f) =-0.264E-04 0.202E-04 0.118E-24
CGA:   7    -0.202703403700E+04   -0.68917E-04   -0.68814E-04  1304   0.109E-03-0.613E-05
 gam= 0.451 trial= 0.593  step= 0.563 mean= 0.593
 gam= 0.249 g(H,U,f)=  0.262E-04 0.102E-05 0.222E-25 ort(H,U,f) =-0.652E-06 0.534E-05 0.121E-24
CGA:   8    -0.202703406689E+04   -0.29891E-04   -0.29961E-04  1304   0.272E-04 0.469E-05
 gam= 0.249 trial= 0.592  step= 0.703 mean= 0.592
 gam= 0.281 g(H,U,f)=  0.744E-05 0.188E-06 0.287E-25 ort(H,U,f) =-0.144E-05 0.542E-06 0.610E-25
CGA:   9    -0.202703407681E+04   -0.99186E-05   -0.99683E-05  1304   0.763E-05-0.894E-06
 gam= 0.281 trial= 0.597  step= 0.545 mean= 0.597
 gam= 0.297 g(H,U,f)=  0.220E-05 0.669E-07 0.785E-27 ort(H,U,f) = 0.671E-06 0.217E-07 0.764E-26
CGA:  10    -0.202703407880E+04   -0.19933E-05   -0.20112E-05  1304   0.226E-05 0.692E-06
 gam= 0.297 trial= 0.595  step= 0.707 mean= 0.595
 gam= 0.684 g(H,U,f)=  0.150E-05 0.435E-07 0.143E-27 ort(H,U,f) =-0.562E-06-0.239E-07 0.130E-26
CGA:  11    -0.202703407964E+04   -0.83912E-06   -0.87197E-06  1304   0.155E-05-0.586E-06
 gam= 0.684 trial= 0.600  step= 0.352 mean= 0.600
 gam= 0.350 g(H,U,f)=  0.526E-06 0.154E-07 0.175E-27 ort(H,U,f) = 0.259E-06-0.538E-09 0.115E-26
CGA:  12    -0.202703407981E+04   -0.16997E-06   -0.20187E-06  1304   0.542E-06 0.258E-06
 gam= 0.350 trial= 0.588  step= 0.357 mean= 0.588
 gam= 0.461 g(H,U,f)=  0.241E-06 0.824E-08 0.671E-30 ort(H,U,f) = 0.142E-06 0.138E-08-0.346E-28
CGA:  13    -0.202703407991E+04   -0.96305E-07   -0.11290E-06  1304   0.249E-06 0.144E-06
 gam= 0.461 trial= 0.576  step= 0.747 mean= 0.576
 gam= 0.000 g(H,U,f)=  0.304E-06 0.800E-08 0.107E-26 ort(H,U,f) =-0.228E-06 0.803E-09-0.629E-27
CGA:  14    -0.202703408000E+04   -0.98516E-07   -0.11785E-06  1304   0.312E-06-0.228E-06
 gam= 0.000 trial= 0.585  step= 0.266 mean= 0.585
 final diagonalization
 109 F= -.20484791E+04 E0= -.20484791E+04  d E =-.866797E-03
 curvature:  -1.87 expect dE=-0.621E-02 dE for cont linesearch -0.716E-04
 ZBRENT: interpolating
 opt :   0.5184  next Energy= -2048.479183 (dE=-0.962E-03)
 bond charge predicted
       N       E                     dE             d eps       ncg     rms          ort
 gam= 0.000 g(H,U,f)=  0.288E-01 0.280E-02 0.124E-23 ort(H,U,f) = 0.000E+00 0.000E+00 0.000E+00
SDA:   1    -0.202702235502E+04    0.11725E-01    0.00000E+00  1304   0.316E-01 0.000E+00
 gam= 0.000 trial= 0.569  step= 0.571 mean= 0.569
 gam= 0.273 g(H,U,f)=  0.806E-02 0.557E-03 0.584E-24 ort(H,U,f) = 0.631E-03-0.645E-03-0.504E-24
CGA:   2    -0.202703137679E+04   -0.90218E-02   -0.90218E-02  1304   0.862E-02-0.148E-04
 gam= 0.273 trial= 0.569  step= 0.586 mean= 0.569
 gam= 0.166 g(H,U,f)=  0.138E-02 0.520E-04 0.116E-22 ort(H,U,f) =-0.375E-04 0.407E-04 0.333E-23
CGA:   3    -0.202703390111E+04   -0.25243E-02   -0.25243E-02  1304   0.143E-02 0.318E-05
 gam= 0.166 trial= 0.570  step= 0.484 mean= 0.570
 gam= 0.217 g(H,U,f)=  0.285E-03 0.250E-04 0.531E-23 ort(H,U,f) =-0.165E-04 0.123E-04-0.119E-22
CGA:   4    -0.202703424790E+04   -0.34679E-03   -0.34661E-03  1304   0.310E-03-0.413E-05
 gam= 0.217 trial= 0.566  step= 0.536 mean= 0.566
 gam= 0.237 g(H,U,f)=  0.664E-04 0.713E-05 0.269E-26 ort(H,U,f) =-0.105E-04 0.123E-04-0.568E-25
CGA:   5    -0.202703433073E+04   -0.82828E-04   -0.82854E-04  1304   0.735E-04 0.174E-05
 gam= 0.237 trial= 0.564  step= 0.635 mean= 0.564
 gam= 0.469 g(H,U,f)=  0.317E-04 0.276E-05 0.141E-27 ort(H,U,f) =-0.845E-05 0.548E-05 0.190E-26
CGA:   6    -0.202703435409E+04   -0.23359E-04   -0.23464E-04  1304   0.345E-04-0.297E-05
 gam= 0.469 trial= 0.568  step= 0.484 mean= 0.568
 gam= 0.343 g(H,U,f)=  0.108E-04 0.106E-05 0.101E-24 ort(H,U,f) =-0.615E-06 0.285E-05 0.345E-25
CGA:   7    -0.202703436200E+04   -0.79069E-05   -0.80010E-05  1304   0.118E-04 0.224E-05
 gam= 0.343 trial= 0.563  step= 0.728 mean= 0.563
 gam= 0.372 g(H,U,f)=  0.428E-05 0.129E-06 0.176E-26 ort(H,U,f) =-0.193E-05 0.451E-06 0.147E-25
CGA:   8    -0.202703436646E+04   -0.44595E-05   -0.45811E-05  1304   0.440E-05-0.148E-05
 gam= 0.372 trial= 0.572  step= 0.602 mean= 0.572
 gam= 0.195 g(H,U,f)=  0.844E-06 0.136E-07 0.138E-25 ort(H,U,f) = 0.234E-06 0.415E-07 0.201E-25
CGA:   9    -0.202703436762E+04   -0.11641E-05   -0.11599E-05  1304   0.858E-06 0.276E-06
 gam= 0.195 trial= 0.573  step= 0.701 mean= 0.573
 gam= 0.360 g(H,U,f)=  0.299E-06 0.932E-08 0.153E-26 ort(H,U,f) =-0.799E-07-0.771E-08-0.589E-26
CGA:  10    -0.202703436794E+04   -0.31410E-06   -0.31938E-06  1304   0.309E-06-0.876E-07
 gam= 0.360 trial= 0.580  step= 0.527 mean= 0.580
 gam= 0.318 g(H,U,f)=  0.946E-07 0.353E-08 0.147E-29 ort(H,U,f) = 0.541E-07-0.633E-09 0.181E-28
CGA:  11    -0.202703436801E+04   -0.71654E-07   -0.72998E-07  1304   0.981E-07 0.535E-07
 gam= 0.318 trial= 0.577  step= 0.824 mean= 0.577
 final diagonalization
 110 F= -.20484792E+04 E0= -.20484792E+04  d E =-.965157E-03
 curvature:  -2.49 expect dE=-0.360E-02 dE for cont linesearch -0.211E-08
 trial: gam= 0.58264 g(F)=  0.142E-02 g(S)=  0.262E-04 ort =-0.557E-05 (trialstep = 0.285E+00)
 search vector abs. value=  0.138E-01
 bond charge predicted
       N       E                     dE             d eps       ncg     rms          ort
 gam= 0.000 g(H,U,f)=  0.334E-01 0.330E-02 0.329E-23 ort(H,U,f) = 0.000E+00 0.000E+00 0.000E+00
SDA:   1    -0.202702091674E+04    0.13451E-01    0.00000E+00  1304   0.367E-01 0.000E+00
 gam= 0.000 trial= 0.589  step= 0.565 mean= 0.589
 gam= 0.269 g(H,U,f)=  0.928E-02 0.577E-03 0.593E-23 ort(H,U,f) = 0.686E-03-0.674E-03-0.744E-23
CGA:   2    -0.202703127863E+04   -0.10362E-01   -0.10362E-01  1304   0.985E-02 0.122E-04
 gam= 0.269 trial= 0.588  step= 0.591 mean= 0.588
 gam= 0.166 g(H,U,f)=  0.158E-02 0.569E-04 0.155E-22 ort(H,U,f) =-0.423E-04 0.423E-04 0.421E-23
CGA:   3    -0.202703419286E+04   -0.29142E-02   -0.29142E-02  1304   0.164E-02 0.799E-08
 gam= 0.166 trial= 0.588  step= 0.490 mean= 0.588
 gam= 0.210 g(H,U,f)=  0.317E-03 0.278E-04 0.319E-23 ort(H,U,f) =-0.118E-04 0.144E-04-0.554E-23
CGA:   4    -0.202703459395E+04   -0.40109E-03   -0.40121E-03  1304   0.345E-03 0.255E-05
 gam= 0.210 trial= 0.583  step= 0.555 mean= 0.583
 gam= 0.225 g(H,U,f)=  0.696E-04 0.785E-05 0.614E-26 ort(H,U,f) =-0.127E-04 0.128E-04 0.988E-25
CGA:   5    -0.202703468962E+04   -0.95670E-04   -0.95672E-04  1304   0.774E-04 0.159E-06
 gam= 0.225 trial= 0.582  step= 0.668 mean= 0.582
 gam= 0.361 g(H,U,f)=  0.252E-04 0.273E-05 0.276E-25 ort(H,U,f) =-0.450E-05 0.586E-05 0.622E-25
CGA:   6    -0.202703471555E+04   -0.25934E-04   -0.25875E-04  1304   0.279E-04 0.137E-05
 gam= 0.361 trial= 0.586  step= 0.671 mean= 0.586
 gam= 0.556 g(H,U,f)=  0.147E-04 0.877E-06 0.389E-25 ort(H,U,f) =-0.385E-05 0.208E-05 0.606E-25
CGA:   7    -0.202703472502E+04   -0.94674E-05   -0.95428E-05  1304   0.155E-04-0.177E-05
 gam= 0.556 trial= 0.590  step= 0.433 mean= 0.590
 gam= 0.245 g(H,U,f)=  0.367E-05 0.132E-06 0.891E-26 ort(H,U,f) = 0.884E-06 0.730E-06 0.355E-25
CGA:   8    -0.202703472804E+04   -0.30267E-05   -0.31533E-05  1304   0.380E-05 0.161E-05
 gam= 0.245 trial= 0.583  step= 0.641 mean= 0.583
 gam= 0.309 g(H,U,f)=  0.114E-05 0.330E-07 0.427E-26 ort(H,U,f) =-0.112E-06 0.764E-07 0.124E-25
CGA:   9    -0.202703472939E+04   -0.13426E-05   -0.13436E-05  1304   0.117E-05-0.356E-07
 gam= 0.309 trial= 0.586  step= 0.826 mean= 0.586
 gam= 0.000 g(H,U,f)=  0.128E-05 0.437E-07 0.100E-26 ort(H,U,f) =-0.575E-06-0.255E-07-0.397E-26
CGA:  10    -0.202703472979E+04   -0.40793E-06   -0.48028E-06  1304   0.133E-05-0.600E-06
 gam= 0.000 trial= 0.598  step= 0.216 mean= 0.598
 gam= 0.137 g(H,U,f)=  0.176E-06 0.559E-08 0.156E-28 ort(H,U,f) = 0.348E-06 0.127E-07 0.125E-27
CGA:  11    -0.202703472987E+04   -0.74746E-07   -0.14336E-06  1304   0.181E-06 0.360E-06
 gam= 0.137 trial= 0.578  step= 0.236 mean= 0.578
 final diagonalization
 111 F= -.20484795E+04 E0= -.20484795E+04  d E =-.322079E-03
 trial-energy change:   -0.000322  1 .order   -0.000326   -0.000411   -0.000240
 step:   0.9764(harm=  0.6850)  dis= 0.00317  next Energy= -2048.479750 (dE=-0.564E-03)
 bond charge predicted
       N       E                     dE             d eps       ncg     rms          ort
 gam= 0.000 g(H,U,f)=  0.197E+00 0.195E-01 0.225E-22 ort(H,U,f) = 0.000E+00 0.000E+00 0.000E+00
SDA:   1    -0.202695331560E+04    0.81414E-01    0.00000E+00  1304   0.217E+00 0.000E+00
 gam= 0.000 trial= 0.561  step= 0.565 mean= 0.561
 gam= 0.268 g(H,U,f)=  0.548E-01 0.340E-02 0.173E-21 ort(H,U,f) = 0.400E-02-0.398E-02-0.216E-21
CGA:   2    -0.202701452601E+04   -0.61210E-01   -0.61210E-01  1304   0.582E-01 0.215E-04
 gam= 0.268 trial= 0.562  step= 0.591 mean= 0.562
 gam= 0.166 g(H,U,f)=  0.933E-02 0.335E-03 0.126E-21 ort(H,U,f) =-0.245E-03 0.246E-03 0.360E-22
CGA:   3    -0.202703172332E+04   -0.17197E-01   -0.17197E-01  1304   0.966E-02 0.121E-05
 gam= 0.166 trial= 0.563  step= 0.490 mean= 0.563
 gam= 0.210 g(H,U,f)=  0.187E-02 0.164E-03 0.115E-22 ort(H,U,f) =-0.771E-04 0.837E-04-0.201E-22
CGA:   4    -0.202703409231E+04   -0.23690E-02   -0.23692E-02  1304   0.203E-02 0.659E-05
 gam= 0.210 trial= 0.559  step= 0.555 mean= 0.559
 gam= 0.224 g(H,U,f)=  0.408E-03 0.460E-04 0.272E-25 ort(H,U,f) =-0.742E-04 0.752E-04 0.459E-24
CGA:   5    -0.202703465634E+04   -0.56403E-03   -0.56403E-03  1304   0.454E-03 0.946E-06
 gam= 0.224 trial= 0.559  step= 0.680 mean= 0.559
 gam= 0.364 g(H,U,f)=  0.150E-03 0.158E-04 0.154E-24 ort(H,U,f) =-0.308E-04 0.339E-04 0.332E-24
CGA:   6    -0.202703481099E+04   -0.15465E-03   -0.15446E-03  1304   0.165E-03 0.313E-05
 gam= 0.364 trial= 0.565  step= 0.653 mean= 0.565
 gam= 0.505 g(H,U,f)=  0.785E-04 0.498E-05 0.182E-24 ort(H,U,f) =-0.163E-04 0.124E-04 0.312E-24
CGA:   7    -0.202703486514E+04   -0.54151E-04   -0.54321E-04  1304   0.835E-04-0.388E-05
 gam= 0.505 trial= 0.570  step= 0.478 mean= 0.570
 gam= 0.279 g(H,U,f)=  0.225E-04 0.787E-06 0.442E-25 ort(H,U,f) = 0.402E-06 0.377E-05 0.176E-24
CGA:   8    -0.202703488444E+04   -0.19297E-04   -0.19487E-04  1304   0.233E-04 0.417E-05
 gam= 0.279 trial= 0.565  step= 0.658 mean= 0.565
 gam= 0.262 g(H,U,f)=  0.597E-05 0.134E-06 0.397E-25 ort(H,U,f) =-0.145E-05 0.388E-06 0.920E-25
CGA:   9    -0.202703489243E+04   -0.79962E-05   -0.80453E-05  1304   0.610E-05-0.106E-05
 gam= 0.262 trial= 0.570  step= 0.650 mean= 0.570
 gam= 0.257 g(H,U,f)=  0.150E-05 0.661E-07 0.690E-26 ort(H,U,f) = 0.176E-06-0.355E-07-0.272E-25
CGA:  10    -0.202703489433E+04   -0.18989E-05   -0.18933E-05  1304   0.157E-05 0.140E-06
 gam= 0.257 trial= 0.574  step= 0.694 mean= 0.574
 gam= 0.399 g(H,U,f)=  0.591E-06 0.358E-07 0.152E-25 ort(H,U,f) =-0.250E-07-0.249E-07 0.150E-27
CGA:  11    -0.202703489489E+04   -0.55433E-06   -0.55737E-06  1304   0.627E-06-0.499E-07
 gam= 0.399 trial= 0.580  step= 0.718 mean= 0.580
 gam= 0.511 g(H,U,f)=  0.310E-06 0.103E-07 0.139E-26 ort(H,U,f) =-0.593E-07-0.603E-08-0.469E-26
CGA:  12    -0.202703489510E+04   -0.21352E-06   -0.21802E-06  1304   0.320E-06-0.653E-07
 gam= 0.511 trial= 0.587  step= 0.514 mean= 0.587
 gam= 0.335 g(H,U,f)=  0.102E-06 0.501E-08 0.107E-26 ort(H,U,f) = 0.316E-08 0.235E-08-0.879E-27
CGA:  13    -0.202703489517E+04   -0.73494E-07   -0.73773E-07  1304   0.107E-06 0.552E-08
 gam= 0.335 trial= 0.583  step= 0.593 mean= 0.583
 final diagonalization
 112 F= -.20484796E+04 E0= -.20484796E+04  d E =-.391172E-03
 curvature:  -1.54 expect dE=-0.669E-02 dE for cont linesearch -0.447E-04
 ZBRENT: interpolating
 opt :   0.6799  next Energy= -2048.479671 (dE=-0.485E-03)
 bond charge predicted
       N       E                     dE             d eps       ncg     rms          ort
 gam= 0.000 g(H,U,f)=  0.362E-01 0.358E-02 0.392E-23 ort(H,U,f) = 0.000E+00 0.000E+00 0.000E+00
SDA:   1    -0.202701995952E+04    0.14936E-01    0.00000E+00  1304   0.398E-01 0.000E+00
 gam= 0.000 trial= 0.583  step= 0.565 mean= 0.583
 gam= 0.269 g(H,U,f)=  0.101E-01 0.629E-03 0.827E-24 ort(H,U,f) = 0.724E-03-0.736E-03-0.103E-23
CGA:   2    -0.202703120634E+04   -0.11247E-01   -0.11247E-01  1304   0.107E-01-0.125E-04
 gam= 0.269 trial= 0.583  step= 0.591 mean= 0.583
 gam= 0.166 g(H,U,f)=  0.171E-02 0.616E-04 0.125E-22 ort(H,U,f) =-0.457E-04 0.458E-04 0.334E-23
CGA:   3    -0.202703436511E+04   -0.31588E-02   -0.31588E-02  1304   0.178E-02 0.784E-07
 gam= 0.166 trial= 0.583  step= 0.491 mean= 0.583
 gam= 0.212 g(H,U,f)=  0.346E-03 0.303E-04 0.858E-23 ort(H,U,f) =-0.179E-04 0.154E-04-0.146E-22
CGA:   4    -0.202703480132E+04   -0.43621E-03   -0.43610E-03  1304   0.376E-03-0.247E-05
 gam= 0.212 trial= 0.578  step= 0.553 mean= 0.578
 gam= 0.224 g(H,U,f)=  0.758E-04 0.850E-05 0.151E-25 ort(H,U,f) =-0.140E-04 0.140E-04 0.205E-24
CGA:   5    -0.202703490525E+04   -0.10393E-03   -0.10393E-03  1304   0.843E-04-0.189E-07
 gam= 0.224 trial= 0.577  step= 0.689 mean= 0.577
 gam= 0.389 g(H,U,f)=  0.299E-04 0.290E-05 0.423E-25 ort(H,U,f) =-0.767E-05 0.617E-05 0.996E-25
CGA:   6    -0.202703493420E+04   -0.28957E-04   -0.29040E-04  1304   0.328E-04-0.149E-05
 gam= 0.389 trial= 0.583  step= 0.571 mean= 0.583
 gam= 0.421 g(H,U,f)=  0.128E-04 0.983E-06 0.500E-25 ort(H,U,f) =-0.841E-06 0.259E-05 0.869E-25
CGA:   7    -0.202703494338E+04   -0.91812E-05   -0.91916E-05  1304   0.138E-04 0.175E-05
 gam= 0.421 trial= 0.582  step= 0.623 mean= 0.582
 gam= 0.440 g(H,U,f)=  0.590E-05 0.171E-06 0.483E-26 ort(H,U,f) =-0.244E-05 0.509E-06 0.263E-25
CGA:   8    -0.202703494787E+04   -0.44865E-05   -0.45256E-05  1304   0.607E-05-0.193E-05
 gam= 0.440 trial= 0.584  step= 0.462 mean= 0.584
 gam= 0.207 g(H,U,f)=  0.124E-05 0.188E-07 0.102E-25 ort(H,U,f) = 0.613E-06 0.870E-07 0.236E-25
CGA:   9    -0.202703494904E+04   -0.11652E-05   -0.12078E-05  1304   0.125E-05 0.700E-06
 gam= 0.207 trial= 0.578  step= 0.561 mean= 0.578
 gam= 0.283 g(H,U,f)=  0.342E-06 0.124E-07 0.397E-28 ort(H,U,f) = 0.726E-07-0.108E-08 0.933E-27
CGA:  10    -0.202703494943E+04   -0.39179E-06   -0.39217E-06  1304   0.355E-06 0.715E-07
 gam= 0.283 trial= 0.577  step= 1.234 mean= 0.577
 gam= 0.000 g(H,U,f)=  0.744E-06 0.312E-07 0.682E-27 ort(H,U,f) =-0.318E-06-0.158E-07-0.126E-26
CGA:  11    -0.202703494955E+04   -0.12163E-06   -0.23134E-06  1304   0.775E-06-0.334E-06
 gam= 0.000 trial= 0.610  step= 0.229 mean= 0.610
 gam= 0.174 g(H,U,f)=  0.130E-06 0.420E-08 0.904E-30 ort(H,U,f) = 0.243E-06 0.962E-08 0.237E-28
CGA:  12    -0.202703494959E+04   -0.40462E-07   -0.88705E-07  1304   0.135E-06 0.253E-06
 gam= 0.174 trial= 0.591  step= 0.249 mean= 0.591
 final diagonalization
 113 F= -.20484797E+04 E0= -.20484797E+04  d E =-.486742E-03
 curvature:  -3.24 expect dE=-0.662E-02 dE for cont linesearch -0.850E-09
 trial: gam= 1.32412 g(F)=  0.203E-02 g(S)=  0.117E-04 ort = 0.191E-05 (trialstep = 0.191E+00)
 search vector abs. value=  0.263E-01
 bond charge predicted
       N       E                     dE             d eps       ncg     rms          ort
 gam= 0.000 g(H,U,f)=  0.284E-01 0.275E-02 0.133E-23 ort(H,U,f) = 0.000E+00 0.000E+00 0.000E+00
SDA:   1    -0.202702360842E+04    0.11341E-01    0.00000E+00  1304   0.311E-01 0.000E+00
 gam= 0.000 trial= 0.574  step= 0.565 mean= 0.574
 gam= 0.266 g(H,U,f)=  0.782E-02 0.459E-03 0.165E-23 ort(H,U,f) = 0.536E-03-0.525E-03-0.186E-23
CGA:   2    -0.202703240485E+04   -0.87964E-02   -0.87965E-02  1304   0.828E-02 0.107E-04
 gam= 0.266 trial= 0.573  step= 0.592 mean= 0.573
 gam= 0.166 g(H,U,f)=  0.133E-02 0.436E-04 0.247E-22 ort(H,U,f) =-0.375E-04 0.344E-04-0.363E-23
CGA:   3    -0.202703485777E+04   -0.24529E-02   -0.24530E-02  1304   0.137E-02-0.316E-05
 gam= 0.166 trial= 0.574  step= 0.488 mean= 0.574
 gam= 0.215 g(H,U,f)=  0.273E-03 0.225E-04 0.365E-23 ort(H,U,f) =-0.962E-05 0.127E-04-0.684E-23
CGA:   4    -0.202703519275E+04   -0.33498E-03   -0.33511E-03  1304   0.295E-03 0.310E-05
 gam= 0.215 trial= 0.570  step= 0.541 mean= 0.570
 gam= 0.242 g(H,U,f)=  0.645E-04 0.683E-05 0.267E-25 ort(H,U,f) =-0.131E-04 0.110E-04-0.207E-24
CGA:   5    -0.202703527291E+04   -0.80164E-04   -0.80134E-04  1304   0.714E-04-0.207E-05
 gam= 0.242 trial= 0.569  step= 0.587 mean= 0.569
 gam= 0.387 g(H,U,f)=  0.250E-04 0.261E-05 0.208E-25 ort(H,U,f) =-0.294E-05 0.542E-05-0.208E-25
CGA:   6    -0.202703529375E+04   -0.20838E-04   -0.20815E-04  1304   0.276E-04 0.247E-05
 gam= 0.387 trial= 0.570  step= 0.599 mean= 0.570
 gam= 0.523 g(H,U,f)=  0.134E-04 0.103E-05 0.412E-25 ort(H,U,f) =-0.432E-05 0.222E-05-0.175E-25
CGA:   7    -0.202703530229E+04   -0.85354E-05   -0.85662E-05  1304   0.145E-04-0.210E-05
 gam= 0.523 trial= 0.571  step= 0.485 mean= 0.571
 gam= 0.224 g(H,U,f)=  0.310E-05 0.141E-06 0.104E-26 ort(H,U,f) = 0.759E-06 0.787E-06-0.510E-26
CGA:   8    -0.202703530546E+04   -0.31759E-05   -0.32424E-05  1304   0.324E-05 0.155E-05
 gam= 0.224 trial= 0.567  step= 0.661 mean= 0.567
 gam= 0.304 g(H,U,f)=  0.951E-06 0.360E-07 0.173E-26 ort(H,U,f) =-0.324E-07 0.827E-07-0.152E-27
CGA:   9    -0.202703530665E+04   -0.11892E-05   -0.11868E-05  1304   0.987E-06 0.503E-07
 gam= 0.304 trial= 0.571  step= 0.869 mean= 0.571
 gam= 0.000 g(H,U,f)=  0.974E-06 0.496E-07 0.263E-27 ort(H,U,f) =-0.477E-06-0.211E-07-0.653E-27
CGA:  10    -0.202703530701E+04   -0.36162E-06   -0.43577E-06  1304   0.102E-05-0.498E-06
 gam= 0.000 trial= 0.586  step= 0.222 mean= 0.586
 gam= 0.159 g(H,U,f)=  0.156E-06 0.643E-08 0.112E-27 ort(H,U,f) = 0.298E-06 0.155E-07-0.172E-27
CGA:  11    -0.202703530707E+04   -0.56374E-07   -0.11350E-06  1304   0.162E-06 0.313E-06
 gam= 0.159 trial= 0.568  step= 0.235 mean= 0.568
 final diagonalization
 114 F= -.20484800E+04 E0= -.20484800E+04  d E =-.340587E-03
 ZBRENT: can't locate minimum, use default step
 trial-energy change:   -0.000341  1 .order   -0.000343   -0.000392   -0.000295
 step:   0.7651(harm=  0.7726)  dis= 0.00343  next Energy= -2048.480464 (dE=-0.791E-03)
 bond charge predicted
       N       E                     dE             d eps       ncg     rms          ort
 gam= 0.000 g(H,U,f)=  0.256E+00 0.247E-01 0.828E-23 ort(H,U,f) = 0.000E+00 0.000E+00 0.000E+00
SDA:   1    -0.202693050023E+04    0.10481E+00    0.00000E+00  1304   0.280E+00 0.000E+00
 gam= 0.000 trial= 0.551  step= 0.565 mean= 0.551
 gam= 0.266 g(H,U,f)=  0.704E-01 0.412E-02 0.269E-22 ort(H,U,f) = 0.475E-02-0.473E-02-0.280E-22
CGA:   2    -0.202700968667E+04   -0.79186E-01   -0.79186E-01  1304   0.745E-01 0.242E-04
 gam= 0.266 trial= 0.552  step= 0.592 mean= 0.552
 gam= 0.166 g(H,U,f)=  0.120E-01 0.391E-03 0.224E-21 ort(H,U,f) =-0.316E-03 0.307E-03-0.310E-22
CGA:   3    -0.202703174668E+04   -0.22060E-01   -0.22060E-01  1304   0.124E-01-0.893E-05
 gam= 0.166 trial= 0.554  step= 0.489 mean= 0.554
 gam= 0.216 g(H,U,f)=  0.246E-02 0.202E-03 0.952E-23 ort(H,U,f) =-0.102E-03 0.113E-03-0.181E-22
CGA:   4    -0.202703476617E+04   -0.30195E-02   -0.30198E-02  1304   0.267E-02 0.106E-04
 gam= 0.216 trial= 0.551  step= 0.537 mean= 0.551
 gam= 0.239 g(H,U,f)=  0.576E-03 0.610E-04 0.104E-24 ort(H,U,f) =-0.105E-03 0.992E-04-0.803E-24
CGA:   5    -0.202703548282E+04   -0.71665E-03   -0.71660E-03  1304   0.637E-03-0.630E-05
 gam= 0.239 trial= 0.550  step= 0.602 mean= 0.550
 gam= 0.408 g(H,U,f)=  0.237E-03 0.231E-04 0.112E-24 ort(H,U,f) =-0.397E-04 0.477E-04-0.944E-25
CGA:   6    -0.202703567427E+04   -0.19145E-03   -0.19124E-03  1304   0.260E-03 0.793E-05
 gam= 0.408 trial= 0.553  step= 0.559 mean= 0.553
 gam= 0.453 g(H,U,f)=  0.109E-03 0.902E-05 0.112E-24 ort(H,U,f) =-0.273E-04 0.211E-04-0.698E-25
CGA:   7    -0.202703574782E+04   -0.73555E-04   -0.73573E-04  1304   0.118E-03-0.624E-05
 gam= 0.453 trial= 0.553  step= 0.556 mean= 0.553
 gam= 0.250 g(H,U,f)=  0.283E-04 0.123E-05 0.158E-25 ort(H,U,f) =-0.105E-05 0.603E-05-0.310E-25
CGA:   8    -0.202703577982E+04   -0.31995E-04   -0.31987E-04  1304   0.295E-04 0.498E-05
 gam= 0.250 trial= 0.553  step= 0.705 mean= 0.553
 gam= 0.279 g(H,U,f)=  0.805E-05 0.187E-06 0.777E-27 ort(H,U,f) =-0.170E-05 0.625E-06-0.173E-26
CGA:   9    -0.202703579058E+04   -0.10761E-04   -0.10844E-04  1304   0.823E-05-0.108E-05
 gam= 0.279 trial= 0.561  step= 0.565 mean= 0.561
 gam= 0.308 g(H,U,f)=  0.246E-05 0.760E-07 0.884E-26 ort(H,U,f) = 0.551E-06 0.255E-07-0.978E-27
CGA:  10    -0.202703579282E+04   -0.22426E-05   -0.22413E-05  1304   0.254E-05 0.577E-06
 gam= 0.308 trial= 0.561  step= 0.637 mean= 0.561
 gam= 0.589 g(H,U,f)=  0.145E-05 0.415E-07 0.638E-28 ort(H,U,f) =-0.447E-06-0.158E-07 0.716E-27
CGA:  11    -0.202703579367E+04   -0.84797E-06   -0.86561E-06  1304   0.150E-05-0.462E-06
 gam= 0.589 trial= 0.565  step= 0.403 mean= 0.565
 gam= 0.301 g(H,U,f)=  0.438E-06 0.129E-07 0.838E-28 ort(H,U,f) = 0.218E-06-0.187E-08-0.555E-27
CGA:  12    -0.202703579390E+04   -0.22929E-06   -0.24674E-06  1304   0.451E-06 0.217E-06
 gam= 0.301 trial= 0.557  step= 0.509 mean= 0.557
 gam= 0.456 g(H,U,f)=  0.197E-06 0.822E-08 0.261E-27 ort(H,U,f) = 0.571E-07-0.563E-09 0.147E-27
CGA:  13    -0.202703579403E+04   -0.12981E-06   -0.13124E-06  1304   0.205E-06 0.565E-07
 gam= 0.456 trial= 0.554  step= 1.070 mean= 0.554
 gam= 0.000 g(H,U,f)=  0.857E-06 0.144E-07 0.105E-27 ort(H,U,f) =-0.337E-06-0.925E-09 0.207E-27
CGA:  14    -0.202703579406E+04   -0.36453E-07   -0.12370E-06  1304   0.871E-06-0.338E-06
 gam= 0.000 trial= 0.580  step= 0.215 mean= 0.580
 final diagonalization
 115 F= -.20484805E+04 E0= -.20484805E+04  d E =-.778476E-03
 curvature:  -4.96 expect dE=-0.136E-01 dE for cont linesearch -0.254E-08
 trial: gam= 1.34098 g(F)=  0.273E-02 g(S)=  0.117E-04 ort = 0.367E-05 (trialstep = 0.161E+00)
 search vector abs. value=  0.500E-01
 bond charge predicted
       N       E                     dE             d eps       ncg     rms          ort
 gam= 0.000 g(H,U,f)=  0.385E-01 0.367E-02 0.290E-25 ort(H,U,f) = 0.000E+00 0.000E+00 0.000E+00
SDA:   1    -0.202702010925E+04    0.15685E-01    0.00000E+00  1304   0.421E-01 0.000E+00
 gam= 0.000 trial= 0.562  step= 0.563 mean= 0.562
 gam= 0.263 g(H,U,f)=  0.105E-01 0.602E-03 0.106E-24 ort(H,U,f) = 0.679E-03-0.666E-03-0.364E-25
CGA:   2    -0.202703196489E+04   -0.11856E-01   -0.11856E-01  1304   0.111E-01 0.132E-04
 gam= 0.263 trial= 0.562  step= 0.594 mean= 0.562
 gam= 0.162 g(H,U,f)=  0.174E-02 0.552E-04 0.133E-23 ort(H,U,f) =-0.584E-04 0.514E-04-0.294E-24
CGA:   3    -0.202703525302E+04   -0.32881E-02   -0.32882E-02  1304   0.179E-02-0.703E-05
 gam= 0.162 trial= 0.564  step= 0.495 mean= 0.564
 gam= 0.212 g(H,U,f)=  0.352E-03 0.285E-04 0.158E-23 ort(H,U,f) =-0.143E-04 0.187E-04-0.115E-23
CGA:   4    -0.202703569629E+04   -0.44326E-03   -0.44341E-03  1304   0.381E-03 0.433E-05
 gam= 0.212 trial= 0.560  step= 0.544 mean= 0.560
 gam= 0.236 g(H,U,f)=  0.808E-04 0.904E-05 0.107E-24 ort(H,U,f) =-0.161E-04 0.145E-04 0.415E-24
CGA:   5    -0.202703580011E+04   -0.10382E-03   -0.10381E-03  1304   0.898E-04-0.154E-05
 gam= 0.236 trial= 0.559  step= 0.625 mean= 0.559
 gam= 0.374 g(H,U,f)=  0.303E-04 0.329E-05 0.560E-25 ort(H,U,f) =-0.505E-05 0.696E-05 0.162E-24
CGA:   6    -0.202703582811E+04   -0.28007E-04   -0.27944E-04  1304   0.336E-04 0.191E-05
 gam= 0.374 trial= 0.563  step= 0.631 mean= 0.563
 gam= 0.556 g(H,U,f)=  0.175E-04 0.116E-05 0.656E-25 ort(H,U,f) =-0.517E-05 0.268E-05 0.134E-24
CGA:   7    -0.202703583885E+04   -0.10734E-04   -0.10819E-04  1304   0.187E-04-0.248E-05
 gam= 0.556 trial= 0.566  step= 0.454 mean= 0.566
 gam= 0.233 g(H,U,f)=  0.418E-05 0.168E-06 0.126E-25 ort(H,U,f) = 0.960E-06 0.944E-06 0.647E-25
CGA:   8    -0.202703584266E+04   -0.38149E-05   -0.39216E-05  1304   0.435E-05 0.190E-05
 gam= 0.233 trial= 0.560  step= 0.642 mean= 0.560
 gam= 0.307 g(H,U,f)=  0.130E-05 0.355E-07 0.180E-26 ort(H,U,f) =-0.290E-07 0.112E-06 0.108E-25
CGA:   9    -0.202703584420E+04   -0.15407E-05   -0.15375E-05  1304   0.134E-05 0.832E-07
 gam= 0.307 trial= 0.564  step= 0.827 mean= 0.564
 gam= 0.000 g(H,U,f)=  0.161E-05 0.513E-07 0.403E-28 ort(H,U,f) =-0.704E-06-0.228E-07 0.776E-27
CGA:  10    -0.202703584467E+04   -0.46717E-06   -0.56239E-06  1304   0.166E-05-0.727E-06
 gam= 0.000 trial= 0.578  step= 0.211 mean= 0.578
 gam= 0.130 g(H,U,f)=  0.209E-06 0.709E-08 0.384E-28 ort(H,U,f) = 0.428E-06 0.157E-07 0.393E-28
CGA:  11    -0.202703584476E+04   -0.93525E-07   -0.17491E-06  1304   0.217E-06 0.444E-06
 gam= 0.130 trial= 0.559  step= 0.219 mean= 0.559
 final diagonalization
 116 F= -.20484808E+04 E0= -.20484808E+04  d E =-.388559E-03
 ZBRENT: can't locate minimum, use default step
 trial-energy change:   -0.000389  1 .order   -0.000394   -0.000442   -0.000346
 step:   0.6432(harm=  0.7361)  dis= 0.00404  next Energy= -2048.481464 (dE=-0.101E-02)
 bond charge predicted
       N       E                     dE             d eps       ncg     rms          ort
 gam= 0.000 g(H,U,f)=  0.346E+00 0.331E-01 0.191E-24 ort(H,U,f) = 0.000E+00 0.000E+00 0.000E+00
SDA:   1    -0.202689380338E+04    0.14204E+00    0.00000E+00  1304   0.379E+00 0.000E+00
 gam= 0.000 trial= 0.542  step= 0.563 mean= 0.542
 gam= 0.263 g(H,U,f)=  0.942E-01 0.541E-02 0.602E-24 ort(H,U,f) = 0.600E-02-0.598E-02 0.145E-24
CGA:   2    -0.202700050445E+04   -0.10670E+00   -0.10670E+00  1304   0.996E-01 0.181E-04
 gam= 0.263 trial= 0.543  step= 0.594 mean= 0.543
 gam= 0.161 g(H,U,f)=  0.156E-01 0.497E-03 0.698E-23 ort(H,U,f) =-0.483E-03 0.464E-03-0.147E-23
CGA:   3    -0.202703008054E+04   -0.29576E-01   -0.29577E-01  1304   0.161E-01-0.183E-04
 gam= 0.161 trial= 0.546  step= 0.497 mean= 0.546
 gam= 0.213 g(H,U,f)=  0.317E-02 0.259E-03 0.376E-23 ort(H,U,f) =-0.154E-03 0.168E-03-0.274E-23
CGA:   4    -0.202703407063E+04   -0.39901E-02   -0.39904E-02  1304   0.343E-02 0.140E-04
 gam= 0.213 trial= 0.543  step= 0.542 mean= 0.543
 gam= 0.233 g(H,U,f)=  0.716E-03 0.811E-04 0.493E-24 ort(H,U,f) =-0.135E-03 0.131E-03 0.195E-23
CGA:   5    -0.202703500056E+04   -0.92994E-03   -0.92993E-03  1304   0.797E-03-0.397E-05
 gam= 0.233 trial= 0.543  step= 0.642 mean= 0.543
 gam= 0.382 g(H,U,f)=  0.275E-03 0.292E-04 0.382E-24 ort(H,U,f) =-0.561E-04 0.616E-04 0.109E-23
CGA:   6    -0.202703525659E+04   -0.25603E-03   -0.25575E-03  1304   0.304E-03 0.559E-05
 gam= 0.382 trial= 0.548  step= 0.604 mean= 0.548
 gam= 0.496 g(H,U,f)=  0.141E-03 0.101E-04 0.499E-24 ort(H,U,f) =-0.318E-04 0.249E-04 0.108E-23
CGA:   7    -0.202703534895E+04   -0.92354E-04   -0.92549E-04  1304   0.151E-03-0.695E-05
 gam= 0.496 trial= 0.551  step= 0.507 mean= 0.551
 gam= 0.266 g(H,U,f)=  0.386E-04 0.155E-05 0.108E-24 ort(H,U,f) =-0.117E-05 0.741E-05 0.563E-24
CGA:   8    -0.202703538611E+04   -0.37167E-04   -0.37305E-04  1304   0.401E-04 0.624E-05
 gam= 0.266 trial= 0.549  step= 0.679 mean= 0.549
 gam= 0.252 g(H,U,f)=  0.993E-05 0.193E-06 0.363E-25 ort(H,U,f) =-0.221E-05 0.839E-06 0.165E-24
CGA:   9    -0.202703540020E+04   -0.14085E-04   -0.14174E-04  1304   0.101E-04-0.137E-05
 gam= 0.252 trial= 0.555  step= 0.653 mean= 0.555
 gam= 0.246 g(H,U,f)=  0.239E-05 0.102E-06 0.955E-27 ort(H,U,f) = 0.450E-06-0.156E-07-0.131E-25
CGA:  10    -0.202703540341E+04   -0.32149E-05   -0.31934E-05  1304   0.249E-05 0.435E-06
 gam= 0.246 trial= 0.560  step= 0.786 mean= 0.560
 gam= 0.549 g(H,U,f)=  0.131E-05 0.570E-07 0.146E-25 ort(H,U,f) =-0.320E-06-0.422E-07 0.894E-26
CGA:  11    -0.202703540439E+04   -0.97992E-06   -0.10209E-05  1304   0.137E-05-0.362E-06
 gam= 0.549 trial= 0.571  step= 0.418 mean= 0.571
 gam= 0.327 g(H,U,f)=  0.434E-06 0.133E-07 0.632E-27 ort(H,U,f) = 0.246E-06 0.228E-08 0.411E-26
CGA:  12    -0.202703540462E+04   -0.22515E-06   -0.24418E-06  1304   0.447E-06 0.248E-06
 gam= 0.327 trial= 0.564  step= 0.626 mean= 0.564
 gam= 0.456 g(H,U,f)=  0.185E-06 0.185E-07 0.379E-26 ort(H,U,f) =-0.305E-07-0.138E-08-0.488E-26
CGA:  13    -0.202703540478E+04   -0.16452E-06   -0.16542E-06  1304   0.204E-06-0.319E-07
 gam= 0.456 trial= 0.567  step= 1.317 mean= 0.567
 gam= 0.000 g(H,U,f)=  0.662E-06 0.439E-07 0.752E-26 ort(H,U,f) =-0.261E-06-0.155E-07-0.216E-26
CGA:  14    -0.202703540480E+04   -0.21544E-07   -0.12473E-06  1304   0.706E-06-0.277E-06
 gam= 0.000 trial= 0.604  step= 0.245 mean= 0.604
 final diagonalization
 117 F= -.20484814E+04 E0= -.20484814E+04  d E =-.964477E-03
 curvature:  -6.52 expect dE=-0.208E-01 dE for cont linesearch -0.939E-05
 trial: gam= 1.07521 g(F)=  0.319E-02 g(S)=  0.937E-05 ort = 0.268E-03 (trialstep = 0.209E+00)
 search vector abs. value=  0.616E-01
 bond charge predicted
       N       E                     dE             d eps       ncg     rms          ort
 gam= 0.000 g(H,U,f)=  0.797E-01 0.774E-02 0.275E-22 ort(H,U,f) = 0.000E+00 0.000E+00 0.000E+00
SDA:   1    -0.202700338471E+04    0.32020E-01    0.00000E+00  1304   0.875E-01 0.000E+00
 gam= 0.000 trial= 0.586  step= 0.557 mean= 0.586
 gam= 0.260 g(H,U,f)=  0.215E-01 0.125E-02 0.587E-23 ort(H,U,f) = 0.141E-02-0.139E-02-0.985E-23
CGA:   2    -0.202702773620E+04   -0.24351E-01   -0.24352E-01  1304   0.228E-01 0.189E-04
 gam= 0.260 trial= 0.585  step= 0.598 mean= 0.585
 gam= 0.162 g(H,U,f)=  0.358E-02 0.120E-03 0.604E-23 ort(H,U,f) =-0.108E-03 0.972E-04-0.278E-23
CGA:   3    -0.202703454132E+04   -0.68051E-02   -0.68052E-02  1304   0.370E-02-0.107E-04
 gam= 0.162 trial= 0.586  step= 0.496 mean= 0.586
 gam= 0.212 g(H,U,f)=  0.726E-03 0.585E-04 0.328E-23 ort(H,U,f) =-0.311E-04 0.372E-04-0.286E-23
CGA:   4    -0.202703545783E+04   -0.91652E-03   -0.91679E-03  1304   0.785E-03 0.609E-05
 gam= 0.212 trial= 0.581  step= 0.543 mean= 0.581
 gam= 0.231 g(H,U,f)=  0.163E-03 0.184E-04 0.147E-24 ort(H,U,f) =-0.308E-04 0.296E-04 0.779E-24
CGA:   5    -0.202703567117E+04   -0.21333E-03   -0.21331E-03  1304   0.181E-03-0.123E-05
 gam= 0.231 trial= 0.579  step= 0.634 mean= 0.579
 gam= 0.380 g(H,U,f)=  0.622E-04 0.675E-05 0.116E-24 ort(H,U,f) =-0.118E-04 0.140E-04 0.337E-24
CGA:   6    -0.202703572864E+04   -0.57470E-04   -0.57409E-04  1304   0.690E-04 0.223E-05
 gam= 0.380 trial= 0.582  step= 0.611 mean= 0.582
 gam= 0.520 g(H,U,f)=  0.335E-04 0.237E-05 0.207E-24 ort(H,U,f) =-0.866E-05 0.564E-05 0.359E-24
CGA:   7    -0.202703574993E+04   -0.21297E-04   -0.21341E-04  1304   0.358E-04-0.301E-05
 gam= 0.520 trial= 0.583  step= 0.482 mean= 0.583
 gam= 0.247 g(H,U,f)=  0.849E-05 0.360E-06 0.381E-25 ort(H,U,f) = 0.704E-06 0.182E-05 0.185E-24
CGA:   8    -0.202703575807E+04   -0.81321E-05   -0.82598E-05  1304   0.886E-05 0.252E-05
 gam= 0.247 trial= 0.578  step= 0.686 mean= 0.578
 gam= 0.264 g(H,U,f)=  0.229E-05 0.522E-07 0.868E-27 ort(H,U,f) =-0.432E-06 0.205E-06 0.135E-25
CGA:   9    -0.202703576131E+04   -0.32397E-05   -0.32517E-05  1304   0.234E-05-0.226E-06
 gam= 0.264 trial= 0.584  step= 0.731 mean= 0.584
 gam= 0.345 g(H,U,f)=  0.768E-06 0.392E-07 0.863E-27 ort(H,U,f) =-0.168E-06-0.131E-07 0.451E-26
CGA:  10    -0.202703576213E+04   -0.82021E-06   -0.83358E-06  1304   0.807E-06-0.181E-06
 gam= 0.345 trial= 0.591  step= 0.384 mean= 0.591
 gam= 0.321 g(H,U,f)=  0.250E-06 0.908E-08 0.740E-28 ort(H,U,f) = 0.221E-06 0.470E-08 0.713E-27
CGA:  11    -0.202703576224E+04   -0.11919E-06   -0.14277E-06  1304   0.259E-06 0.226E-06
 gam= 0.321 trial= 0.581  step= 0.631 mean= 0.581
 gam= 0.546 g(H,U,f)=  0.131E-06 0.981E-08 0.155E-27 ort(H,U,f) =-0.182E-07-0.607E-08-0.442E-27
CGA:  12    -0.202703576235E+04   -0.10390E-06   -0.10459E-06  1304   0.141E-06-0.243E-07
 gam= 0.546 trial= 0.583  step= 1.692 mean= 0.583
 gam= 0.000 g(H,U,f)=  0.599E-06 0.467E-07 0.220E-29 ort(H,U,f) =-0.238E-06-0.130E-07-0.952E-29
CGA:  13    -0.202703576232E+04    0.30581E-07   -0.10829E-06  1304   0.646E-06-0.251E-06
 gam= 0.000 trial= 0.639  step= 0.281 mean= 0.639
 final diagonalization
 118 F= -.20484820E+04 E0= -.20484820E+04  d E =-.605614E-03
 trial-energy change:   -0.000606  1 .order   -0.000610   -0.000728   -0.000492
 step:   0.6455(harm=  0.6455)  dis= 0.00463  next Energy= -2048.482541 (dE=-0.112E-02)
 bond charge predicted
       N       E                     dE             d eps       ncg     rms          ort
 gam= 0.000 g(H,U,f)=  0.348E+00 0.338E-01 0.106E-21 ort(H,U,f) = 0.000E+00 0.000E+00 0.000E+00
SDA:   1    -0.202689436280E+04    0.14140E+00    0.00000E+00  1304   0.382E+00 0.000E+00
 gam= 0.000 trial= 0.621  step= 0.557 mean= 0.621
 gam= 0.260 g(H,U,f)=  0.939E-01 0.543E-02 0.129E-22 ort(H,U,f) = 0.609E-02-0.607E-02-0.215E-22
CGA:   2    -0.202700070717E+04   -0.10634E+00   -0.10634E+00  1304   0.994E-01 0.225E-04
 gam= 0.260 trial= 0.618  step= 0.598 mean= 0.618
 gam= 0.162 g(H,U,f)=  0.156E-01 0.525E-03 0.907E-23 ort(H,U,f) =-0.447E-03 0.428E-03-0.415E-23
CGA:   3    -0.202703041071E+04   -0.29704E-01   -0.29703E-01  1304   0.161E-01-0.189E-04
 gam= 0.162 trial= 0.617  step= 0.497 mean= 0.617
 gam= 0.213 g(H,U,f)=  0.317E-02 0.255E-03 0.216E-23 ort(H,U,f) =-0.150E-03 0.163E-03-0.189E-23
CGA:   4    -0.202703441174E+04   -0.40010E-02   -0.40018E-02  1304   0.343E-02 0.126E-04
 gam= 0.213 trial= 0.611  step= 0.542 mean= 0.611
 gam= 0.230 g(H,U,f)=  0.708E-03 0.802E-04 0.182E-24 ort(H,U,f) =-0.131E-03 0.129E-03 0.998E-24
CGA:   5    -0.202703534187E+04   -0.93013E-03   -0.93006E-03  1304   0.788E-03-0.207E-05
 gam= 0.230 trial= 0.607  step= 0.641 mean= 0.607
 gam= 0.384 g(H,U,f)=  0.273E-03 0.294E-04 0.208E-24 ort(H,U,f) =-0.565E-04 0.608E-04 0.600E-24
CGA:   6    -0.202703559419E+04   -0.25232E-03   -0.25225E-03  1304   0.303E-03 0.438E-05
 gam= 0.384 trial= 0.609  step= 0.596 mean= 0.609
 gam= 0.491 g(H,U,f)=  0.138E-03 0.102E-04 0.435E-24 ort(H,U,f) =-0.308E-04 0.251E-04 0.771E-24
CGA:   7    -0.202703568495E+04   -0.90765E-04   -0.90729E-04  1304   0.149E-03-0.568E-05
 gam= 0.491 trial= 0.608  step= 0.512 mean= 0.608
 gam= 0.269 g(H,U,f)=  0.384E-04 0.161E-05 0.879E-25 ort(H,U,f) =-0.219E-05 0.741E-05 0.445E-24
CGA:   8    -0.202703572207E+04   -0.37115E-04   -0.37365E-04  1304   0.400E-04 0.522E-05
 gam= 0.269 trial= 0.603  step= 0.674 mean= 0.603
 gam= 0.251 g(H,U,f)=  0.985E-05 0.206E-06 0.646E-26 ort(H,U,f) =-0.195E-05 0.873E-06 0.642E-25
CGA:   9    -0.202703573599E+04   -0.13924E-04   -0.13962E-04  1304   0.101E-04-0.108E-05
 gam= 0.251 trial= 0.607  step= 0.636 mean= 0.607
 gam= 0.275 g(H,U,f)=  0.266E-05 0.103E-06 0.741E-27 ort(H,U,f) = 0.474E-06-0.497E-09 0.794E-26
CGA:  10    -0.202703573911E+04   -0.31165E-05   -0.31097E-05  1304   0.276E-05 0.473E-06
 gam= 0.275 trial= 0.608  step= 0.682 mean= 0.608
 gam= 0.595 g(H,U,f)=  0.159E-05 0.520E-07 0.282E-27 ort(H,U,f) =-0.326E-06-0.297E-07 0.184E-26
CGA:  11    -0.202703574008E+04   -0.97238E-06   -0.98535E-06  1304   0.164E-05-0.356E-06
 gam= 0.595 trial= 0.612  step= 0.405 mean= 0.612
 gam= 0.294 g(H,U,f)=  0.468E-06 0.157E-07 0.296E-30 ort(H,U,f) = 0.224E-06-0.349E-09-0.356E-28
CGA:  12    -0.202703574035E+04   -0.26653E-06   -0.28974E-06  1304   0.484E-06 0.223E-06
 gam= 0.294 trial= 0.602  step= 0.592 mean= 0.602
 gam= 0.477 g(H,U,f)=  0.216E-06 0.142E-07 0.491E-27 ort(H,U,f) = 0.204E-07-0.105E-08-0.537E-27
CGA:  13    -0.202703574051E+04   -0.16249E-06   -0.16258E-06  1304   0.231E-06 0.193E-07
 gam= 0.477 trial= 0.601  step= 0.877 mean= 0.601
 gam= 0.000 g(H,U,f)=  0.504E-06 0.127E-07 0.229E-27 ort(H,U,f) =-0.221E-06-0.161E-08 0.158E-27
CGA:  14    -0.202703574059E+04   -0.74564E-07   -0.10515E-06  1304   0.517E-06-0.222E-06
 gam= 0.000 trial= 0.615  step= 0.210 mean= 0.615
 final diagonalization
 119 F= -.20484825E+04 E0= -.20484825E+04  d E =-.110460E-02
 curvature:  -5.71 expect dE=-0.164E-01 dE for cont linesearch -0.908E-07
 trial: gam= 1.09867 g(F)=  0.286E-02 g(S)=  0.106E-04 ort =-0.313E-04 (trialstep = 0.237E+00)
 search vector abs. value=  0.772E-01
 bond charge predicted
       N       E                     dE             d eps       ncg     rms          ort
 gam= 0.000 g(H,U,f)=  0.128E+00 0.125E-01 0.507E-23 ort(H,U,f) = 0.000E+00 0.000E+00 0.000E+00
SDA:   1    -0.202698383029E+04    0.51910E-01    0.00000E+00  1304   0.141E+00 0.000E+00
 gam= 0.000 trial= 0.595  step= 0.556 mean= 0.595
 gam= 0.258 g(H,U,f)=  0.345E-01 0.192E-02 0.584E-26 ort(H,U,f) = 0.215E-02-0.212E-02-0.151E-24
CGA:   2    -0.202702296403E+04   -0.39134E-01   -0.39134E-01  1304   0.364E-01 0.292E-04
 gam= 0.258 trial= 0.593  step= 0.598 mean= 0.593
 gam= 0.163 g(H,U,f)=  0.575E-02 0.178E-03 0.181E-23 ort(H,U,f) =-0.184E-03 0.169E-03 0.314E-24
CGA:   3    -0.202703385258E+04   -0.10889E-01   -0.10889E-01  1304   0.593E-02-0.147E-04
 gam= 0.163 trial= 0.593  step= 0.492 mean= 0.593
 gam= 0.220 g(H,U,f)=  0.121E-02 0.911E-04 0.129E-23 ort(H,U,f) =-0.526E-04 0.646E-04-0.112E-23
CGA:   4    -0.202703531071E+04   -0.14581E-02   -0.14587E-02  1304   0.131E-02 0.119E-04
 gam= 0.220 trial= 0.588  step= 0.522 mean= 0.588
 gam= 0.250 g(H,U,f)=  0.296E-03 0.308E-04 0.224E-24 ort(H,U,f) =-0.566E-04 0.503E-04 0.556E-24
CGA:   5    -0.202703565255E+04   -0.34184E-03   -0.34164E-03  1304   0.327E-03-0.625E-05
 gam= 0.250 trial= 0.585  step= 0.560 mean= 0.585
 gam= 0.399 g(H,U,f)=  0.118E-03 0.123E-04 0.391E-25 ort(H,U,f) =-0.192E-04 0.252E-04 0.178E-24
CGA:   6    -0.202703574353E+04   -0.90980E-04   -0.91053E-04  1304   0.130E-03 0.593E-05
 gam= 0.399 trial= 0.584  step= 0.574 mean= 0.584
 gam= 0.437 g(H,U,f)=  0.522E-04 0.477E-05 0.104E-24 ort(H,U,f) =-0.153E-04 0.109E-04 0.196E-24
CGA:   7    -0.202703578163E+04   -0.38096E-04   -0.38074E-04  1304   0.569E-04-0.432E-05
 gam= 0.437 trial= 0.583  step= 0.568 mean= 0.583
 gam= 0.253 g(H,U,f)=  0.137E-04 0.650E-06 0.181E-25 ort(H,U,f) = 0.282E-06 0.307E-05 0.868E-25
CGA:   8    -0.202703579723E+04   -0.15601E-04   -0.15627E-04  1304   0.144E-04 0.335E-05
 gam= 0.253 trial= 0.582  step= 0.711 mean= 0.582
 gam= 0.308 g(H,U,f)=  0.433E-05 0.102E-06 0.253E-26 ort(H,U,f) =-0.117E-05 0.367E-06 0.159E-25
CGA:   9    -0.202703580259E+04   -0.53604E-05   -0.54119E-05  1304   0.443E-05-0.803E-06
 gam= 0.308 trial= 0.589  step= 0.500 mean= 0.589
 gam= 0.284 g(H,U,f)=  0.122E-05 0.312E-07 0.205E-28 ort(H,U,f) = 0.571E-06 0.356E-07 0.674E-27
CGA:  10    -0.202703580361E+04   -0.10180E-05   -0.10450E-05  1304   0.126E-05 0.607E-06
 gam= 0.284 trial= 0.584  step= 0.750 mean= 0.584
 gam= 0.725 g(H,U,f)=  0.885E-06 0.252E-07 0.689E-28 ort(H,U,f) =-0.428E-06-0.101E-07 0.393E-27
CGA:  11    -0.202703580410E+04   -0.49923E-06   -0.53525E-06  1304   0.910E-06-0.439E-06
 gam= 0.725 trial= 0.592  step= 0.319 mean= 0.592
 gam= 0.458 g(H,U,f)=  0.408E-06 0.879E-08 0.294E-28 ort(H,U,f) = 0.180E-06 0.110E-08 0.232E-27
CGA:  12    -0.202703580417E+04   -0.69791E-07   -0.94545E-07  1304   0.416E-06 0.181E-06
 gam= 0.458 trial= 0.579  step= 0.291 mean= 0.579
 final diagonalization
 120 F= -.20484831E+04 E0= -.20484831E+04  d E =-.565515E-03
 trial-energy change:   -0.000566  1 .order   -0.000581   -0.000670   -0.000491
 step:   0.8846(harm=  0.8846)  dis= 0.00741  next Energy= -2048.483774 (dE=-0.125E-02)
 bond charge predicted
       N       E                     dE             d eps       ncg     rms          ort
 gam= 0.000 g(H,U,f)=  0.963E+00 0.938E-01 0.206E-22 ort(H,U,f) = 0.000E+00 0.000E+00 0.000E+00
SDA:   1    -0.202664486677E+04    0.39094E+00    0.00000E+00  1304   0.106E+01 0.000E+00
 gam= 0.000 trial= 0.564  step= 0.556 mean= 0.564
 gam= 0.259 g(H,U,f)=  0.259E+00 0.144E-01 0.169E-24 ort(H,U,f) = 0.159E-01-0.159E-01 0.121E-23
CGA:   2    -0.202693864876E+04   -0.29378E+00   -0.29378E+00  1304   0.273E+00-0.270E-04
 gam= 0.259 trial= 0.564  step= 0.598 mean= 0.564
 gam= 0.162 g(H,U,f)=  0.430E-01 0.134E-02 0.119E-23 ort(H,U,f) =-0.130E-02 0.127E-02 0.241E-24
CGA:   3    -0.202702034660E+04   -0.81698E-01   -0.81698E-01  1304   0.443E-01-0.271E-04
 gam= 0.162 trial= 0.566  step= 0.494 mean= 0.566
 gam= 0.220 g(H,U,f)=  0.909E-02 0.686E-03 0.248E-24 ort(H,U,f) =-0.450E-03 0.486E-03-0.218E-24
CGA:   4    -0.202703129520E+04   -0.10949E-01   -0.10950E-01  1304   0.977E-02 0.360E-04
 gam= 0.220 trial= 0.562  step= 0.522 mean= 0.562
 gam= 0.247 g(H,U,f)=  0.218E-02 0.230E-03 0.961E-25 ort(H,U,f) =-0.394E-03 0.378E-03 0.244E-24
CGA:   5    -0.202703384688E+04   -0.25517E-02   -0.25514E-02  1304   0.241E-02-0.164E-04
 gam= 0.247 trial= 0.560  step= 0.573 mean= 0.560
 gam= 0.410 g(H,U,f)=  0.898E-03 0.917E-04 0.283E-25 ort(H,U,f) =-0.169E-03 0.186E-03 0.132E-24
CGA:   6    -0.202703453667E+04   -0.68979E-03   -0.68968E-03  1304   0.990E-03 0.169E-04
 gam= 0.410 trial= 0.561  step= 0.556 mean= 0.561
 gam= 0.416 g(H,U,f)=  0.377E-03 0.351E-04 0.988E-25 ort(H,U,f) =-0.957E-04 0.838E-04 0.193E-24
CGA:   7    -0.202703481356E+04   -0.27690E-03   -0.27686E-03  1304   0.412E-03-0.118E-04
 gam= 0.416 trial= 0.560  step= 0.598 mean= 0.560
 gam= 0.271 g(H,U,f)=  0.107E-03 0.487E-05 0.243E-25 ort(H,U,f) =-0.114E-04 0.213E-04 0.114E-24
CGA:   8    -0.202703493537E+04   -0.12181E-03   -0.12162E-03  1304   0.111E-03 0.994E-05
 gam= 0.271 trial= 0.562  step= 0.680 mean= 0.562
 gam= 0.285 g(H,U,f)=  0.310E-04 0.727E-06 0.633E-26 ort(H,U,f) =-0.555E-05 0.275E-05 0.331E-25
CGA:   9    -0.202703497398E+04   -0.38612E-04   -0.38776E-04  1304   0.318E-04-0.279E-05
 gam= 0.285 trial= 0.568  step= 0.522 mean= 0.568
 gam= 0.333 g(H,U,f)=  0.103E-04 0.258E-06 0.124E-28 ort(H,U,f) = 0.194E-05 0.206E-06-0.715E-27
CGA:  10    -0.202703498201E+04   -0.80249E-05   -0.80750E-05  1304   0.106E-04 0.215E-05
 gam= 0.333 trial= 0.566  step= 0.602 mean= 0.566
 gam= 0.471 g(H,U,f)=  0.484E-05 0.144E-06 0.951E-28 ort(H,U,f) =-0.140E-05-0.429E-07 0.645E-27
CGA:  11    -0.202703498538E+04   -0.33699E-05   -0.33955E-05  1304   0.498E-05-0.144E-05
 gam= 0.471 trial= 0.568  step= 0.466 mean= 0.568
 gam= 0.288 g(H,U,f)=  0.140E-05 0.354E-07 0.116E-27 ort(H,U,f) = 0.691E-06-0.135E-08 0.447E-27
CGA:  12    -0.202703498634E+04   -0.96610E-06   -0.10011E-05  1304   0.144E-05 0.689E-06
 gam= 0.288 trial= 0.563  step= 0.670 mean= 0.563
 gam= 0.366 g(H,U,f)=  0.501E-06 0.240E-07 0.221E-27 ort(H,U,f) =-0.158E-07 0.921E-09-0.342E-27
CGA:  13    -0.202703498689E+04   -0.54693E-06   -0.54764E-06  1304   0.525E-06-0.149E-07
 gam= 0.366 trial= 0.568  step= 1.419 mean= 0.568
 gam= 0.000 g(H,U,f)=  0.207E-05 0.722E-07 0.461E-28 ort(H,U,f) =-0.676E-06-0.121E-07-0.414E-28
CGA:  14    -0.202703498697E+04   -0.75903E-07   -0.36840E-06  1304   0.214E-05-0.688E-06
 gam= 0.000 trial= 0.610  step= 0.227 mean= 0.610
 gam= 0.109 g(H,U,f)=  0.228E-06 0.525E-08 0.146E-29 ort(H,U,f) = 0.459E-06 0.153E-07 0.823E-29
CGA:  15    -0.202703498712E+04   -0.15162E-06   -0.24266E-06  1304   0.233E-06 0.474E-06
 gam= 0.109 trial= 0.591  step= 0.276 mean= 0.591
 gam= 0.412 g(H,U,f)=  0.940E-07 0.217E-08 0.219E-29 ort(H,U,f) = 0.991E-07-0.202E-10-0.290E-29
CGA:  16    -0.202703498714E+04   -0.23603E-07   -0.39340E-07  1304   0.962E-07 0.990E-07
 gam= 0.412 trial= 0.576  step= 0.787 mean= 0.576
 final diagonalization
 121 F= -.20484837E+04 E0= -.20484837E+04  d E =-.113372E-02
 curvature: -12.04 expect dE=-0.824E-01 dE for cont linesearch -0.278E-05
 trial: gam= 2.25306 g(F)=  0.684E-02 g(S)=  0.486E-07 ort =-0.133E-03 (trialstep = 0.710E-01)
 search vector abs. value=  0.398E+00
 bond charge predicted
       N       E                     dE             d eps       ncg     rms          ort
 gam= 0.000 g(H,U,f)=  0.595E-01 0.588E-02 0.223E-24 ort(H,U,f) = 0.000E+00 0.000E+00 0.000E+00
SDA:   1    -0.202701099046E+04    0.23997E-01    0.00000E+00  1304   0.654E-01 0.000E+00
 gam= 0.000 trial= 0.586  step= 0.554 mean= 0.586
 gam= 0.258 g(H,U,f)=  0.160E-01 0.895E-03 0.200E-26 ort(H,U,f) = 0.103E-02-0.101E-02 0.227E-25
CGA:   2    -0.202702909533E+04   -0.18105E-01   -0.18105E-01  1304   0.169E-01 0.220E-04
 gam= 0.258 trial= 0.585  step= 0.599 mean= 0.585
 gam= 0.164 g(H,U,f)=  0.269E-02 0.830E-04 0.339E-24 ort(H,U,f) =-0.864E-04 0.767E-04 0.632E-25
CGA:   3    -0.202703415036E+04   -0.50550E-02   -0.50551E-02  1304   0.277E-02-0.974E-05
 gam= 0.164 trial= 0.585  step= 0.488 mean= 0.585
 gam= 0.223 g(H,U,f)=  0.577E-03 0.424E-04 0.154E-24 ort(H,U,f) =-0.208E-04 0.298E-04-0.180E-24
CGA:   4    -0.202703482572E+04   -0.67536E-03   -0.67579E-03  1304   0.619E-03 0.895E-05
 gam= 0.223 trial= 0.580  step= 0.518 mean= 0.580
 gam= 0.258 g(H,U,f)=  0.145E-03 0.145E-04 0.140E-25 ort(H,U,f) =-0.290E-04 0.237E-04 0.392E-25
CGA:   5    -0.202703498661E+04   -0.16089E-03   -0.16073E-03  1304   0.159E-03-0.531E-05
 gam= 0.258 trial= 0.577  step= 0.536 mean= 0.577
 gam= 0.385 g(H,U,f)=  0.555E-04 0.591E-05 0.845E-27 ort(H,U,f) =-0.758E-05 0.120E-04 0.638E-26
CGA:   6    -0.202703502890E+04   -0.42287E-04   -0.42377E-04  1304   0.615E-04 0.440E-05
 gam= 0.385 trial= 0.575  step= 0.592 mean= 0.575
 gam= 0.439 g(H,U,f)=  0.247E-04 0.231E-05 0.746E-26 ort(H,U,f) =-0.794E-05 0.502E-05 0.102E-25
CGA:   7    -0.202703504758E+04   -0.18681E-04   -0.18706E-04  1304   0.270E-04-0.292E-05
 gam= 0.439 trial= 0.576  step= 0.559 mean= 0.576
 gam= 0.244 g(H,U,f)=  0.627E-05 0.308E-06 0.526E-27 ort(H,U,f) = 0.757E-06 0.150E-05 0.332E-26
CGA:   8    -0.202703505474E+04   -0.71665E-05   -0.71855E-05  1304   0.658E-05 0.226E-05
 gam= 0.244 trial= 0.575  step= 0.724 mean= 0.575
 gam= 0.339 g(H,U,f)=  0.217E-05 0.562E-07 0.144E-27 ort(H,U,f) =-0.691E-06 0.176E-06 0.720E-27
CGA:   9    -0.202703505728E+04   -0.25414E-05   -0.25797E-05  1304   0.223E-05-0.515E-06
 gam= 0.339 trial= 0.583  step= 0.474 mean= 0.583
 gam= 0.273 g(H,U,f)=  0.593E-06 0.138E-07 0.288E-31 ort(H,U,f) = 0.349E-06 0.227E-07-0.365E-29
CGA:  10    -0.202703505775E+04   -0.46562E-06   -0.48613E-06  1304   0.607E-06 0.372E-06
 gam= 0.273 trial= 0.577  step= 0.759 mean= 0.577
 gam= 0.643 g(H,U,f)=  0.379E-06 0.121E-07 0.262E-29 ort(H,U,f) =-0.214E-06-0.403E-08-0.142E-28
CGA:  11    -0.202703505800E+04   -0.24901E-06   -0.26903E-06  1304   0.391E-06-0.218E-06
 gam= 0.643 trial= 0.586  step= 0.359 mean= 0.586
 gam= 0.501 g(H,U,f)=  0.192E-06 0.380E-08 0.142E-31 ort(H,U,f) = 0.839E-07 0.638E-09 0.466E-30
CGA:  12    -0.202703505803E+04   -0.35281E-07   -0.44926E-07  1304   0.196E-06 0.845E-07
 gam= 0.501 trial= 0.575  step= 0.331 mean= 0.575
 final diagonalization
 122 F= -.20484841E+04 E0= -.20484841E+04  d E =-.430003E-03
 ZBRENT: can't locate minimum, use default step
 trial-energy change:   -0.000430  1 .order   -0.000443   -0.000465   -0.000422
 step:   0.2840(harm=  0.7757)  dis= 0.00544  next Energy= -2048.486192 (dE=-0.254E-02)
 bond charge predicted
       N       E                     dE             d eps       ncg     rms          ort
 gam= 0.000 g(H,U,f)=  0.535E+00 0.529E-01 0.112E-23 ort(H,U,f) = 0.000E+00 0.000E+00 0.000E+00
SDA:   1    -0.202681835573E+04    0.21670E+00    0.00000E+00  1304   0.588E+00 0.000E+00
 gam= 0.000 trial= 0.563  step= 0.554 mean= 0.563
 gam= 0.258 g(H,U,f)=  0.144E+00 0.805E-02 0.160E-24 ort(H,U,f) = 0.909E-02-0.907E-02 0.490E-24
CGA:   2    -0.202698135221E+04   -0.16300E+00   -0.16300E+00  1304   0.152E+00 0.199E-04
 gam= 0.258 trial= 0.562  step= 0.599 mean= 0.562
 gam= 0.164 g(H,U,f)=  0.241E-01 0.750E-03 0.690E-24 ort(H,U,f) =-0.715E-03 0.691E-03 0.143E-24
CGA:   3    -0.202702684250E+04   -0.45490E-01   -0.45491E-01  1304   0.249E-01-0.234E-04
 gam= 0.164 trial= 0.564  step= 0.490 mean= 0.564
 gam= 0.223 g(H,U,f)=  0.517E-02 0.383E-03 0.102E-24 ort(H,U,f) =-0.238E-03 0.267E-03-0.122E-24
CGA:   4    -0.202703293818E+04   -0.60957E-02   -0.60967E-02  1304   0.555E-02 0.285E-04
 gam= 0.223 trial= 0.560  step= 0.516 mean= 0.560
 gam= 0.253 g(H,U,f)=  0.127E-02 0.130E-03 0.146E-25 ort(H,U,f) =-0.228E-03 0.213E-03 0.425E-25
CGA:   5    -0.202703437347E+04   -0.14353E-02   -0.14350E-02  1304   0.140E-02-0.153E-04
 gam= 0.253 trial= 0.558  step= 0.554 mean= 0.558
 gam= 0.405 g(H,U,f)=  0.515E-03 0.525E-04 0.102E-26 ort(H,U,f) =-0.919E-04 0.106E-03 0.838E-26
CGA:   6    -0.202703476061E+04   -0.38713E-03   -0.38717E-03  1304   0.568E-03 0.137E-04
 gam= 0.405 trial= 0.558  step= 0.563 mean= 0.558
 gam= 0.405 g(H,U,f)=  0.209E-03 0.202E-04 0.109E-25 ort(H,U,f) =-0.556E-04 0.468E-04 0.158E-25
CGA:   7    -0.202703492184E+04   -0.16123E-03   -0.16125E-03  1304   0.230E-03-0.884E-05
 gam= 0.405 trial= 0.558  step= 0.608 mean= 0.558
 gam= 0.267 g(H,U,f)=  0.587E-04 0.274E-05 0.876E-27 ort(H,U,f) =-0.471E-05 0.120E-04 0.564E-26
CGA:   8    -0.202703499072E+04   -0.68884E-04   -0.68702E-04  1304   0.614E-04 0.732E-05
 gam= 0.267 trial= 0.561  step= 0.686 mean= 0.561
 gam= 0.310 g(H,U,f)=  0.186E-04 0.447E-06 0.649E-27 ort(H,U,f) =-0.385E-05 0.159E-05 0.222E-26
CGA:   9    -0.202703501230E+04   -0.21578E-04   -0.21719E-04  1304   0.190E-04-0.226E-05
 gam= 0.310 trial= 0.567  step= 0.480 mean= 0.567
 gam= 0.316 g(H,U,f)=  0.588E-05 0.135E-06 0.198E-28 ort(H,U,f) = 0.152E-05 0.172E-06-0.238E-27
CGA:  10    -0.202703501663E+04   -0.43315E-05   -0.44046E-05  1304   0.601E-05 0.169E-05
 gam= 0.316 trial= 0.563  step= 0.640 mean= 0.563
 gam= 0.459 g(H,U,f)=  0.268E-05 0.863E-07 0.689E-29 ort(H,U,f) =-0.962E-06-0.260E-07-0.328E-28
CGA:  11    -0.202703501869E+04   -0.20579E-05   -0.20963E-05  1304   0.276E-05-0.988E-06
 gam= 0.459 trial= 0.566  step= 0.468 mean= 0.566
 gam= 0.312 g(H,U,f)=  0.843E-06 0.185E-07 0.900E-29 ort(H,U,f) = 0.447E-06 0.108E-08 0.950E-29
CGA:  12    -0.202703501920E+04   -0.51758E-06   -0.53965E-06  1304   0.862E-06 0.448E-06
 gam= 0.312 trial= 0.562  step= 0.644 mean= 0.562
 gam= 0.365 g(H,U,f)=  0.301E-06 0.138E-07 0.942E-29 ort(H,U,f) =-0.293E-07-0.222E-08-0.124E-28
CGA:  13    -0.202703501953E+04   -0.32120E-06   -0.32249E-06  1304   0.315E-06-0.315E-07
 gam= 0.365 trial= 0.566  step= 1.845 mean= 0.566
 gam= 0.000 g(H,U,f)=  0.206E-05 0.771E-07 0.110E-28 ort(H,U,f) =-0.587E-06-0.115E-07 0.502E-29
CGA:  14    -0.202703501942E+04    0.10236E-06   -0.27995E-06  1304   0.214E-05-0.598E-06
 gam= 0.000 trial= 0.630  step= 0.250 mean= 0.630
 gam= 0.119 g(H,U,f)=  0.250E-06 0.420E-08 0.226E-33 ort(H,U,f) = 0.434E-06 0.130E-07-0.149E-31
CGA:  15    -0.202703501961E+04   -0.18218E-06   -0.26705E-06  1304   0.254E-06 0.447E-06
 gam= 0.119 trial= 0.611  step= 0.370 mean= 0.611
 gam= 0.378 g(H,U,f)=  0.923E-07 0.361E-08 0.134E-29 ort(H,U,f) = 0.721E-07-0.275E-08-0.450E-30
CGA:  16    -0.202703501965E+04   -0.48545E-07   -0.56826E-07  1304   0.959E-07 0.694E-07
 gam= 0.378 trial= 0.599  step= 3.134 mean= 0.599
 gam= 0.378 trial= 3.891  step= 3.891 mean= 0.944
 gam= 0.000 g(H,U,f)=  0.719E-05 0.115E-06 0.424E-28 ort(H,U,f) =-0.946E-06-0.872E-08-0.669E-29
CGA:  17    -0.202703501831E+04    0.13429E-05    0.25338E+03  1304   0.731E-05-0.955E-06
 gam= 0.000 trial= 1.092  step= 0.308 mean= 1.092
 gam= 0.166 g(H,U,f)=  0.120E-05 0.775E-08 0.186E-29 ort(H,U,f) = 0.631E-06-0.166E-07 0.886E-29
CGA:  18    -0.202703501920E+04   -0.88518E-06   -0.11260E-05  1304   0.121E-05 0.615E-06
 gam= 0.166 trial= 1.053  step= 0.650 mean= 1.053
 gam= 0.132 g(H,U,f)=  0.152E-06 0.800E-08 0.810E-29 ort(H,U,f) =-0.135E-06-0.978E-09-0.694E-29
CGA:  19    -0.202703501965E+04   -0.45380E-06   -0.42633E-06  1304   0.160E-06-0.136E-06
 gam= 0.132 trial= 1.032  step= 0.820 mean= 1.032
 gam= 0.534 g(H,U,f)=  0.806E-07 0.473E-08 0.175E-28 ort(H,U,f) =-0.419E-07-0.445E-08-0.106E-28
CGA:  20    -0.202703501971E+04   -0.63053E-07   -0.58082E-07  1304   0.853E-07-0.463E-07
 gam= 0.534 trial= 1.022  step= 0.227 mean= 1.022
 final diagonalization
 123 F= -.20484851E+04 E0= -.20484851E+04  d E =-.147422E-02
 curvature: -12.10 expect dE=-0.520E-01 dE for cont linesearch -0.548E-03
 ZBRENT: increasing intervall
 opt :   0.7099  next Energy= -2048.486214 (dE=-0.256E-02)
 bond charge predicted
       N       E                     dE             d eps       ncg     rms          ort
 gam= 0.000 g(H,U,f)=  0.214E+01 0.211E+00 0.849E-24 ort(H,U,f) = 0.000E+00 0.000E+00 0.000E+00
SDA:   1    -0.202616735632E+04    0.86766E+00    0.00000E+00  1304   0.235E+01 0.000E+00
 gam= 0.000 trial= 0.982  step= 0.554 mean= 0.982
 gam= 0.258 g(H,U,f)=  0.575E+00 0.320E-01 0.181E-23 ort(H,U,f) = 0.365E-01-0.361E-01 0.102E-23
CGA:   2    -0.202681927306E+04   -0.65192E+00   -0.65173E+00  1304   0.607E+00 0.456E-03
 gam= 0.258 trial= 0.961  step= 0.599 mean= 0.961
 gam= 0.164 g(H,U,f)=  0.965E-01 0.302E-02 0.162E-24 ort(H,U,f) =-0.280E-02 0.278E-02 0.368E-25
CGA:   3    -0.202700113138E+04   -0.18186E+00   -0.18187E+00  1304   0.995E-01-0.215E-04
 gam= 0.164 trial= 0.943  step= 0.491 mean= 0.943
 gam= 0.223 g(H,U,f)=  0.206E-01 0.154E-02 0.408E-26 ort(H,U,f) =-0.104E-02 0.108E-02-0.511E-26
CGA:   4    -0.202702552562E+04   -0.24394E-01   -0.24403E-01  1304   0.222E-01 0.365E-04
 gam= 0.223 trial= 0.920  step= 0.516 mean= 0.920
 gam= 0.251 g(H,U,f)=  0.505E-02 0.518E-03 0.116E-26 ort(H,U,f) =-0.871E-03 0.853E-03 0.350E-26
CGA:   5    -0.202703124922E+04   -0.57236E-02   -0.57203E-02  1304   0.557E-02-0.180E-04
 gam= 0.251 trial= 0.900  step= 0.560 mean= 0.900
 gam= 0.412 g(H,U,f)=  0.208E-02 0.210E-03 0.913E-28 ort(H,U,f) =-0.404E-03 0.421E-03 0.891E-27
CGA:   6    -0.202703280431E+04   -0.15551E-02   -0.15579E-02  1304   0.229E-02 0.174E-04
 gam= 0.412 trial= 0.883  step= 0.553 mean= 0.883
 gam= 0.393 g(H,U,f)=  0.821E-03 0.801E-04 0.154E-26 ort(H,U,f) =-0.201E-03 0.191E-03 0.222E-26
CGA:   7    -0.202703344195E+04   -0.63764E-03   -0.63589E-03  1304   0.901E-03-0.108E-04
 gam= 0.393 trial= 0.866  step= 0.627 mean= 0.866
 gam= 0.279 g(H,U,f)=  0.241E-03 0.110E-04 0.156E-27 ort(H,U,f) =-0.363E-04 0.461E-04 0.100E-26
CGA:   8    -0.202703372187E+04   -0.27992E-03   -0.28109E-03  1304   0.252E-03 0.977E-05
 gam= 0.279 trial= 0.854  step= 0.663 mean= 0.854
 gam= 0.289 g(H,U,f)=  0.710E-04 0.173E-05 0.170E-27 ort(H,U,f) =-0.951E-05 0.641E-05 0.529E-27
CGA:   9    -0.202703380645E+04   -0.84585E-04   -0.84287E-04  1304   0.728E-04-0.311E-05
 gam= 0.289 trial= 0.845  step= 0.513 mean= 0.845
 gam= 0.356 g(H,U,f)=  0.253E-04 0.607E-06 0.119E-28 ort(H,U,f) = 0.185E-05 0.543E-06-0.894E-28
CGA:  10    -0.202703382448E+04   -0.18030E-04   -0.18426E-04  1304   0.259E-04 0.239E-05
 gam= 0.356 trial= 0.828  step= 0.556 mean= 0.828
 gam= 0.359 g(H,U,f)=  0.901E-05 0.288E-06 0.192E-29 ort(H,U,f) =-0.141E-05-0.638E-07-0.806E-29
CGA:  11    -0.202703383212E+04   -0.76334E-05   -0.74320E-05  1304   0.929E-05-0.148E-05
 gam= 0.359 trial= 0.814  step= 0.579 mean= 0.814
 gam= 0.313 g(H,U,f)=  0.284E-05 0.712E-07 0.674E-29 ort(H,U,f) = 0.695E-06-0.203E-07 0.198E-29
CGA:  12    -0.202703383457E+04   -0.24579E-05   -0.25374E-05  1304   0.291E-05 0.675E-06
 gam= 0.313 trial= 0.803  step= 0.786 mean= 0.803
 gam= 0.509 g(H,U,f)=  0.142E-05 0.543E-07 0.133E-28 ort(H,U,f) =-0.488E-06-0.208E-08-0.105E-28
CGA:  13    -0.202703383580E+04   -0.12284E-05   -0.12243E-05  1304   0.148E-05-0.491E-06
 gam= 0.509 trial= 0.802  step= 0.430 mean= 0.802
 gam= 0.330 g(H,U,f)=  0.470E-06 0.176E-07 0.171E-29 ort(H,U,f) = 0.220E-06 0.255E-07 0.280E-29
CGA:  14    -0.202703383602E+04   -0.21885E-06   -0.26449E-06  1304   0.488E-06 0.245E-06
 gam= 0.330 trial= 0.783  step= 0.616 mean= 0.783
 gam= 0.351 g(H,U,f)=  0.161E-06 0.102E-07 0.228E-29 ort(H,U,f) =-0.363E-07 0.918E-08-0.299E-29
CGA:  15    -0.202703383620E+04   -0.17724E-06   -0.17509E-06  1304   0.171E-06-0.272E-07
 gam= 0.351 trial= 0.775  step= 1.435 mean= 0.775
 gam= 0.000 g(H,U,f)=  0.689E-06 0.350E-07 0.102E-28 ort(H,U,f) =-0.230E-06-0.102E-07-0.267E-29
CGA:  16    -0.202703383624E+04   -0.36722E-07   -0.11596E-06  1304   0.724E-06-0.240E-06
 gam= 0.000 trial= 0.808  step= 0.232 mean= 0.808
 final diagonalization
 124 F= -.20484861E+04 E0= -.20484861E+04  d E =-.247921E-02
 curvature: -23.95 expect dE=-0.143E+00 dE for cont linesearch -0.355E-04
 trial: gam= 0.60033 g(F)=  0.587E-02 g(S)=  0.799E-04 ort = 0.768E-03 (trialstep = 0.199E+00)
 search vector abs. value=  0.150E+00
 bond charge predicted
       N       E                     dE             d eps       ncg     rms          ort
 gam= 0.000 g(H,U,f)=  0.178E+00 0.178E-01 0.138E-25 ort(H,U,f) = 0.000E+00 0.000E+00 0.000E+00
SDA:   1    -0.202696232625E+04    0.71510E-01    0.00000E+00  1304   0.196E+00 0.000E+00
 gam= 0.000 trial= 0.779  step= 0.554 mean= 0.779
 gam= 0.259 g(H,U,f)=  0.479E-01 0.284E-02 0.241E-25 ort(H,U,f) = 0.323E-02-0.321E-02-0.252E-25
CGA:   2    -0.202701657905E+04   -0.54253E-01   -0.54252E-01  1304   0.508E-01 0.211E-04
 gam= 0.259 trial= 0.768  step= 0.602 mean= 0.768
 gam= 0.162 g(H,U,f)=  0.795E-02 0.270E-03 0.495E-25 ort(H,U,f) =-0.238E-03 0.233E-03-0.167E-25
CGA:   3    -0.202703186574E+04   -0.15287E-01   -0.15286E-01  1304   0.822E-02-0.537E-05
 gam= 0.162 trial= 0.760  step= 0.498 mean= 0.760
 gam= 0.214 g(H,U,f)=  0.163E-02 0.133E-03 0.747E-26 ort(H,U,f) =-0.766E-04 0.840E-04-0.943E-26
CGA:   4    -0.202703391074E+04   -0.20450E-02   -0.20460E-02  1304   0.176E-02 0.750E-05
 gam= 0.214 trial= 0.747  step= 0.544 mean= 0.747
 gam= 0.231 g(H,U,f)=  0.366E-03 0.411E-04 0.113E-27 ort(H,U,f) =-0.673E-04 0.653E-04 0.990E-27
CGA:   5    -0.202703439103E+04   -0.48028E-03   -0.48008E-03  1304   0.407E-03-0.195E-05
 gam= 0.231 trial= 0.736  step= 0.643 mean= 0.736
 gam= 0.380 g(H,U,f)=  0.140E-03 0.148E-04 0.112E-27 ort(H,U,f) =-0.278E-04 0.307E-04 0.393E-27
CGA:   6    -0.202703452167E+04   -0.13064E-03   -0.13078E-03  1304   0.155E-03 0.292E-05
 gam= 0.380 trial= 0.732  step= 0.608 mean= 0.732
 gam= 0.499 g(H,U,f)=  0.722E-04 0.503E-05 0.402E-27 ort(H,U,f) =-0.159E-04 0.123E-04 0.538E-27
CGA:   7    -0.202703456931E+04   -0.47643E-04   -0.47420E-04  1304   0.773E-04-0.361E-05
 gam= 0.499 trial= 0.726  step= 0.503 mean= 0.726
 gam= 0.263 g(H,U,f)=  0.195E-04 0.785E-06 0.636E-28 ort(H,U,f) =-0.379E-06 0.372E-05 0.295E-27
CGA:   8    -0.202703458793E+04   -0.18623E-04   -0.18994E-04  1304   0.203E-04 0.334E-05
 gam= 0.263 trial= 0.714  step= 0.687 mean= 0.714
 gam= 0.255 g(H,U,f)=  0.507E-05 0.108E-06 0.635E-29 ort(H,U,f) =-0.121E-05 0.413E-06 0.480E-28
CGA:   9    -0.202703459521E+04   -0.72783E-05   -0.72672E-05  1304   0.518E-05-0.802E-06
 gam= 0.255 trial= 0.713  step= 0.653 mean= 0.713
 gam= 0.244 g(H,U,f)=  0.121E-05 0.496E-07 0.192E-32 ort(H,U,f) = 0.227E-06-0.163E-07 0.327E-30
CGA:  10    -0.202703459683E+04   -0.16181E-05   -0.16241E-05  1304   0.126E-05 0.210E-06
 gam= 0.244 trial= 0.710  step= 0.794 mean= 0.710
 gam= 0.549 g(H,U,f)=  0.663E-06 0.307E-07 0.177E-29 ort(H,U,f) =-0.183E-06-0.202E-07 0.254E-29
CGA:  11    -0.202703459734E+04   -0.51352E-06   -0.52213E-06  1304   0.694E-06-0.204E-06
 gam= 0.549 trial= 0.714  step= 0.431 mean= 0.714
 gam= 0.335 g(H,U,f)=  0.226E-06 0.695E-08 0.811E-32 ort(H,U,f) = 0.115E-06 0.144E-08 0.216E-30
CGA:  12    -0.202703459745E+04   -0.10884E-06   -0.12539E-06  1304   0.232E-06 0.116E-06
 gam= 0.335 trial= 0.700  step= 0.648 mean= 0.700
 gam= 0.476 g(H,U,f)=  0.101E-06 0.100E-07 0.127E-29 ort(H,U,f) =-0.295E-07-0.160E-08-0.102E-29
CGA:  13    -0.202703459754E+04   -0.88716E-07   -0.88022E-07  1304   0.111E-06-0.311E-07
 gam= 0.476 trial= 0.698  step= 1.202 mean= 0.698
 final diagonalization
 125 F= -.20484871E+04 E0= -.20484871E+04  d E =-.101137E-02
 trial-energy change:   -0.001011  1 .order   -0.001013   -0.001275   -0.000750
 step:   0.4828(harm=  0.4828)  dis= 0.00546  next Energy= -2048.487682 (dE=-0.155E-02)
 bond charge predicted
       N       E                     dE             d eps       ncg     rms          ort
 gam= 0.000 g(H,U,f)=  0.363E+00 0.363E-01 0.361E-25 ort(H,U,f) = 0.000E+00 0.000E+00 0.000E+00
SDA:   1    -0.202688728352E+04    0.14731E+00    0.00000E+00  1304   0.399E+00 0.000E+00
 gam= 0.000 trial= 0.723  step= 0.554 mean= 0.723
 gam= 0.259 g(H,U,f)=  0.978E-01 0.579E-02 0.929E-25 ort(H,U,f) = 0.657E-02-0.655E-02-0.910E-25
CGA:   2    -0.202699800742E+04   -0.11072E+00   -0.11072E+00  1304   0.104E+00 0.245E-04
 gam= 0.259 trial= 0.714  step= 0.602 mean= 0.714
 gam= 0.162 g(H,U,f)=  0.163E-01 0.553E-03 0.151E-24 ort(H,U,f) =-0.480E-03 0.473E-03-0.498E-25
CGA:   3    -0.202702920282E+04   -0.31195E-01   -0.31195E-01  1304   0.168E-01-0.708E-05
 gam= 0.162 trial= 0.709  step= 0.497 mean= 0.709
 gam= 0.214 g(H,U,f)=  0.333E-02 0.271E-03 0.128E-25 ort(H,U,f) =-0.159E-03 0.171E-03-0.165E-25
CGA:   4    -0.202703338218E+04   -0.41794E-02   -0.41807E-02  1304   0.360E-02 0.121E-04
 gam= 0.214 trial= 0.698  step= 0.544 mean= 0.698
 gam= 0.231 g(H,U,f)=  0.749E-03 0.838E-04 0.268E-27 ort(H,U,f) =-0.136E-03 0.133E-03 0.232E-26
CGA:   5    -0.202703436297E+04   -0.98079E-03   -0.98055E-03  1304   0.833E-03-0.302E-05
 gam= 0.231 trial= 0.690  step= 0.642 mean= 0.690
 gam= 0.384 g(H,U,f)=  0.290E-03 0.303E-04 0.259E-27 ort(H,U,f) =-0.582E-04 0.628E-04 0.970E-27
CGA:   6    -0.202703463008E+04   -0.26711E-03   -0.26722E-03  1304   0.320E-03 0.461E-05
 gam= 0.384 trial= 0.688  step= 0.599 mean= 0.688
 gam= 0.489 g(H,U,f)=  0.146E-03 0.104E-04 0.111E-26 ort(H,U,f) =-0.310E-04 0.256E-04 0.146E-26
CGA:   7    -0.202703472667E+04   -0.96588E-04   -0.96344E-04  1304   0.157E-03-0.545E-05
 gam= 0.489 trial= 0.684  step= 0.516 mean= 0.684
 gam= 0.269 g(H,U,f)=  0.405E-04 0.162E-05 0.187E-27 ort(H,U,f) =-0.240E-05 0.751E-05 0.863E-27
CGA:   8    -0.202703476593E+04   -0.39263E-04   -0.39691E-04  1304   0.421E-04 0.511E-05
 gam= 0.269 trial= 0.675  step= 0.678 mean= 0.675
 gam= 0.251 g(H,U,f)=  0.103E-04 0.221E-06 0.239E-28 ort(H,U,f) =-0.219E-05 0.856E-06 0.166E-27
CGA:   9    -0.202703478066E+04   -0.14725E-04   -0.14726E-04  1304   0.106E-04-0.133E-05
 gam= 0.251 trial= 0.675  step= 0.636 mean= 0.675
 gam= 0.266 g(H,U,f)=  0.271E-05 0.979E-07 0.425E-32 ort(H,U,f) = 0.505E-06-0.200E-07 0.883E-30
CGA:  10    -0.202703478390E+04   -0.32405E-05   -0.32501E-05  1304   0.281E-05 0.485E-06
 gam= 0.266 trial= 0.673  step= 0.734 mean= 0.673
 gam= 0.669 g(H,U,f)=  0.182E-05 0.588E-07 0.498E-29 ort(H,U,f) =-0.510E-06-0.334E-07 0.851E-29
CGA:  11    -0.202703478496E+04   -0.10611E-05   -0.10775E-05  1304   0.188E-05-0.543E-06
 gam= 0.669 trial= 0.676  step= 0.373 mean= 0.676
 gam= 0.308 g(H,U,f)=  0.560E-06 0.184E-07 0.618E-30 ort(H,U,f) = 0.269E-06 0.943E-09 0.380E-29
CGA:  12    -0.202703478520E+04   -0.24122E-06   -0.28215E-06  1304   0.579E-06 0.270E-06
 gam= 0.308 trial= 0.661  step= 0.464 mean= 0.661
 gam= 0.489 g(H,U,f)=  0.269E-06 0.137E-07 0.168E-29 ort(H,U,f) = 0.850E-07 0.327E-09-0.298E-29
CGA:  13    -0.202703478535E+04   -0.14534E-06   -0.15373E-06  1304   0.283E-06 0.853E-07
 gam= 0.489 trial= 0.651  step= 0.884 mean= 0.651
 gam= 0.000 g(H,U,f)=  0.689E-06 0.134E-07 0.143E-29 ort(H,U,f) =-0.353E-06 0.114E-08 0.198E-30
CGA:  14    -0.202703478545E+04   -0.10264E-06   -0.14353E-06  1304   0.702E-06-0.351E-06
 gam= 0.000 trial= 0.663  step= 0.218 mean= 0.663
 gam= 0.145 g(H,U,f)=  0.100E-06 0.202E-08 0.585E-30 ort(H,U,f) = 0.192E-06 0.351E-08 0.915E-30
CGA:  15    -0.202703478548E+04   -0.33207E-07   -0.76709E-07  1304   0.102E-06 0.196E-06
 gam= 0.145 trial= 0.641  step= 0.240 mean= 0.641
 final diagonalization
 126 F= -.20484877E+04 E0= -.20484877E+04  d E =-.155975E-02
 curvature:  -5.66 expect dE=-0.205E-01 dE for cont linesearch -0.755E-06
 trial: gam= 0.70808 g(F)=  0.361E-02 g(S)=  0.114E-04 ort = 0.142E-03 (trialstep = 0.256E+00)
 search vector abs. value=  0.792E-01
 bond charge predicted
       N       E                     dE             d eps       ncg     rms          ort
 gam= 0.000 g(H,U,f)=  0.154E+00 0.154E-01 0.253E-26 ort(H,U,f) = 0.000E+00 0.000E+00 0.000E+00
SDA:   1    -0.202697312416E+04    0.61661E-01    0.00000E+00  1304   0.169E+00 0.000E+00
 gam= 0.000 trial= 0.621  step= 0.555 mean= 0.621
 gam= 0.260 g(H,U,f)=  0.415E-01 0.249E-02 0.429E-25 ort(H,U,f) = 0.294E-02-0.292E-02 0.277E-25
CGA:   2    -0.202702009927E+04   -0.46975E-01   -0.46975E-01  1304   0.440E-01 0.133E-04
 gam= 0.260 trial= 0.617  step= 0.604 mean= 0.617
 gam= 0.158 g(H,U,f)=  0.674E-02 0.218E-03 0.131E-24 ort(H,U,f) =-0.211E-03 0.206E-03-0.643E-25
CGA:   3    -0.202703339180E+04   -0.13293E-01   -0.13293E-01  1304   0.696E-02-0.504E-05
 gam= 0.158 trial= 0.617  step= 0.502 mean= 0.617
 gam= 0.215 g(H,U,f)=  0.138E-02 0.113E-03 0.367E-25 ort(H,U,f) =-0.637E-04 0.683E-04-0.394E-25
CGA:   4    -0.202703513640E+04   -0.17446E-02   -0.17449E-02  1304   0.150E-02 0.462E-05
 gam= 0.215 trial= 0.611  step= 0.547 mean= 0.611
 gam= 0.227 g(H,U,f)=  0.305E-03 0.342E-04 0.370E-26 ort(H,U,f) =-0.545E-04 0.539E-04 0.128E-25
CGA:   5    -0.202703554546E+04   -0.40906E-03   -0.40904E-03  1304   0.339E-03-0.653E-06
 gam= 0.227 trial= 0.608  step= 0.671 mean= 0.608
 gam= 0.356 g(H,U,f)=  0.109E-03 0.119E-04 0.115E-26 ort(H,U,f) =-0.229E-04 0.250E-04 0.453E-26
CGA:   6    -0.202703565923E+04   -0.11377E-03   -0.11370E-03  1304   0.121E-03 0.204E-05
 gam= 0.356 trial= 0.611  step= 0.678 mean= 0.611
 gam= 0.495 g(H,U,f)=  0.564E-04 0.327E-05 0.274E-26 ort(H,U,f) =-0.118E-04 0.877E-05 0.478E-26
CGA:   7    -0.202703570024E+04   -0.41006E-04   -0.41109E-04  1304   0.597E-04-0.307E-05
 gam= 0.495 trial= 0.614  step= 0.475 mean= 0.614
 gam= 0.293 g(H,U,f)=  0.169E-04 0.610E-06 0.786E-27 ort(H,U,f) = 0.841E-06 0.265E-05 0.303E-26
CGA:   8    -0.202703571382E+04   -0.13585E-04   -0.13827E-04  1304   0.175E-04 0.349E-05
 gam= 0.293 trial= 0.607  step= 0.655 mean= 0.607
 gam= 0.264 g(H,U,f)=  0.455E-05 0.799E-07 0.167E-28 ort(H,U,f) =-0.138E-05 0.316E-06 0.266E-27
CGA:   9    -0.202703571987E+04   -0.60442E-05   -0.60694E-05  1304   0.463E-05-0.106E-05
 gam= 0.264 trial= 0.610  step= 0.653 mean= 0.610
 gam= 0.226 g(H,U,f)=  0.101E-05 0.355E-07 0.118E-28 ort(H,U,f) = 0.252E-06-0.223E-07 0.746E-28
CGA:  10    -0.202703572129E+04   -0.14231E-05   -0.14183E-05  1304   0.104E-05 0.230E-06
 gam= 0.226 trial= 0.612  step= 0.802 mean= 0.612
 gam= 0.421 g(H,U,f)=  0.418E-06 0.217E-07 0.119E-28 ort(H,U,f) =-0.763E-07-0.115E-07 0.293E-28
CGA:  11    -0.202703572172E+04   -0.43130E-06   -0.43954E-06  1304   0.440E-06-0.878E-07
 gam= 0.421 trial= 0.621  step= 0.620 mean= 0.621
 gam= 0.306 g(H,U,f)=  0.129E-06 0.629E-08 0.236E-29 ort(H,U,f) = 0.575E-07-0.189E-08-0.110E-28
CGA:  12    -0.202703572185E+04   -0.12504E-06   -0.12500E-06  1304   0.135E-06 0.556E-07
 gam= 0.306 trial= 0.621  step= 1.400 mean= 0.621
 gam= 0.000 g(H,U,f)=  0.263E-06 0.687E-08 0.171E-29 ort(H,U,f) =-0.144E-06 0.157E-09 0.869E-30
CGA:  13    -0.202703572190E+04   -0.50597E-07   -0.10632E-06  1304   0.270E-06-0.144E-06
 gam= 0.000 trial= 0.660  step= 0.306 mean= 0.660
 final diagonalization
 127 F= -.20484885E+04 E0= -.20484885E+04  d E =-.792498E-03
 trial-energy change:   -0.000792  1 .order   -0.000794   -0.000952   -0.000637
 step:   0.8360(harm=  0.7718)  dis= 0.00656  next Energy= -2048.489188 (dE=-0.149E-02)
 bond charge predicted
       N       E                     dE             d eps       ncg     rms          ort
 gam= 0.000 g(H,U,f)=  0.793E+00 0.793E-01 0.708E-25 ort(H,U,f) = 0.000E+00 0.000E+00 0.000E+00
SDA:   1    -0.202671383084E+04    0.32189E+00    0.00000E+00  1304   0.873E+00 0.000E+00
 gam= 0.000 trial= 0.643  step= 0.555 mean= 0.643
 gam= 0.260 g(H,U,f)=  0.214E+00 0.128E-01 0.383E-23 ort(H,U,f) = 0.150E-01-0.151E-01 0.410E-23
CGA:   2    -0.202695612297E+04   -0.24229E+00   -0.24229E+00  1304   0.227E+00-0.126E-04
 gam= 0.260 trial= 0.638  step= 0.604 mean= 0.638
 gam= 0.158 g(H,U,f)=  0.347E-01 0.113E-02 0.724E-23 ort(H,U,f) =-0.107E-02 0.107E-02-0.354E-23
CGA:   3    -0.202702466330E+04   -0.68540E-01   -0.68540E-01  1304   0.359E-01-0.509E-05
 gam= 0.158 trial= 0.637  step= 0.502 mean= 0.637
 gam= 0.215 g(H,U,f)=  0.713E-02 0.585E-03 0.619E-24 ort(H,U,f) =-0.342E-03 0.354E-03-0.671E-24
CGA:   4    -0.202703366223E+04   -0.89989E-02   -0.89999E-02  1304   0.772E-02 0.122E-04
 gam= 0.215 trial= 0.630  step= 0.546 mean= 0.630
 gam= 0.226 g(H,U,f)=  0.157E-02 0.177E-03 0.142E-24 ort(H,U,f) =-0.280E-03 0.279E-03 0.496E-24
CGA:   5    -0.202703577025E+04   -0.21080E-02   -0.21080E-02  1304   0.175E-02-0.100E-05
 gam= 0.226 trial= 0.626  step= 0.674 mean= 0.626
 gam= 0.358 g(H,U,f)=  0.563E-03 0.617E-04 0.709E-25 ort(H,U,f) =-0.124E-03 0.129E-03 0.285E-24
CGA:   6    -0.202703635889E+04   -0.58864E-03   -0.58853E-03  1304   0.625E-03 0.466E-05
 gam= 0.358 trial= 0.628  step= 0.667 mean= 0.628
 gam= 0.477 g(H,U,f)=  0.281E-03 0.170E-04 0.225E-24 ort(H,U,f) =-0.525E-04 0.462E-04 0.393E-24
CGA:   7    -0.202703656781E+04   -0.20891E-03   -0.20904E-03  1304   0.298E-03-0.635E-05
 gam= 0.477 trial= 0.630  step= 0.500 mean= 0.630
 gam= 0.317 g(H,U,f)=  0.914E-04 0.326E-05 0.801E-25 ort(H,U,f) =-0.497E-05 0.130E-04 0.310E-24
CGA:   8    -0.202703664101E+04   -0.73206E-04   -0.73729E-04  1304   0.946E-04 0.802E-05
 gam= 0.317 trial= 0.623  step= 0.618 mean= 0.623
 gam= 0.243 g(H,U,f)=  0.226E-04 0.409E-06 0.492E-26 ort(H,U,f) =-0.457E-05 0.169E-05 0.526E-25
CGA:   9    -0.202703667106E+04   -0.30048E-04   -0.30040E-04  1304   0.230E-04-0.288E-05
 gam= 0.243 trial= 0.623  step= 0.643 mean= 0.623
 gam= 0.258 g(H,U,f)=  0.575E-05 0.189E-06 0.149E-26 ort(H,U,f) = 0.104E-05-0.699E-07 0.103E-25
CGA:  10    -0.202703667825E+04   -0.71912E-05   -0.71818E-05  1304   0.594E-05 0.968E-06
 gam= 0.258 trial= 0.624  step= 0.752 mean= 0.624
 gam= 0.620 g(H,U,f)=  0.356E-05 0.120E-06 0.224E-26 ort(H,U,f) =-0.856E-06-0.637E-07 0.529E-26
CGA:  11    -0.202703668052E+04   -0.22680E-05   -0.23271E-05  1304   0.368E-05-0.920E-06
 gam= 0.620 trial= 0.631  step= 0.394 mean= 0.631
 gam= 0.304 g(H,U,f)=  0.108E-05 0.337E-07 0.889E-28 ort(H,U,f) = 0.546E-06 0.898E-08 0.112E-26
CGA:  12    -0.202703668107E+04   -0.54672E-06   -0.61234E-06  1304   0.112E-05 0.555E-06
 gam= 0.304 trial= 0.619  step= 0.554 mean= 0.619
 gam= 0.469 g(H,U,f)=  0.491E-06 0.329E-07 0.294E-27 ort(H,U,f) = 0.748E-07 0.448E-08-0.796E-27
CGA:  13    -0.202703668142E+04   -0.35352E-06   -0.35603E-06  1304   0.524E-06 0.793E-07
 gam= 0.469 trial= 0.615  step= 0.961 mean= 0.615
 gam= 0.000 g(H,U,f)=  0.148E-05 0.343E-07 0.164E-28 ort(H,U,f) =-0.646E-06-0.472E-08 0.199E-28
CGA:  14    -0.202703668158E+04   -0.15710E-06   -0.26933E-06  1304   0.152E-05-0.651E-06
 gam= 0.000 trial= 0.633  step= 0.215 mean= 0.633
 gam= 0.122 g(H,U,f)=  0.182E-06 0.339E-08 0.239E-28 ort(H,U,f) = 0.383E-06 0.784E-08-0.200E-28
CGA:  15    -0.202703668166E+04   -0.80996E-07   -0.16286E-06  1304   0.185E-06 0.391E-06
 gam= 0.122 trial= 0.612  step= 0.222 mean= 0.612
 final diagonalization
 128 F= -.20484891E+04 E0= -.20484891E+04  d E =-.143127E-02
 curvature:  -8.08 expect dE=-0.394E-01 dE for cont linesearch -0.675E-05
 trial: gam= 1.37352 g(F)=  0.485E-02 g(S)=  0.339E-04 ort =-0.257E-03 (trialstep = 0.192E+00)
 search vector abs. value=  0.154E+00
 bond charge predicted
       N       E                     dE             d eps       ncg     rms          ort
 gam= 0.000 g(H,U,f)=  0.165E+00 0.164E-01 0.239E-24 ort(H,U,f) = 0.000E+00 0.000E+00 0.000E+00
SDA:   1    -0.202697081950E+04    0.65862E-01    0.00000E+00  1304   0.181E+00 0.000E+00
 gam= 0.000 trial= 0.592  step= 0.554 mean= 0.592
 gam= 0.259 g(H,U,f)=  0.442E-01 0.265E-02 0.607E-23 ort(H,U,f) = 0.308E-02-0.306E-02-0.133E-23
CGA:   2    -0.202702108004E+04   -0.50261E-01   -0.50261E-01  1304   0.469E-01 0.168E-04
 gam= 0.259 trial= 0.590  step= 0.602 mean= 0.590
 gam= 0.161 g(H,U,f)=  0.733E-02 0.239E-03 0.280E-22 ort(H,U,f) =-0.220E-03 0.209E-03-0.826E-23
CGA:   3    -0.202703520207E+04   -0.14122E-01   -0.14122E-01  1304   0.757E-02-0.113E-04
 gam= 0.161 trial= 0.591  step= 0.495 mean= 0.591
 gam= 0.219 g(H,U,f)=  0.153E-02 0.125E-03 0.213E-23 ort(H,U,f) =-0.636E-04 0.697E-04-0.369E-23
CGA:   4    -0.202703707563E+04   -0.18736E-02   -0.18739E-02  1304   0.165E-02 0.607E-05
 gam= 0.219 trial= 0.586  step= 0.537 mean= 0.586
 gam= 0.234 g(H,U,f)=  0.350E-03 0.376E-04 0.513E-27 ort(H,U,f) =-0.641E-04 0.602E-04-0.263E-25
CGA:   5    -0.202703751992E+04   -0.44430E-03   -0.44420E-03  1304   0.387E-03-0.397E-05
 gam= 0.234 trial= 0.584  step= 0.615 mean= 0.584
 gam= 0.394 g(H,U,f)=  0.139E-03 0.140E-04 0.100E-26 ort(H,U,f) =-0.237E-04 0.290E-04-0.829E-26
CGA:   6    -0.202703763885E+04   -0.11893E-03   -0.11884E-03  1304   0.153E-03 0.538E-05
 gam= 0.394 trial= 0.585  step= 0.585 mean= 0.585
 gam= 0.489 g(H,U,f)=  0.693E-04 0.530E-05 0.385E-25 ort(H,U,f) =-0.172E-04 0.123E-04 0.145E-25
CGA:   7    -0.202703768414E+04   -0.45289E-04   -0.45289E-04  1304   0.746E-04-0.492E-05
 gam= 0.489 trial= 0.585  step= 0.522 mean= 0.585
 gam= 0.248 g(H,U,f)=  0.177E-04 0.736E-06 0.187E-28 ort(H,U,f) = 0.244E-06 0.371E-05 0.993E-27
CGA:   8    -0.202703770287E+04   -0.18730E-04   -0.18855E-04  1304   0.185E-04 0.395E-05
 gam= 0.248 trial= 0.582  step= 0.711 mean= 0.582
 gam= 0.260 g(H,U,f)=  0.470E-05 0.999E-07 0.311E-28 ort(H,U,f) =-0.111E-05 0.397E-06-0.363E-27
CGA:   9    -0.202703770974E+04   -0.68693E-05   -0.69156E-05  1304   0.480E-05-0.717E-06
 gam= 0.260 trial= 0.589  step= 0.649 mean= 0.589
 gam= 0.246 g(H,U,f)=  0.112E-05 0.546E-07 0.723E-27 ort(H,U,f) = 0.267E-06-0.666E-08-0.313E-27
CGA:  10    -0.202703771124E+04   -0.15043E-05   -0.14964E-05  1304   0.118E-05 0.261E-06
 gam= 0.246 trial= 0.592  step= 0.804 mean= 0.592
 gam= 0.558 g(H,U,f)=  0.619E-06 0.387E-07 0.843E-29 ort(H,U,f) =-0.187E-06-0.268E-07-0.690E-28
CGA:  11    -0.202703771172E+04   -0.47750E-06   -0.50008E-06  1304   0.658E-06-0.214E-06
 gam= 0.558 trial= 0.602  step= 0.407 mean= 0.602
 gam= 0.337 g(H,U,f)=  0.215E-06 0.704E-08 0.727E-29 ort(H,U,f) = 0.152E-06 0.288E-08 0.279E-28
CGA:  12    -0.202703771181E+04   -0.94289E-07   -0.10962E-06  1304   0.222E-06 0.155E-06
 gam= 0.337 trial= 0.593  step= 0.550 mean= 0.593
 final diagonalization
 129 F= -.20484898E+04 E0= -.20484898E+04  d E =-.679094E-03
 trial-energy change:   -0.000679  1 .order   -0.000690   -0.000868   -0.000513
 step:   0.4682(harm=  0.4682)  dis= 0.00502  next Energy= -2048.490185 (dE=-0.106E-02)
 bond charge predicted
       N       E                     dE             d eps       ncg     rms          ort
 gam= 0.000 g(H,U,f)=  0.343E+00 0.342E-01 0.260E-24 ort(H,U,f) = 0.000E+00 0.000E+00 0.000E+00
SDA:   1    -0.202689929167E+04    0.13842E+00    0.00000E+00  1304   0.377E+00 0.000E+00
 gam= 0.000 trial= 0.590  step= 0.555 mean= 0.590
 gam= 0.259 g(H,U,f)=  0.921E-01 0.550E-02 0.141E-22 ort(H,U,f) = 0.638E-02-0.636E-02-0.137E-23
CGA:   2    -0.202700393623E+04   -0.10464E+00   -0.10464E+00  1304   0.976E-01 0.145E-04
 gam= 0.259 trial= 0.589  step= 0.602 mean= 0.589
 gam= 0.161 g(H,U,f)=  0.152E-01 0.497E-03 0.500E-22 ort(H,U,f) =-0.452E-03 0.436E-03-0.147E-22
CGA:   3    -0.202703333326E+04   -0.29397E-01   -0.29397E-01  1304   0.157E-01-0.155E-04
 gam= 0.161 trial= 0.589  step= 0.496 mean= 0.589
 gam= 0.219 g(H,U,f)=  0.319E-02 0.260E-03 0.202E-23 ort(H,U,f) =-0.136E-03 0.146E-03-0.353E-23
CGA:   4    -0.202703723271E+04   -0.38995E-02   -0.38999E-02  1304   0.345E-02 0.929E-05
 gam= 0.219 trial= 0.585  step= 0.536 mean= 0.585
 gam= 0.234 g(H,U,f)=  0.726E-03 0.783E-04 0.102E-26 ort(H,U,f) =-0.131E-03 0.126E-03-0.403E-25
CGA:   5    -0.202703815661E+04   -0.92390E-03   -0.92377E-03  1304   0.805E-03-0.563E-05
 gam= 0.234 trial= 0.582  step= 0.618 mean= 0.582
 gam= 0.398 g(H,U,f)=  0.291E-03 0.292E-04 0.194E-26 ort(H,U,f) =-0.525E-04 0.603E-04-0.124E-25
CGA:   6    -0.202703840511E+04   -0.24850E-03   -0.24836E-03  1304   0.321E-03 0.786E-05
 gam= 0.398 trial= 0.584  step= 0.577 mean= 0.584
 gam= 0.476 g(H,U,f)=  0.141E-03 0.110E-04 0.435E-25 ort(H,U,f) =-0.329E-04 0.258E-04 0.146E-25
CGA:   7    -0.202703849854E+04   -0.93429E-04   -0.93404E-04  1304   0.152E-03-0.702E-05
 gam= 0.476 trial= 0.584  step= 0.537 mean= 0.584
 gam= 0.256 g(H,U,f)=  0.375E-04 0.154E-05 0.933E-29 ort(H,U,f) =-0.167E-05 0.747E-05-0.641E-27
CGA:   8    -0.202703853846E+04   -0.39917E-04   -0.40052E-04  1304   0.391E-04 0.579E-05
 gam= 0.256 trial= 0.581  step= 0.702 mean= 0.581
 gam= 0.255 g(H,U,f)=  0.975E-05 0.202E-06 0.176E-29 ort(H,U,f) =-0.212E-05 0.823E-06 0.755E-28
CGA:   9    -0.202703855261E+04   -0.14151E-04   -0.14230E-04  1304   0.995E-05-0.129E-05
 gam= 0.255 trial= 0.587  step= 0.620 mean= 0.587
 gam= 0.271 g(H,U,f)=  0.260E-05 0.982E-07 0.135E-26 ort(H,U,f) = 0.689E-06 0.214E-08-0.658E-27
CGA:  10    -0.202703855560E+04   -0.29913E-05   -0.29802E-05  1304   0.270E-05 0.691E-06
 gam= 0.271 trial= 0.589  step= 0.758 mean= 0.589
 gam= 0.781 g(H,U,f)=  0.204E-05 0.690E-07 0.288E-28 ort(H,U,f) =-0.692E-06-0.396E-07-0.169E-27
CGA:  11    -0.202703855663E+04   -0.10304E-05   -0.10922E-05  1304   0.211E-05-0.732E-06
 gam= 0.781 trial= 0.597  step= 0.331 mean= 0.597
 gam= 0.351 g(H,U,f)=  0.714E-06 0.243E-07 0.988E-29 ort(H,U,f) = 0.361E-06 0.963E-09-0.602E-28
CGA:  12    -0.202703855684E+04   -0.20575E-06   -0.25398E-06  1304   0.738E-06 0.362E-06
 gam= 0.351 trial= 0.584  step= 0.320 mean= 0.584
 gam= 0.461 g(H,U,f)=  0.329E-06 0.113E-07 0.685E-28 ort(H,U,f) = 0.202E-06 0.807E-09 0.293E-28
CGA:  13    -0.202703855695E+04   -0.11169E-06   -0.13861E-06  1304   0.341E-06 0.203E-06
 gam= 0.461 trial= 0.571  step= 0.713 mean= 0.571
 gam= 0.000 g(H,U,f)=  0.313E-06 0.149E-07 0.249E-27 ort(H,U,f) =-0.258E-06 0.195E-08 0.155E-27
CGA:  14    -0.202703855709E+04   -0.13666E-06   -0.15486E-06  1304   0.328E-06-0.256E-06
 gam= 0.000 trial= 0.578  step= 0.342 mean= 0.578
 gam= 0.152 g(H,U,f)=  0.472E-07 0.250E-08 0.111E-28 ort(H,U,f) = 0.908E-07 0.241E-08 0.525E-28
CGA:  15    -0.202703855713E+04   -0.44973E-07   -0.56045E-07  1304   0.497E-07 0.932E-07
 gam= 0.152 trial= 0.566  step= 0.780 mean= 0.566
 final diagonalization
 130 F= -.20484901E+04 E0= -.20484901E+04  d E =-.102104E-02
 curvature:  -7.94 expect dE=-0.278E-01 dE for cont linesearch -0.893E-07
 trial: gam= 0.58422 g(F)=  0.349E-02 g(S)=  0.137E-04 ort =-0.416E-04 (trialstep = 0.247E+00)
 search vector abs. value=  0.559E-01
 bond charge predicted
       N       E                     dE             d eps       ncg     rms          ort
 gam= 0.000 g(H,U,f)=  0.974E-01 0.953E-02 0.667E-23 ort(H,U,f) = 0.000E+00 0.000E+00 0.000E+00
SDA:   1    -0.202699940986E+04    0.39147E-01    0.00000E+00  1304   0.107E+00 0.000E+00
 gam= 0.000 trial= 0.577  step= 0.556 mean= 0.577
 gam= 0.258 g(H,U,f)=  0.261E-01 0.152E-02 0.219E-22 ort(H,U,f) = 0.175E-02-0.173E-02-0.328E-22
CGA:   2    -0.202702915479E+04   -0.29745E-01   -0.29745E-01  1304   0.276E-01 0.216E-04
 gam= 0.258 trial= 0.576  step= 0.602 mean= 0.576
 gam= 0.161 g(H,U,f)=  0.431E-02 0.140E-03 0.537E-24 ort(H,U,f) =-0.133E-03 0.122E-03 0.941E-24
CGA:   3    -0.202703746039E+04   -0.83056E-02   -0.83058E-02  1304   0.445E-02-0.114E-04
 gam= 0.161 trial= 0.577  step= 0.494 mean= 0.577
 gam= 0.217 g(H,U,f)=  0.891E-03 0.734E-04 0.395E-24 ort(H,U,f) =-0.351E-04 0.450E-04-0.455E-24
CGA:   4    -0.202703855932E+04   -0.10989E-02   -0.10993E-02  1304   0.965E-03 0.988E-05
 gam= 0.217 trial= 0.573  step= 0.535 mean= 0.573
 gam= 0.241 g(H,U,f)=  0.210E-03 0.225E-04 0.601E-25 ort(H,U,f) =-0.403E-04 0.365E-04 0.130E-24
CGA:   5    -0.202703881799E+04   -0.25867E-03   -0.25860E-03  1304   0.232E-03-0.386E-05
 gam= 0.241 trial= 0.571  step= 0.594 mean= 0.571
 gam= 0.398 g(H,U,f)=  0.839E-04 0.859E-05 0.231E-25 ort(H,U,f) =-0.135E-04 0.178E-04 0.613E-25
CGA:   6    -0.202703888676E+04   -0.68770E-04   -0.68721E-04  1304   0.925E-04 0.426E-05
 gam= 0.398 trial= 0.572  step= 0.583 mean= 0.572
 gam= 0.486 g(H,U,f)=  0.416E-04 0.335E-05 0.171E-25 ort(H,U,f) =-0.116E-04 0.764E-05 0.429E-25
CGA:   7    -0.202703891421E+04   -0.27452E-04   -0.27473E-04  1304   0.450E-04-0.396E-05
 gam= 0.486 trial= 0.573  step= 0.527 mean= 0.573
 gam= 0.241 g(H,U,f)=  0.104E-04 0.443E-06 0.356E-26 ort(H,U,f) = 0.690E-06 0.233E-05 0.182E-25
CGA:   8    -0.202703892549E+04   -0.11283E-04   -0.11352E-04  1304   0.108E-04 0.302E-05
 gam= 0.241 trial= 0.571  step= 0.715 mean= 0.571
 gam= 0.275 g(H,U,f)=  0.292E-05 0.662E-07 0.376E-26 ort(H,U,f) =-0.662E-06 0.235E-06 0.843E-26
CGA:   9    -0.202703892959E+04   -0.41009E-05   -0.41318E-05  1304   0.298E-05-0.427E-06
 gam= 0.275 trial= 0.578  step= 0.633 mean= 0.578
 gam= 0.264 g(H,U,f)=  0.753E-06 0.349E-07 0.564E-27 ort(H,U,f) = 0.144E-06-0.395E-08-0.239E-26
CGA:  10    -0.202703893050E+04   -0.90981E-06   -0.90612E-06  1304   0.788E-06 0.140E-06
 gam= 0.264 trial= 0.581  step= 0.674 mean= 0.581
 gam= 0.485 g(H,U,f)=  0.368E-06 0.148E-07 0.451E-27 ort(H,U,f) =-0.484E-07-0.984E-08 0.613E-28
CGA:  11    -0.202703893078E+04   -0.27545E-06   -0.27793E-06  1304   0.383E-06-0.583E-07
 gam= 0.485 trial= 0.585  step= 0.504 mean= 0.585
 gam= 0.359 g(H,U,f)=  0.133E-06 0.410E-08 0.561E-28 ort(H,U,f) = 0.291E-07-0.106E-08 0.170E-27
CGA:  12    -0.202703893087E+04   -0.88025E-07   -0.89196E-07  1304   0.137E-06 0.281E-07
 gam= 0.359 trial= 0.581  step= 0.820 mean= 0.581
 final diagonalization
 131 F= -.20484908E+04 E0= -.20484908E+04  d E =-.672621E-03
 trial-energy change:   -0.000673  1 .order   -0.000684   -0.000859   -0.000509
 step:   0.6059(harm=  0.6059)  dis= 0.00375  next Energy= -2048.491199 (dE=-0.105E-02)
 bond charge predicted
       N       E                     dE             d eps       ncg     rms          ort
 gam= 0.000 g(H,U,f)=  0.206E+00 0.201E-01 0.243E-22 ort(H,U,f) = 0.000E+00 0.000E+00 0.000E+00
SDA:   1    -0.202695536700E+04    0.83564E-01    0.00000E+00  1304   0.226E+00 0.000E+00
 gam= 0.000 trial= 0.593  step= 0.556 mean= 0.593
 gam= 0.258 g(H,U,f)=  0.550E-01 0.321E-02 0.188E-21 ort(H,U,f) = 0.367E-02-0.364E-02-0.281E-21
CGA:   2    -0.202701820803E+04   -0.62841E-01   -0.62841E-01  1304   0.583E-01 0.250E-04
 gam= 0.258 trial= 0.591  step= 0.602 mean= 0.591
 gam= 0.161 g(H,U,f)=  0.910E-02 0.296E-03 0.234E-23 ort(H,U,f) =-0.275E-03 0.259E-03 0.408E-23
CGA:   3    -0.202703574747E+04   -0.17539E-01   -0.17540E-01  1304   0.939E-02-0.153E-04
 gam= 0.161 trial= 0.592  step= 0.495 mean= 0.592
 gam= 0.217 g(H,U,f)=  0.188E-02 0.155E-03 0.136E-23 ort(H,U,f) =-0.814E-04 0.956E-04-0.156E-23
CGA:   4    -0.202703807162E+04   -0.23242E-02   -0.23248E-02  1304   0.204E-02 0.142E-04
 gam= 0.217 trial= 0.587  step= 0.534 mean= 0.587
 gam= 0.240 g(H,U,f)=  0.441E-03 0.475E-04 0.226E-24 ort(H,U,f) =-0.824E-04 0.771E-04 0.491E-24
CGA:   5    -0.202703861679E+04   -0.54517E-03   -0.54503E-03  1304   0.489E-03-0.534E-05
 gam= 0.240 trial= 0.584  step= 0.599 mean= 0.584
 gam= 0.404 g(H,U,f)=  0.179E-03 0.181E-04 0.925E-25 ort(H,U,f) =-0.313E-04 0.374E-04 0.247E-24
CGA:   6    -0.202703876280E+04   -0.14600E-03   -0.14596E-03  1304   0.197E-03 0.607E-05
 gam= 0.404 trial= 0.585  step= 0.572 mean= 0.585
 gam= 0.468 g(H,U,f)=  0.853E-04 0.702E-05 0.713E-25 ort(H,U,f) =-0.219E-04 0.164E-04 0.180E-24
CGA:   7    -0.202703881996E+04   -0.57165E-04   -0.57127E-04  1304   0.923E-04-0.553E-05
 gam= 0.468 trial= 0.584  step= 0.547 mean= 0.584
 gam= 0.251 g(H,U,f)=  0.223E-04 0.943E-06 0.154E-25 ort(H,U,f) =-0.344E-06 0.469E-05 0.777E-25
CGA:   8    -0.202703884445E+04   -0.24486E-04   -0.24566E-04  1304   0.232E-04 0.435E-05
 gam= 0.251 trial= 0.583  step= 0.709 mean= 0.583
 gam= 0.271 g(H,U,f)=  0.616E-05 0.129E-06 0.188E-25 ort(H,U,f) =-0.138E-05 0.496E-06 0.405E-25
CGA:   9    -0.202703885300E+04   -0.85540E-05   -0.86098E-05  1304   0.629E-05-0.880E-06
 gam= 0.271 trial= 0.589  step= 0.582 mean= 0.589
 gam= 0.286 g(H,U,f)=  0.174E-05 0.555E-07 0.209E-26 ort(H,U,f) = 0.506E-06 0.948E-08-0.101E-25
CGA:  10    -0.202703885476E+04   -0.17588E-05   -0.17606E-05  1304   0.180E-05 0.516E-06
 gam= 0.286 trial= 0.589  step= 0.698 mean= 0.589
 gam= 0.730 g(H,U,f)=  0.128E-05 0.344E-07 0.183E-26 ort(H,U,f) =-0.435E-06-0.169E-07 0.755E-27
CGA:  11    -0.202703885541E+04   -0.65373E-06   -0.67846E-06  1304   0.131E-05-0.452E-06
 gam= 0.730 trial= 0.594  step= 0.355 mean= 0.594
 gam= 0.336 g(H,U,f)=  0.429E-06 0.121E-07 0.103E-26 ort(H,U,f) = 0.196E-06-0.181E-08 0.180E-26
CGA:  12    -0.202703885557E+04   -0.15087E-06   -0.17423E-06  1304   0.441E-06 0.194E-06
 gam= 0.336 trial= 0.582  step= 0.361 mean= 0.582
 gam= 0.479 g(H,U,f)=  0.204E-06 0.709E-08 0.633E-28 ort(H,U,f) = 0.105E-06 0.110E-08-0.407E-27
CGA:  13    -0.202703885565E+04   -0.79526E-07   -0.91397E-07  1304   0.211E-06 0.106E-06
 gam= 0.479 trial= 0.571  step= 0.737 mean= 0.571
 final diagonalization
 132 F= -.20484912E+04 E0= -.20484912E+04  d E =-.103327E-02
 curvature:  -4.87 expect dE=-0.181E-01 dE for cont linesearch -0.125E-08
 trial: gam= 1.08162 g(F)=  0.370E-02 g(S)=  0.109E-04 ort = 0.378E-05 (trialstep = 0.258E+00)
 search vector abs. value=  0.691E-01
 bond charge predicted
       N       E                     dE             d eps       ncg     rms          ort
 gam= 0.000 g(H,U,f)=  0.128E+00 0.128E-01 0.128E-23 ort(H,U,f) = 0.000E+00 0.000E+00 0.000E+00
SDA:   1    -0.202698740389E+04    0.51452E-01    0.00000E+00  1304   0.141E+00 0.000E+00
 gam= 0.000 trial= 0.579  step= 0.551 mean= 0.579
 gam= 0.255 g(H,U,f)=  0.340E-01 0.208E-02 0.284E-22 ort(H,U,f) = 0.242E-02-0.239E-02-0.180E-22
CGA:   2    -0.202702629378E+04   -0.38890E-01   -0.38890E-01  1304   0.361E-01 0.239E-04
 gam= 0.255 trial= 0.578  step= 0.607 mean= 0.578
 gam= 0.164 g(H,U,f)=  0.574E-02 0.190E-03 0.200E-22 ort(H,U,f) =-0.162E-03 0.151E-03 0.769E-23
CGA:   3    -0.202703724209E+04   -0.10948E-01   -0.10948E-01  1304   0.593E-02-0.109E-04
 gam= 0.164 trial= 0.579  step= 0.492 mean= 0.579
 gam= 0.215 g(H,U,f)=  0.118E-02 0.979E-04 0.173E-23 ort(H,U,f) =-0.434E-04 0.558E-04-0.334E-23
CGA:   4    -0.202703869773E+04   -0.14556E-02   -0.14562E-02  1304   0.128E-02 0.124E-04
 gam= 0.215 trial= 0.575  step= 0.536 mean= 0.575
 gam= 0.244 g(H,U,f)=  0.282E-03 0.295E-04 0.275E-25 ort(H,U,f) =-0.532E-04 0.479E-04 0.152E-24
CGA:   5    -0.202703904046E+04   -0.34273E-03   -0.34263E-03  1304   0.312E-03-0.527E-05
 gam= 0.244 trial= 0.573  step= 0.581 mean= 0.573
 gam= 0.405 g(H,U,f)=  0.115E-03 0.115E-04 0.566E-26 ort(H,U,f) =-0.181E-04 0.234E-04 0.313E-25
CGA:   6    -0.202703913061E+04   -0.90154E-04   -0.90133E-04  1304   0.126E-03 0.531E-05
 gam= 0.405 trial= 0.573  step= 0.575 mean= 0.573
 gam= 0.457 g(H,U,f)=  0.531E-04 0.458E-05 0.888E-25 ort(H,U,f) =-0.148E-04 0.103E-04 0.743E-25
CGA:   7    -0.202703916745E+04   -0.36842E-04   -0.36844E-04  1304   0.577E-04-0.449E-05
 gam= 0.457 trial= 0.573  step= 0.553 mean= 0.573
 gam= 0.245 g(H,U,f)=  0.135E-04 0.604E-06 0.771E-26 ort(H,U,f) = 0.585E-06 0.296E-05 0.387E-25
CGA:   8    -0.202703918281E+04   -0.15351E-04   -0.15387E-04  1304   0.141E-04 0.355E-05
 gam= 0.245 trial= 0.572  step= 0.721 mean= 0.572
 gam= 0.290 g(H,U,f)=  0.400E-05 0.976E-07 0.238E-26 ort(H,U,f) =-0.102E-05 0.311E-06 0.997E-26
CGA:   9    -0.202703918816E+04   -0.53513E-05   -0.54043E-05  1304   0.409E-05-0.710E-06
 gam= 0.290 trial= 0.580  step= 0.552 mean= 0.580
 gam= 0.264 g(H,U,f)=  0.105E-05 0.316E-07 0.876E-29 ort(H,U,f) = 0.464E-06 0.953E-08 0.322E-27
CGA:  10    -0.202703918922E+04   -0.10675E-05   -0.10741E-05  1304   0.108E-05 0.473E-06
 gam= 0.264 trial= 0.578  step= 0.824 mean= 0.578
 gam= 0.867 g(H,U,f)=  0.908E-06 0.269E-07 0.101E-27 ort(H,U,f) =-0.408E-06-0.142E-07 0.320E-27
CGA:  11    -0.202703918967E+04   -0.44443E-06   -0.49591E-06  1304   0.935E-06-0.422E-06
 gam= 0.867 trial= 0.591  step= 0.284 mean= 0.591
 gam= 0.487 g(H,U,f)=  0.444E-06 0.116E-07 0.514E-29 ort(H,U,f) = 0.168E-06 0.290E-09 0.858E-28
CGA:  12    -0.202703918972E+04   -0.54875E-07   -0.80852E-07  1304   0.456E-06 0.168E-06
 gam= 0.487 trial= 0.575  step= 0.257 mean= 0.575
 final diagonalization
 133 F= -.20484920E+04 E0= -.20484920E+04  d E =-.784086E-03
 trial-energy change:   -0.000784  1 .order   -0.000795   -0.000958   -0.000632
 step:   0.7559(harm=  0.7559)  dis= 0.00506  next Energy= -2048.492584 (dE=-0.141E-02)
 bond charge predicted
       N       E                     dE             d eps       ncg     rms          ort
 gam= 0.000 g(H,U,f)=  0.479E+00 0.479E-01 0.367E-23 ort(H,U,f) = 0.000E+00 0.000E+00 0.000E+00
SDA:   1    -0.202684554027E+04    0.19365E+00    0.00000E+00  1304   0.527E+00 0.000E+00
 gam= 0.000 trial= 0.559  step= 0.551 mean= 0.559
 gam= 0.255 g(H,U,f)=  0.127E+00 0.775E-02 0.435E-21 ort(H,U,f) = 0.895E-02-0.893E-02-0.318E-21
CGA:   2    -0.202699073661E+04   -0.14520E+00   -0.14520E+00  1304   0.135E+00 0.170E-04
 gam= 0.255 trial= 0.559  step= 0.607 mean= 0.559
 gam= 0.164 g(H,U,f)=  0.213E-01 0.711E-03 0.497E-22 ort(H,U,f) =-0.578E-03 0.562E-03 0.193E-22
CGA:   3    -0.202703161401E+04   -0.40877E-01   -0.40878E-01  1304   0.220E-01-0.161E-04
 gam= 0.164 trial= 0.561  step= 0.493 mean= 0.561
 gam= 0.216 g(H,U,f)=  0.438E-02 0.368E-03 0.128E-23 ort(H,U,f) =-0.182E-03 0.207E-03-0.250E-23
CGA:   4    -0.202703704601E+04   -0.54320E-02   -0.54328E-02  1304   0.475E-02 0.246E-04
 gam= 0.216 trial= 0.558  step= 0.536 mean= 0.558
 gam= 0.240 g(H,U,f)=  0.103E-02 0.109E-03 0.201E-25 ort(H,U,f) =-0.187E-03 0.178E-03 0.131E-24
CGA:   5    -0.202703832112E+04   -0.12751E-02   -0.12750E-02  1304   0.114E-02-0.934E-05
 gam= 0.240 trial= 0.557  step= 0.596 mean= 0.557
 gam= 0.410 g(H,U,f)=  0.426E-03 0.422E-04 0.684E-26 ort(H,U,f) =-0.756E-04 0.857E-04 0.339E-25
CGA:   6    -0.202703866043E+04   -0.33931E-03   -0.33911E-03  1304   0.468E-03 0.102E-04
 gam= 0.410 trial= 0.559  step= 0.563 mean= 0.559
 gam= 0.446 g(H,U,f)=  0.192E-03 0.166E-04 0.911E-25 ort(H,U,f) =-0.472E-04 0.387E-04 0.792E-25
CGA:   7    -0.202703879335E+04   -0.13292E-03   -0.13294E-03  1304   0.209E-03-0.857E-05
 gam= 0.446 trial= 0.559  step= 0.571 mean= 0.559
 gam= 0.258 g(H,U,f)=  0.517E-04 0.224E-05 0.879E-26 ort(H,U,f) =-0.310E-05 0.104E-04 0.445E-25
CGA:   8    -0.202703885184E+04   -0.58487E-04   -0.58446E-04  1304   0.539E-04 0.727E-05
 gam= 0.258 trial= 0.560  step= 0.700 mean= 0.560
 gam= 0.275 g(H,U,f)=  0.145E-04 0.342E-06 0.465E-26 ort(H,U,f) =-0.294E-05 0.114E-05 0.160E-25
CGA:   9    -0.202703887126E+04   -0.19425E-04   -0.19552E-04  1304   0.148E-04-0.180E-05
 gam= 0.275 trial= 0.567  step= 0.553 mean= 0.567
 gam= 0.298 g(H,U,f)=  0.431E-05 0.116E-06 0.154E-28 ort(H,U,f) = 0.123E-05 0.261E-07-0.531E-27
CGA:  10    -0.202703887523E+04   -0.39616E-05   -0.39701E-05  1304   0.442E-05 0.126E-05
 gam= 0.298 trial= 0.566  step= 0.686 mean= 0.566
 gam= 0.658 g(H,U,f)=  0.283E-05 0.783E-07 0.138E-27 ort(H,U,f) =-0.100E-05-0.341E-07 0.434E-27
CGA:  11    -0.202703887681E+04   -0.15832E-05   -0.16453E-05  1304   0.291E-05-0.104E-05
 gam= 0.658 trial= 0.572  step= 0.373 mean= 0.572
 gam= 0.324 g(H,U,f)=  0.920E-06 0.247E-07 0.216E-28 ort(H,U,f) = 0.468E-06 0.377E-09 0.169E-27
CGA:  12    -0.202703887718E+04   -0.36872E-06   -0.41547E-06  1304   0.944E-06 0.468E-06
 gam= 0.324 trial= 0.562  step= 0.400 mean= 0.562
 gam= 0.466 g(H,U,f)=  0.424E-06 0.159E-07 0.967E-28 ort(H,U,f) = 0.215E-06 0.249E-08-0.163E-27
CGA:  13    -0.202703887738E+04   -0.20163E-06   -0.21932E-06  1304   0.440E-06 0.217E-06
 gam= 0.466 trial= 0.554  step= 0.889 mean= 0.554
 gam= 0.000 g(H,U,f)=  0.888E-06 0.152E-07 0.253E-27 ort(H,U,f) =-0.543E-06 0.142E-08 0.323E-28
CGA:  14    -0.202703887753E+04   -0.14973E-06   -0.24027E-06  1304   0.904E-06-0.541E-06
 gam= 0.000 trial= 0.571  step= 0.246 mean= 0.571
 gam= 0.178 g(H,U,f)=  0.158E-06 0.303E-08 0.650E-28 ort(H,U,f) = 0.283E-06 0.422E-08 0.128E-27
CGA:  15    -0.202703887759E+04   -0.64560E-07   -0.11114E-06  1304   0.161E-06 0.287E-06
 gam= 0.178 trial= 0.554  step= 0.304 mean= 0.554
 final diagonalization
 134 F= -.20484925E+04 E0= -.20484925E+04  d E =-.134482E-02
 curvature:  -7.02 expect dE=-0.263E-01 dE for cont linesearch -0.820E-06
 trial: gam= 1.05688 g(F)=  0.372E-02 g(S)=  0.256E-04 ort =-0.898E-04 (trialstep = 0.306E+00)
 search vector abs. value=  0.807E-01
 bond charge predicted
       N       E                     dE             d eps       ncg     rms          ort
 gam= 0.000 g(H,U,f)=  0.209E+00 0.219E-01 0.631E-23 ort(H,U,f) = 0.000E+00 0.000E+00 0.000E+00
SDA:   1    -0.202695524348E+04    0.83634E-01    0.00000E+00  1304   0.231E+00 0.000E+00
 gam= 0.000 trial= 0.542  step= 0.547 mean= 0.542
 gam= 0.253 g(H,U,f)=  0.551E-01 0.355E-02 0.900E-22 ort(H,U,f) = 0.426E-02-0.424E-02-0.101E-21
CGA:   2    -0.202701846693E+04   -0.63223E-01   -0.63223E-01  1304   0.586E-01 0.211E-04
 gam= 0.253 trial= 0.542  step= 0.613 mean= 0.542
 gam= 0.164 g(H,U,f)=  0.932E-02 0.314E-03 0.460E-23 ort(H,U,f) =-0.278E-03 0.268E-03 0.350E-23
CGA:   3    -0.202703644791E+04   -0.17981E-01   -0.17981E-01  1304   0.963E-02-0.103E-04
 gam= 0.164 trial= 0.546  step= 0.495 mean= 0.546
 gam= 0.217 g(H,U,f)=  0.192E-02 0.168E-03 0.397E-24 ort(H,U,f) =-0.793E-04 0.904E-04-0.763E-24
CGA:   4    -0.202703883201E+04   -0.23841E-02   -0.23844E-02  1304   0.209E-02 0.112E-04
 gam= 0.217 trial= 0.543  step= 0.542 mean= 0.543
 gam= 0.236 g(H,U,f)=  0.445E-03 0.481E-04 0.271E-25 ort(H,U,f) =-0.829E-04 0.779E-04 0.717E-25
CGA:   5    -0.202703939815E+04   -0.56614E-03   -0.56614E-03  1304   0.493E-03-0.504E-05
 gam= 0.236 trial= 0.543  step= 0.618 mean= 0.543
 gam= 0.402 g(H,U,f)=  0.180E-03 0.177E-04 0.738E-26 ort(H,U,f) =-0.305E-04 0.368E-04 0.252E-25
CGA:   6    -0.202703955034E+04   -0.15219E-03   -0.15196E-03  1304   0.198E-03 0.630E-05
 gam= 0.402 trial= 0.547  step= 0.583 mean= 0.547
 gam= 0.483 g(H,U,f)=  0.889E-04 0.685E-05 0.233E-25 ort(H,U,f) =-0.215E-04 0.157E-04 0.325E-25
CGA:   7    -0.202703960870E+04   -0.58357E-04   -0.58461E-04  1304   0.957E-04-0.580E-05
 gam= 0.483 trial= 0.549  step= 0.530 mean= 0.549
 gam= 0.249 g(H,U,f)=  0.229E-04 0.913E-06 0.707E-26 ort(H,U,f) = 0.172E-06 0.458E-05 0.232E-25
CGA:   8    -0.202703963326E+04   -0.24566E-04   -0.24610E-04  1304   0.238E-04 0.476E-05
 gam= 0.249 trial= 0.548  step= 0.712 mean= 0.548
 gam= 0.265 g(H,U,f)=  0.619E-05 0.130E-06 0.883E-27 ort(H,U,f) =-0.147E-05 0.434E-06 0.482E-26
CGA:   9    -0.202703964207E+04   -0.88101E-05   -0.88947E-05  1304   0.632E-05-0.103E-05
 gam= 0.265 trial= 0.556  step= 0.623 mean= 0.556
 gam= 0.256 g(H,U,f)=  0.155E-05 0.664E-07 0.624E-28 ort(H,U,f) = 0.436E-06-0.160E-07 0.581E-27
CGA:  10    -0.202703964397E+04   -0.18954E-05   -0.18813E-05  1304   0.162E-05 0.420E-06
 gam= 0.256 trial= 0.559  step= 0.818 mean= 0.559
 gam= 0.740 g(H,U,f)=  0.115E-05 0.527E-07 0.168E-27 ort(H,U,f) =-0.424E-06-0.359E-07 0.348E-27
CGA:  11    -0.202703964461E+04   -0.64606E-06   -0.70562E-06  1304   0.120E-05-0.460E-06
 gam= 0.740 trial= 0.572  step= 0.338 mean= 0.572
 gam= 0.385 g(H,U,f)=  0.444E-06 0.175E-07 0.101E-28 ort(H,U,f) = 0.225E-06 0.374E-08 0.105E-27
CGA:  12    -0.202703964473E+04   -0.11852E-06   -0.14502E-06  1304   0.461E-06 0.228E-06
 gam= 0.385 trial= 0.560  step= 0.348 mean= 0.560
 gam= 0.435 g(H,U,f)=  0.192E-06 0.878E-08 0.310E-28 ort(H,U,f) = 0.114E-06-0.110E-08-0.889E-28
CGA:  13    -0.202703964482E+04   -0.83543E-07   -0.95540E-07  1304   0.201E-06 0.113E-06
 gam= 0.435 trial= 0.550  step= 1.018 mean= 0.550
 gam= 0.000 g(H,U,f)=  0.539E-06 0.128E-07 0.610E-28 ort(H,U,f) =-0.322E-06 0.720E-10-0.109E-28
CGA:  14    -0.202703964487E+04   -0.52074E-07   -0.12701E-06  1304   0.552E-06-0.321E-06
 gam= 0.000 trial= 0.573  step= 0.260 mean= 0.573
 final diagonalization
 135 F= -.20484933E+04 E0= -.20484933E+04  d E =-.812392E-03
 trial-energy change:   -0.000812  1 .order   -0.000820   -0.001117   -0.000522
 step:   0.6210(harm=  0.5744)  dis= 0.00439  next Energy= -2048.493597 (dE=-0.107E-02)
 bond charge predicted
       N       E                     dE             d eps       ncg     rms          ort
 gam= 0.000 g(H,U,f)=  0.222E+00 0.233E-01 0.410E-23 ort(H,U,f) = 0.000E+00 0.000E+00 0.000E+00
SDA:   1    -0.202695024150E+04    0.89403E-01    0.00000E+00  1304   0.246E+00 0.000E+00
 gam= 0.000 trial= 0.558  step= 0.547 mean= 0.558
 gam= 0.253 g(H,U,f)=  0.585E-01 0.377E-02 0.659E-22 ort(H,U,f) = 0.452E-02-0.450E-02-0.740E-22
CGA:   2    -0.202701734373E+04   -0.67102E-01   -0.67102E-01  1304   0.622E-01 0.210E-04
 gam= 0.253 trial= 0.557  step= 0.613 mean= 0.557
 gam= 0.164 g(H,U,f)=  0.989E-02 0.334E-03 0.295E-23 ort(H,U,f) =-0.296E-03 0.285E-03 0.226E-23
CGA:   3    -0.202703642609E+04   -0.19082E-01   -0.19083E-01  1304   0.102E-01-0.104E-04
 gam= 0.164 trial= 0.560  step= 0.495 mean= 0.560
 gam= 0.217 g(H,U,f)=  0.204E-02 0.178E-03 0.241E-24 ort(H,U,f) =-0.849E-04 0.964E-04-0.464E-24
CGA:   4    -0.202703895756E+04   -0.25315E-02   -0.25318E-02  1304   0.222E-02 0.114E-04
 gam= 0.217 trial= 0.557  step= 0.541 mean= 0.557
 gam= 0.237 g(H,U,f)=  0.474E-03 0.511E-04 0.170E-25 ort(H,U,f) =-0.881E-04 0.829E-04 0.444E-25
CGA:   5    -0.202703955839E+04   -0.60083E-03   -0.60079E-03  1304   0.525E-03-0.523E-05
 gam= 0.237 trial= 0.556  step= 0.615 mean= 0.556
 gam= 0.403 g(H,U,f)=  0.193E-03 0.189E-04 0.449E-26 ort(H,U,f) =-0.327E-04 0.392E-04 0.155E-25
CGA:   6    -0.202703971989E+04   -0.16150E-03   -0.16131E-03  1304   0.212E-03 0.648E-05
 gam= 0.403 trial= 0.559  step= 0.580 mean= 0.559
 gam= 0.478 g(H,U,f)=  0.940E-04 0.733E-05 0.146E-25 ort(H,U,f) =-0.227E-04 0.169E-04 0.203E-25
CGA:   7    -0.202703978201E+04   -0.62126E-04   -0.62188E-04  1304   0.101E-03-0.589E-05
 gam= 0.478 trial= 0.560  step= 0.535 mean= 0.560
 gam= 0.250 g(H,U,f)=  0.243E-04 0.976E-06 0.440E-26 ort(H,U,f) =-0.558E-07 0.486E-05 0.144E-25
CGA:   8    -0.202703980829E+04   -0.26280E-04   -0.26340E-04  1304   0.253E-04 0.480E-05
 gam= 0.250 trial= 0.559  step= 0.712 mean= 0.559
 gam= 0.266 g(H,U,f)=  0.658E-05 0.138E-06 0.582E-27 ort(H,U,f) =-0.155E-05 0.466E-06 0.310E-26
CGA:   9    -0.202703981764E+04   -0.93438E-05   -0.94269E-05  1304   0.672E-05-0.109E-05
 gam= 0.266 trial= 0.566  step= 0.612 mean= 0.566
 gam= 0.261 g(H,U,f)=  0.169E-05 0.677E-07 0.379E-28 ort(H,U,f) = 0.503E-06-0.124E-07 0.363E-27
CGA:  10    -0.202703981962E+04   -0.19799E-05   -0.19689E-05  1304   0.176E-05 0.491E-06
 gam= 0.261 trial= 0.569  step= 0.812 mean= 0.569
 gam= 0.811 g(H,U,f)=  0.137E-05 0.541E-07 0.111E-27 ort(H,U,f) =-0.520E-06-0.357E-07 0.228E-27
CGA:  11    -0.202703982031E+04   -0.69715E-06   -0.76483E-06  1304   0.142E-05-0.556E-06
 gam= 0.811 trial= 0.581  step= 0.318 mean= 0.581
 gam= 0.400 g(H,U,f)=  0.548E-06 0.207E-07 0.109E-28 ort(H,U,f) = 0.250E-06 0.204E-08 0.932E-28
CGA:  12    -0.202703982044E+04   -0.12190E-06   -0.15486E-06  1304   0.569E-06 0.252E-06
 gam= 0.400 trial= 0.568  step= 0.305 mean= 0.568
 gam= 0.441 g(H,U,f)=  0.242E-06 0.874E-08 0.129E-28 ort(H,U,f) = 0.158E-06 0.575E-09-0.526E-28
CGA:  13    -0.202703982052E+04   -0.81200E-07   -0.10200E-06  1304   0.251E-06 0.159E-06
 gam= 0.441 trial= 0.554  step= 0.692 mean= 0.554
 gam= 0.000 g(H,U,f)=  0.225E-06 0.126E-07 0.561E-28 ort(H,U,f) =-0.191E-06 0.839E-09-0.215E-28
CGA:  14    -0.202703982061E+04   -0.98080E-07   -0.11113E-06  1304   0.237E-06-0.190E-06
 gam= 0.000 trial= 0.561  step= 0.352 mean= 0.561
 final diagonalization
 136 F= -.20484936E+04 E0= -.20484936E+04  d E =-.103829E-02
 curvature:  -6.16 expect dE=-0.264E-01 dE for cont linesearch -0.477E-05
 trial: gam= 1.16119 g(F)=  0.424E-02 g(S)=  0.538E-04 ort =-0.250E-03 (trialstep = 0.265E+00)
 search vector abs. value=  0.113E+00
 bond charge predicted
       N       E                     dE             d eps       ncg     rms          ort
 gam= 0.000 g(H,U,f)=  0.216E+00 0.230E-01 0.179E-23 ort(H,U,f) = 0.000E+00 0.000E+00 0.000E+00
SDA:   1    -0.202695420475E+04    0.85616E-01    0.00000E+00  1304   0.239E+00 0.000E+00
 gam= 0.000 trial= 0.551  step= 0.545 mean= 0.551
 gam= 0.254 g(H,U,f)=  0.569E-01 0.377E-02 0.201E-22 ort(H,U,f) = 0.461E-02-0.460E-02-0.339E-22
CGA:   2    -0.202701934076E+04   -0.65136E-01   -0.65136E-01  1304   0.607E-01 0.101E-04
 gam= 0.254 trial= 0.551  step= 0.616 mean= 0.551
 gam= 0.163 g(H,U,f)=  0.957E-02 0.329E-03 0.642E-23 ort(H,U,f) =-0.277E-03 0.271E-03 0.170E-23
CGA:   3    -0.202703802159E+04   -0.18681E-01   -0.18681E-01  1304   0.990E-02-0.583E-05
 gam= 0.163 trial= 0.554  step= 0.498 mean= 0.554
 gam= 0.216 g(H,U,f)=  0.196E-02 0.179E-03 0.475E-24 ort(H,U,f) =-0.847E-04 0.901E-04-0.845E-24
CGA:   4    -0.202704048852E+04   -0.24669E-02   -0.24671E-02  1304   0.213E-02 0.542E-05
 gam= 0.216 trial= 0.551  step= 0.551 mean= 0.551
 gam= 0.226 g(H,U,f)=  0.433E-03 0.490E-04 0.121E-28 ort(H,U,f) =-0.791E-04 0.781E-04 0.168E-26
CGA:   5    -0.202704107677E+04   -0.58825E-03   -0.58825E-03  1304   0.482E-03-0.101E-05
 gam= 0.226 trial= 0.551  step= 0.669 mean= 0.551
 gam= 0.372 g(H,U,f)=  0.163E-03 0.169E-04 0.751E-26 ort(H,U,f) =-0.322E-04 0.355E-04 0.117E-25
CGA:   6    -0.202704123807E+04   -0.16130E-03   -0.16110E-03  1304   0.179E-03 0.337E-05
 gam= 0.372 trial= 0.557  step= 0.644 mean= 0.557
 gam= 0.511 g(H,U,f)=  0.863E-04 0.541E-05 0.582E-26 ort(H,U,f) =-0.181E-04 0.136E-04 0.110E-25
CGA:   7    -0.202704129603E+04   -0.57965E-04   -0.58159E-04  1304   0.917E-04-0.449E-05
 gam= 0.511 trial= 0.561  step= 0.482 mean= 0.561
 gam= 0.272 g(H,U,f)=  0.241E-04 0.858E-06 0.789E-27 ort(H,U,f) = 0.245E-06 0.410E-05 0.443E-26
CGA:   8    -0.202704131742E+04   -0.21391E-04   -0.21562E-04  1304   0.250E-04 0.434E-05
 gam= 0.272 trial= 0.557  step= 0.674 mean= 0.557
 gam= 0.257 g(H,U,f)=  0.629E-05 0.122E-06 0.761E-27 ort(H,U,f) =-0.158E-05 0.413E-06 0.203E-26
CGA:   9    -0.202704132617E+04   -0.87478E-05   -0.88158E-05  1304   0.641E-05-0.117E-05
 gam= 0.257 trial= 0.563  step= 0.656 mean= 0.563
 gam= 0.252 g(H,U,f)=  0.155E-05 0.642E-07 0.287E-27 ort(H,U,f) = 0.243E-06-0.367E-07-0.797E-27
CGA:  10    -0.202704132819E+04   -0.20153E-05   -0.20055E-05  1304   0.162E-05 0.207E-06
 gam= 0.252 trial= 0.568  step= 0.696 mean= 0.568
 gam= 0.424 g(H,U,f)=  0.653E-06 0.344E-07 0.199E-27 ort(H,U,f) =-0.284E-07-0.215E-07-0.703E-28
CGA:  11    -0.202704132876E+04   -0.57860E-06   -0.58167E-06  1304   0.687E-06-0.499E-07
 gam= 0.424 trial= 0.574  step= 0.649 mean= 0.574
 gam= 0.459 g(H,U,f)=  0.306E-06 0.964E-08 0.396E-29 ort(H,U,f) =-0.181E-07-0.282E-08-0.241E-28
CGA:  12    -0.202704132898E+04   -0.21522E-06   -0.21600E-06  1304   0.315E-06-0.209E-07
 gam= 0.459 trial= 0.578  step= 0.614 mean= 0.578
 gam= 0.444 g(H,U,f)=  0.133E-06 0.654E-08 0.726E-28 ort(H,U,f) =-0.366E-07 0.235E-08-0.304E-28
CGA:  13    -0.202704132907E+04   -0.93380E-07   -0.93873E-07  1304   0.140E-06-0.342E-07
 gam= 0.444 trial= 0.580  step= 0.552 mean= 0.580
 final diagonalization
 137 F= -.20484944E+04 E0= -.20484944E+04  d E =-.875611E-03
 trial-energy change:   -0.000876  1 .order   -0.000877   -0.001059   -0.000695
 step:   0.7691(harm=  0.7691)  dis= 0.00622  next Energy= -2048.495101 (dE=-0.154E-02)
 bond charge predicted
       N       E                     dE             d eps       ncg     rms          ort
 gam= 0.000 g(H,U,f)=  0.786E+00 0.835E-01 0.850E-23 ort(H,U,f) = 0.000E+00 0.000E+00 0.000E+00
SDA:   1    -0.202672629220E+04    0.31504E+00    0.00000E+00  1304   0.869E+00 0.000E+00
 gam= 0.000 trial= 0.578  step= 0.545 mean= 0.578
 gam= 0.254 g(H,U,f)=  0.207E+00 0.137E-01 0.186E-20 ort(H,U,f) = 0.167E-01-0.167E-01-0.316E-20
CGA:   2    -0.202696321879E+04   -0.23693E+00   -0.23692E+00  1304   0.221E+00-0.273E-04
 gam= 0.254 trial= 0.577  step= 0.616 mean= 0.577
 gam= 0.163 g(H,U,f)=  0.348E-01 0.120E-02 0.658E-22 ort(H,U,f) =-0.994E-03 0.989E-03 0.170E-22
CGA:   3    -0.202703115762E+04   -0.67939E-01   -0.67939E-01  1304   0.360E-01-0.505E-05
 gam= 0.163 trial= 0.579  step= 0.499 mean= 0.579
 gam= 0.216 g(H,U,f)=  0.711E-02 0.653E-03 0.121E-23 ort(H,U,f) =-0.318E-03 0.329E-03-0.218E-23
CGA:   4    -0.202704013067E+04   -0.89731E-02   -0.89736E-02  1304   0.776E-02 0.116E-04
 gam= 0.216 trial= 0.575  step= 0.551 mean= 0.575
 gam= 0.225 g(H,U,f)=  0.157E-02 0.178E-03 0.190E-27 ort(H,U,f) =-0.285E-03 0.284E-03-0.148E-25
CGA:   5    -0.202704226931E+04   -0.21386E-02   -0.21386E-02  1304   0.175E-02-0.105E-05
 gam= 0.225 trial= 0.574  step= 0.674 mean= 0.574
 gam= 0.372 g(H,U,f)=  0.588E-03 0.613E-04 0.317E-25 ort(H,U,f) =-0.123E-03 0.129E-03 0.463E-25
CGA:   6    -0.202704285851E+04   -0.58920E-03   -0.58889E-03  1304   0.650E-03 0.604E-05
 gam= 0.372 trial= 0.579  step= 0.641 mean= 0.579
 gam= 0.493 g(H,U,f)=  0.301E-03 0.192E-04 0.237E-25 ort(H,U,f) =-0.569E-04 0.493E-04 0.462E-25
CGA:   7    -0.202704306734E+04   -0.20883E-03   -0.20907E-03  1304   0.320E-03-0.764E-05
 gam= 0.493 trial= 0.582  step= 0.499 mean= 0.582
 gam= 0.293 g(H,U,f)=  0.906E-04 0.320E-05 0.330E-26 ort(H,U,f) =-0.581E-05 0.140E-04 0.191E-25
CGA:   8    -0.202704314596E+04   -0.78616E-04   -0.78958E-04  1304   0.938E-04 0.823E-05
 gam= 0.293 trial= 0.578  step= 0.644 mean= 0.578
 gam= 0.245 g(H,U,f)=  0.225E-04 0.437E-06 0.452E-26 ort(H,U,f) =-0.425E-05 0.154E-05 0.111E-25
CGA:   9    -0.202704317687E+04   -0.30913E-04   -0.31003E-04  1304   0.230E-04-0.270E-05
 gam= 0.245 trial= 0.581  step= 0.634 mean= 0.581
 gam= 0.280 g(H,U,f)=  0.621E-05 0.216E-06 0.136E-26 ort(H,U,f) = 0.965E-06-0.886E-07-0.406E-26
CGA:  10    -0.202704318397E+04   -0.70996E-05   -0.70763E-05  1304   0.643E-05 0.877E-06
 gam= 0.280 trial= 0.584  step= 0.672 mean= 0.584
 gam= 0.575 g(H,U,f)=  0.357E-05 0.123E-06 0.637E-27 ort(H,U,f) =-0.677E-06-0.702E-07-0.146E-27
CGA:  11    -0.202704318618E+04   -0.22083E-05   -0.22414E-05  1304   0.369E-05-0.747E-06
 gam= 0.575 trial= 0.588  step= 0.438 mean= 0.588
 gam= 0.302 g(H,U,f)=  0.108E-05 0.378E-07 0.220E-27 ort(H,U,f) = 0.391E-06 0.705E-08 0.328E-27
CGA:  12    -0.202704318686E+04   -0.68449E-06   -0.71429E-06  1304   0.112E-05 0.398E-06
 gam= 0.302 trial= 0.580  step= 0.674 mean= 0.580
 gam= 0.458 g(H,U,f)=  0.469E-06 0.416E-07 0.744E-27 ort(H,U,f) =-0.605E-07-0.379E-08-0.593E-27
CGA:  13    -0.202704318728E+04   -0.41352E-06   -0.41682E-06  1304   0.511E-06-0.643E-07
 gam= 0.458 trial= 0.585  step= 0.838 mean= 0.585
 gam= 0.000 g(H,U,f)=  0.635E-06 0.268E-07 0.118E-27 ort(H,U,f) =-0.285E-06-0.675E-08-0.185E-27
CGA:  14    -0.202704318744E+04   -0.16492E-06   -0.20179E-06  1304   0.661E-06-0.291E-06
 gam= 0.000 trial= 0.598  step= 0.224 mean= 0.598
 gam= 0.151 g(H,U,f)=  0.961E-07 0.380E-08 0.454E-29 ort(H,U,f) = 0.175E-06 0.772E-08 0.232E-28
CGA:  15    -0.202704318748E+04   -0.39756E-07   -0.74028E-07  1304   0.999E-07 0.183E-06
 gam= 0.151 trial= 0.579  step= 0.264 mean= 0.579
 final diagonalization
 138 F= -.20484951E+04 E0= -.20484951E+04  d E =-.153582E-02
 curvature: -10.81 expect dE=-0.622E-01 dE for cont linesearch -0.176E-06
 trial: gam= 1.20644 g(F)=  0.575E-02 g(S)=  0.616E-05 ort = 0.428E-04 (trialstep = 0.242E+00)
 search vector abs. value=  0.170E+00
 bond charge predicted
       N       E                     dE             d eps       ncg     rms          ort
 gam= 0.000 g(H,U,f)=  0.269E+00 0.278E-01 0.933E-26 ort(H,U,f) = 0.000E+00 0.000E+00 0.000E+00
SDA:   1    -0.202693583377E+04    0.10735E+00    0.00000E+00  1304   0.297E+00 0.000E+00
 gam= 0.000 trial= 0.563  step= 0.549 mean= 0.563
 gam= 0.257 g(H,U,f)=  0.715E-01 0.455E-02 0.185E-23 ort(H,U,f) = 0.537E-02-0.537E-02 0.182E-24
CGA:   2    -0.202701722236E+04   -0.81389E-01   -0.81388E-01  1304   0.761E-01 0.599E-05
 gam= 0.257 trial= 0.563  step= 0.612 mean= 0.563
 gam= 0.163 g(H,U,f)=  0.120E-01 0.422E-03 0.141E-22 ort(H,U,f) =-0.326E-03 0.317E-03-0.273E-23
CGA:   3    -0.202704051538E+04   -0.23293E-01   -0.23293E-01  1304   0.124E-01-0.899E-05
 gam= 0.163 trial= 0.565  step= 0.497 mean= 0.565
 gam= 0.215 g(H,U,f)=  0.244E-02 0.230E-03 0.800E-24 ort(H,U,f) =-0.937E-04 0.974E-04-0.122E-23
CGA:   4    -0.202704360487E+04   -0.30895E-02   -0.30896E-02  1304   0.267E-02 0.375E-05
 gam= 0.215 trial= 0.562  step= 0.553 mean= 0.562
 gam= 0.223 g(H,U,f)=  0.535E-03 0.601E-04 0.242E-26 ort(H,U,f) =-0.954E-04 0.951E-04 0.468E-25
CGA:   5    -0.202704434414E+04   -0.73927E-03   -0.73927E-03  1304   0.595E-03-0.263E-06
 gam= 0.223 trial= 0.561  step= 0.682 mean= 0.561
 gam= 0.363 g(H,U,f)=  0.196E-03 0.206E-04 0.148E-25 ort(H,U,f) =-0.402E-04 0.432E-04 0.365E-25
CGA:   6    -0.202704454740E+04   -0.20326E-03   -0.20307E-03  1304   0.216E-03 0.300E-05
 gam= 0.363 trial= 0.567  step= 0.667 mean= 0.567
 gam= 0.503 g(H,U,f)=  0.102E-03 0.622E-05 0.221E-25 ort(H,U,f) =-0.210E-04 0.160E-04 0.375E-25
CGA:   7    -0.202704461967E+04   -0.72271E-04   -0.72520E-04  1304   0.109E-03-0.498E-05
 gam= 0.503 trial= 0.572  step= 0.481 mean= 0.572
 gam= 0.283 g(H,U,f)=  0.298E-04 0.102E-05 0.225E-26 ort(H,U,f) = 0.370E-06 0.469E-05 0.143E-25
CGA:   8    -0.202704464498E+04   -0.25316E-04   -0.25547E-04  1304   0.308E-04 0.506E-05
 gam= 0.283 trial= 0.568  step= 0.663 mean= 0.568
 gam= 0.255 g(H,U,f)=  0.771E-05 0.139E-06 0.569E-27 ort(H,U,f) =-0.195E-05 0.443E-06 0.337E-26
CGA:   9    -0.202704465560E+04   -0.10619E-04   -0.10691E-04  1304   0.785E-05-0.151E-05
 gam= 0.255 trial= 0.573  step= 0.653 mean= 0.573
 gam= 0.238 g(H,U,f)=  0.179E-05 0.724E-07 0.283E-27 ort(H,U,f) = 0.400E-06-0.431E-07-0.102E-26
CGA:  10    -0.202704465805E+04   -0.24492E-05   -0.24350E-05  1304   0.187E-05 0.356E-06
 gam= 0.238 trial= 0.577  step= 0.793 mean= 0.577
 gam= 0.469 g(H,U,f)=  0.820E-06 0.555E-07 0.639E-27 ort(H,U,f) =-0.169E-06-0.353E-07-0.571E-28
CGA:  11    -0.202704465880E+04   -0.75185E-06   -0.77410E-06  1304   0.875E-06-0.205E-06
 gam= 0.469 trial= 0.587  step= 0.559 mean= 0.587
 gam= 0.311 g(H,U,f)=  0.263E-06 0.953E-08 0.597E-28 ort(H,U,f) = 0.122E-06-0.418E-09-0.190E-27
CGA:  12    -0.202704465902E+04   -0.21645E-06   -0.21803E-06  1304   0.272E-06 0.121E-06
 gam= 0.311 trial= 0.586  step= 1.211 mean= 0.586
 gam= 0.000 g(H,U,f)=  0.437E-06 0.150E-07 0.833E-28 ort(H,U,f) =-0.241E-06 0.624E-09 0.463E-30
CGA:  13    -0.202704465913E+04   -0.11245E-06   -0.18765E-06  1304   0.452E-06-0.241E-06
 gam= 0.000 trial= 0.617  step= 0.296 mean= 0.617
 gam= 0.170 g(H,U,f)=  0.752E-07 0.175E-08 0.622E-29 ort(H,U,f) = 0.139E-06 0.334E-08 0.227E-28
CGA:  14    -0.202704465918E+04   -0.43896E-07   -0.66828E-07  1304   0.770E-07 0.143E-06
 gam= 0.170 trial= 0.601  step= 0.388 mean= 0.601
 final diagonalization
 139 F= -.20484962E+04 E0= -.20484962E+04  d E =-.113923E-02
 trial-energy change:   -0.001139  1 .order   -0.001144   -0.001407   -0.000881
 step:   0.7314(harm=  0.6489)  dis= 0.00725  next Energy= -2048.497086 (dE=-0.199E-02)
 bond charge predicted
       N       E                     dE             d eps       ncg     rms          ort
 gam= 0.000 g(H,U,f)=  0.109E+01 0.113E+00 0.134E-25 ort(H,U,f) = 0.000E+00 0.000E+00 0.000E+00
SDA:   1    -0.202660335835E+04    0.44130E+00    0.00000E+00  1304   0.121E+01 0.000E+00
 gam= 0.000 trial= 0.591  step= 0.549 mean= 0.591
 gam= 0.257 g(H,U,f)=  0.291E+00 0.185E-01 0.303E-22 ort(H,U,f) = 0.217E-01-0.218E-01 0.193E-22
CGA:   2    -0.202693442762E+04   -0.33107E+00   -0.33106E+00  1304   0.309E+00-0.650E-04
 gam= 0.257 trial= 0.588  step= 0.612 mean= 0.588
 gam= 0.163 g(H,U,f)=  0.488E-01 0.173E-02 0.936E-22 ort(H,U,f) =-0.130E-02 0.129E-02-0.183E-22
CGA:   3    -0.202702915486E+04   -0.94727E-01   -0.94727E-01  1304   0.505E-01-0.939E-05
 gam= 0.163 trial= 0.590  step= 0.498 mean= 0.590
 gam= 0.215 g(H,U,f)=  0.991E-02 0.939E-03 0.718E-24 ort(H,U,f) =-0.388E-03 0.398E-03-0.111E-23
CGA:   4    -0.202704172316E+04   -0.12568E-01   -0.12569E-01  1304   0.109E-01 0.986E-05
 gam= 0.215 trial= 0.585  step= 0.554 mean= 0.585
 gam= 0.222 g(H,U,f)=  0.217E-02 0.245E-03 0.322E-26 ort(H,U,f) =-0.387E-03 0.387E-03 0.815E-25
CGA:   5    -0.202704472977E+04   -0.30066E-02   -0.30066E-02  1304   0.241E-02 0.664E-06
 gam= 0.222 trial= 0.584  step= 0.688 mean= 0.584
 gam= 0.362 g(H,U,f)=  0.790E-03 0.839E-04 0.431E-25 ort(H,U,f) =-0.170E-03 0.175E-03 0.103E-24
CGA:   6    -0.202704555943E+04   -0.82965E-03   -0.82936E-03  1304   0.874E-03 0.556E-05
 gam= 0.362 trial= 0.589  step= 0.666 mean= 0.589
 gam= 0.485 g(H,U,f)=  0.399E-03 0.246E-04 0.703E-25 ort(H,U,f) =-0.738E-04 0.651E-04 0.122E-24
CGA:   7    -0.202704585089E+04   -0.29146E-03   -0.29180E-03  1304   0.423E-03-0.869E-05
 gam= 0.485 trial= 0.593  step= 0.499 mean= 0.593
 gam= 0.307 g(H,U,f)=  0.126E-03 0.427E-05 0.772E-26 ort(H,U,f) =-0.782E-05 0.179E-04 0.513E-25
CGA:   8    -0.202704595492E+04   -0.10404E-03   -0.10451E-03  1304   0.130E-03 0.101E-04
 gam= 0.307 trial= 0.588  step= 0.629 mean= 0.588
 gam= 0.241 g(H,U,f)=  0.307E-04 0.551E-06 0.360E-26 ort(H,U,f) =-0.545E-05 0.187E-05 0.179E-25
CGA:   9    -0.202704599666E+04   -0.41738E-04   -0.41811E-04  1304   0.312E-04-0.357E-05
 gam= 0.241 trial= 0.590  step= 0.643 mean= 0.590
 gam= 0.266 g(H,U,f)=  0.802E-05 0.285E-06 0.138E-26 ort(H,U,f) = 0.133E-05-0.131E-06-0.508E-26
CGA:  10    -0.202704600646E+04   -0.97986E-05   -0.97671E-05  1304   0.831E-05 0.120E-05
 gam= 0.266 trial= 0.593  step= 0.726 mean= 0.593
 gam= 0.583 g(H,U,f)=  0.465E-05 0.191E-06 0.213E-26 ort(H,U,f) =-0.979E-06-0.118E-06-0.139E-28
CGA:  11    -0.202704600952E+04   -0.30592E-05   -0.31325E-05  1304   0.484E-05-0.110E-05
 gam= 0.583 trial= 0.599  step= 0.432 mean= 0.599
 gam= 0.302 g(H,U,f)=  0.141E-05 0.494E-07 0.634E-28 ort(H,U,f) = 0.617E-06 0.179E-07 0.373E-27
CGA:  12    -0.202704601037E+04   -0.85523E-06   -0.90847E-06  1304   0.146E-05 0.635E-06
 gam= 0.302 trial= 0.591  step= 0.662 mean= 0.591
 gam= 0.479 g(H,U,f)=  0.639E-06 0.614E-07 0.120E-26 ort(H,U,f) =-0.774E-07-0.452E-08-0.778E-27
CGA:  13    -0.202704601092E+04   -0.54498E-06   -0.54782E-06  1304   0.700E-06-0.819E-07
 gam= 0.479 trial= 0.594  step= 0.887 mean= 0.594
 gam= 0.000 g(H,U,f)=  0.994E-06 0.444E-07 0.648E-27 ort(H,U,f) =-0.470E-06-0.148E-07-0.597E-27
CGA:  14    -0.202704601114E+04   -0.22247E-06   -0.29337E-06  1304   0.104E-05-0.485E-06
 gam= 0.000 trial= 0.609  step= 0.230 mean= 0.609
 gam= 0.153 g(H,U,f)=  0.154E-06 0.501E-08 0.243E-28 ort(H,U,f) = 0.291E-06 0.121E-07 0.126E-27
CGA:  15    -0.202704601120E+04   -0.62049E-07   -0.11940E-06  1304   0.159E-06 0.303E-06
 gam= 0.153 trial= 0.590  step= 0.248 mean= 0.590
 final diagonalization
 140 F= -.20484969E+04 E0= -.20484969E+04  d E =-.183055E-02
 curvature:  -9.09 expect dE=-0.616E-01 dE for cont linesearch -0.300E-04
 trial: gam= 1.39420 g(F)=  0.674E-02 g(S)=  0.276E-04 ort =-0.748E-03 (trialstep = 0.173E+00)
 search vector abs. value=  0.334E+00
 bond charge predicted
       N       E                     dE             d eps       ncg     rms          ort
 gam= 0.000 g(H,U,f)=  0.270E+00 0.275E-01 0.146E-25 ort(H,U,f) = 0.000E+00 0.000E+00 0.000E+00
SDA:   1    -0.202693819032E+04    0.10782E+00    0.00000E+00  1304   0.297E+00 0.000E+00
 gam= 0.000 trial= 0.573  step= 0.549 mean= 0.573
 gam= 0.256 g(H,U,f)=  0.716E-01 0.441E-02 0.195E-24 ort(H,U,f) = 0.519E-02-0.518E-02 0.350E-24
CGA:   2    -0.202701982072E+04   -0.81630E-01   -0.81630E-01  1304   0.760E-01 0.107E-04
 gam= 0.256 trial= 0.572  step= 0.611 mean= 0.572
 gam= 0.161 g(H,U,f)=  0.118E-01 0.391E-03 0.124E-22 ort(H,U,f) =-0.315E-03 0.308E-03-0.119E-23
CGA:   3    -0.202704305296E+04   -0.23232E-01   -0.23232E-01  1304   0.122E-01-0.791E-05
 gam= 0.161 trial= 0.574  step= 0.500 mean= 0.574
 gam= 0.215 g(H,U,f)=  0.240E-02 0.227E-03 0.138E-23 ort(H,U,f) =-0.943E-04 0.101E-03-0.175E-23
CGA:   4    -0.202704610554E+04   -0.30526E-02   -0.30528E-02  1304   0.263E-02 0.668E-05
 gam= 0.215 trial= 0.570  step= 0.550 mean= 0.570
 gam= 0.226 g(H,U,f)=  0.536E-03 0.593E-04 0.605E-25 ort(H,U,f) =-0.950E-04 0.935E-04 0.351E-24
CGA:   5    -0.202704682923E+04   -0.72368E-03   -0.72367E-03  1304   0.595E-03-0.149E-05
 gam= 0.226 trial= 0.569  step= 0.670 mean= 0.569
 gam= 0.372 g(H,U,f)=  0.200E-03 0.212E-04 0.108E-24 ort(H,U,f) =-0.400E-04 0.438E-04 0.236E-24
CGA:   6    -0.202704702853E+04   -0.19930E-03   -0.19910E-03  1304   0.222E-03 0.385E-05
 gam= 0.372 trial= 0.574  step= 0.643 mean= 0.574
 gam= 0.510 g(H,U,f)=  0.106E-03 0.675E-05 0.133E-24 ort(H,U,f) =-0.221E-04 0.170E-04 0.258E-24
CGA:   7    -0.202704710007E+04   -0.71548E-04   -0.71726E-04  1304   0.113E-03-0.515E-05
 gam= 0.510 trial= 0.578  step= 0.488 mean= 0.578
 gam= 0.273 g(H,U,f)=  0.298E-04 0.104E-05 0.297E-25 ort(H,U,f) = 0.253E-06 0.492E-05 0.145E-24
CGA:   8    -0.202704712678E+04   -0.26704E-04   -0.26936E-04  1304   0.309E-04 0.518E-05
 gam= 0.273 trial= 0.573  step= 0.675 mean= 0.573
 gam= 0.252 g(H,U,f)=  0.762E-05 0.154E-06 0.919E-26 ort(H,U,f) =-0.179E-05 0.469E-06 0.431E-25
CGA:   9    -0.202704713762E+04   -0.10843E-04   -0.10910E-04  1304   0.778E-05-0.132E-05
 gam= 0.252 trial= 0.578  step= 0.660 mean= 0.578
 gam= 0.243 g(H,U,f)=  0.182E-05 0.759E-07 0.530E-28 ort(H,U,f) = 0.389E-06-0.530E-07-0.159E-26
CGA:  10    -0.202704714009E+04   -0.24708E-05   -0.24570E-05  1304   0.189E-05 0.336E-06
 gam= 0.243 trial= 0.582  step= 0.776 mean= 0.582
 gam= 0.435 g(H,U,f)=  0.766E-06 0.565E-07 0.340E-26 ort(H,U,f) =-0.126E-06-0.321E-07 0.272E-26
CGA:  11    -0.202704714084E+04   -0.75029E-06   -0.76577E-06  1304   0.822E-06-0.158E-06
 gam= 0.435 trial= 0.592  step= 0.624 mean= 0.592
 gam= 0.303 g(H,U,f)=  0.238E-06 0.113E-07 0.624E-27 ort(H,U,f) = 0.894E-07-0.517E-08-0.201E-26
CGA:  12    -0.202704714108E+04   -0.23642E-06   -0.23509E-06  1304   0.249E-06 0.842E-07
 gam= 0.303 trial= 0.594  step= 1.306 mean= 0.594
 gam= 0.000 g(H,U,f)=  0.384E-06 0.101E-07 0.283E-28 ort(H,U,f) =-0.211E-06 0.136E-08-0.247E-29
CGA:  13    -0.202704714118E+04   -0.10461E-06   -0.17949E-06  1304   0.394E-06-0.209E-06
 gam= 0.000 trial= 0.629  step= 0.301 mean= 0.629
 gam= 0.183 g(H,U,f)=  0.705E-07 0.137E-08 0.363E-28 ort(H,U,f) = 0.128E-06 0.233E-08-0.322E-28
CGA:  14    -0.202704714122E+04   -0.37893E-07   -0.59249E-07  1304   0.719E-07 0.131E-06
 gam= 0.183 trial= 0.613  step= 0.399 mean= 0.613
 final diagonalization
 141 F= -.20484978E+04 E0= -.20484978E+04  d E =-.845838E-03
 trial-energy change:   -0.000846  1 .order   -0.000856   -0.000989   -0.000724
 step:   0.6442(harm=  0.6442)  dis= 0.00906  next Energy= -2048.498774 (dE=-0.185E-02)
 bond charge predicted
       N       E                     dE             d eps       ncg     rms          ort
 gam= 0.000 g(H,U,f)=  0.201E+01 0.205E+00 0.895E-24 ort(H,U,f) = 0.000E+00 0.000E+00 0.000E+00
SDA:   1    -0.202623524673E+04    0.81189E+00    0.00000E+00  1304   0.222E+01 0.000E+00
 gam= 0.000 trial= 0.602  step= 0.549 mean= 0.602
 gam= 0.256 g(H,U,f)=  0.535E+00 0.328E-01 0.253E-22 ort(H,U,f) = 0.383E-01-0.385E-01-0.230E-21
CGA:   2    -0.202684489653E+04   -0.60965E+00   -0.60963E+00  1304   0.568E+00-0.188E-03
 gam= 0.256 trial= 0.599  step= 0.611 mean= 0.599
 gam= 0.161 g(H,U,f)=  0.882E-01 0.294E-02 0.466E-21 ort(H,U,f) =-0.229E-02 0.231E-02-0.441E-22
CGA:   3    -0.202701833601E+04   -0.17344E+00   -0.17344E+00  1304   0.911E-01 0.161E-04
 gam= 0.161 trial= 0.600  step= 0.500 mean= 0.600
 gam= 0.215 g(H,U,f)=  0.179E-01 0.170E-02 0.280E-23 ort(H,U,f) =-0.737E-03 0.760E-03-0.364E-23
CGA:   4    -0.202704113188E+04   -0.22796E-01   -0.22797E-01  1304   0.196E-01 0.230E-04
 gam= 0.215 trial= 0.595  step= 0.551 mean= 0.595
 gam= 0.225 g(H,U,f)=  0.396E-02 0.443E-03 0.574E-24 ort(H,U,f) =-0.700E-03 0.698E-03 0.369E-23
CGA:   5    -0.202704652975E+04   -0.53979E-02   -0.53978E-02  1304   0.441E-02-0.141E-05
 gam= 0.225 trial= 0.593  step= 0.679 mean= 0.593
 gam= 0.371 g(H,U,f)=  0.148E-02 0.158E-03 0.275E-23 ort(H,U,f) =-0.316E-03 0.326E-03 0.577E-23
CGA:   6    -0.202704802567E+04   -0.14959E-02   -0.14955E-02  1304   0.163E-02 0.965E-05
 gam= 0.371 trial= 0.597  step= 0.644 mean= 0.597
 gam= 0.490 g(H,U,f)=  0.752E-03 0.482E-04 0.536E-23 ort(H,U,f) =-0.137E-03 0.126E-03 0.106E-22
CGA:   7    -0.202704855292E+04   -0.52725E-03   -0.52752E-03  1304   0.800E-03-0.116E-04
 gam= 0.490 trial= 0.600  step= 0.507 mean= 0.600
 gam= 0.301 g(H,U,f)=  0.233E-03 0.799E-05 0.192E-23 ort(H,U,f) =-0.196E-04 0.338E-04 0.942E-23
CGA:   8    -0.202704875372E+04   -0.20080E-03   -0.20145E-03  1304   0.241E-03 0.142E-04
 gam= 0.301 trial= 0.595  step= 0.634 mean= 0.595
 gam= 0.235 g(H,U,f)=  0.557E-04 0.109E-05 0.120E-23 ort(H,U,f) =-0.817E-05 0.359E-05 0.496E-23
CGA:   9    -0.202704883150E+04   -0.77785E-04   -0.77876E-04  1304   0.568E-04-0.457E-05
 gam= 0.235 trial= 0.597  step= 0.650 mean= 0.597
 gam= 0.281 g(H,U,f)=  0.154E-04 0.534E-06 0.740E-26 ort(H,U,f) = 0.206E-05-0.304E-06-0.209E-24
CGA:  10    -0.202704884966E+04   -0.18157E-04   -0.18110E-04  1304   0.159E-04 0.175E-05
 gam= 0.281 trial= 0.600  step= 0.686 mean= 0.600
 gam= 0.551 g(H,U,f)=  0.845E-05 0.328E-06 0.337E-24 ort(H,U,f) =-0.144E-05-0.173E-06 0.364E-24
CGA:  11    -0.202704885523E+04   -0.55643E-05   -0.56337E-05  1304   0.878E-05-0.162E-05
 gam= 0.551 trial= 0.604  step= 0.455 mean= 0.604
 gam= 0.297 g(H,U,f)=  0.251E-05 0.923E-07 0.106E-25 ort(H,U,f) = 0.918E-06 0.309E-07 0.995E-25
CGA:  12    -0.202704885695E+04   -0.17258E-05   -0.17962E-05  1304   0.261E-05 0.949E-06
 gam= 0.297 trial= 0.596  step= 0.721 mean= 0.596
 gam= 0.465 g(H,U,f)=  0.111E-05 0.107E-06 0.155E-24 ort(H,U,f) =-0.218E-06-0.606E-08-0.159E-24
CGA:  13    -0.202704885798E+04   -0.10276E-05   -0.10415E-05  1304   0.121E-05-0.224E-06
 gam= 0.465 trial= 0.603  step= 0.759 mean= 0.603
 gam= 0.716 g(H,U,f)=  0.819E-06 0.484E-07 0.435E-25 ort(H,U,f) =-0.362E-06-0.107E-07-0.423E-25
CGA:  14    -0.202704885837E+04   -0.39100E-06   -0.42046E-06  1304   0.867E-06-0.373E-06
 gam= 0.716 trial= 0.610  step= 0.300 mean= 0.610
 gam= 0.395 g(H,U,f)=  0.320E-06 0.226E-07 0.158E-25 ort(H,U,f) = 0.171E-06 0.200E-07 0.811E-26
CGA:  15    -0.202704885843E+04   -0.60427E-07   -0.90128E-07  1304   0.342E-06 0.191E-06
 gam= 0.395 trial= 0.595  step= 0.260 mean= 0.595
 final diagonalization
 142 F= -.20484987E+04 E0= -.20484987E+04  d E =-.180703E-02
 curvature: -18.80 expect dE=-0.141E+00 dE for cont linesearch -0.135E-06
 trial: gam= 0.75810 g(F)=  0.740E-02 g(S)=  0.991E-04 ort =-0.491E-04 (trialstep = 0.267E+00)
 search vector abs. value=  0.200E+00
 bond charge predicted
       N       E                     dE             d eps       ncg     rms          ort
 gam= 0.000 g(H,U,f)=  0.392E+00 0.401E-01 0.162E-21 ort(H,U,f) = 0.000E+00 0.000E+00 0.000E+00
SDA:   1    -0.202689260029E+04    0.15626E+00    0.00000E+00  1304   0.432E+00 0.000E+00
 gam= 0.000 trial= 0.578  step= 0.547 mean= 0.578
 gam= 0.255 g(H,U,f)=  0.104E+00 0.643E-02 0.941E-20 ort(H,U,f) = 0.742E-02-0.740E-02-0.691E-20
CGA:   2    -0.202701078013E+04   -0.11818E+00   -0.11818E+00  1304   0.110E+00 0.146E-04
 gam= 0.255 trial= 0.577  step= 0.610 mean= 0.577
 gam= 0.164 g(H,U,f)=  0.174E-01 0.593E-03 0.623E-21 ort(H,U,f) =-0.422E-03 0.415E-03 0.299E-21
CGA:   3    -0.202704432883E+04   -0.33549E-01   -0.33549E-01  1304   0.180E-01-0.745E-05
 gam= 0.164 trial= 0.578  step= 0.497 mean= 0.578
 gam= 0.215 g(H,U,f)=  0.355E-02 0.321E-03 0.883E-23 ort(H,U,f) =-0.128E-03 0.142E-03-0.203E-22
CGA:   4    -0.202704880778E+04   -0.44790E-02   -0.44795E-02  1304   0.387E-02 0.144E-04
 gam= 0.215 trial= 0.574  step= 0.547 mean= 0.574
 gam= 0.227 g(H,U,f)=  0.791E-03 0.876E-04 0.240E-24 ort(H,U,f) =-0.140E-03 0.137E-03-0.960E-24
CGA:   5    -0.202704986600E+04   -0.10582E-02   -0.10582E-02  1304   0.879E-03-0.333E-05
 gam= 0.227 trial= 0.573  step= 0.651 mean= 0.573
 gam= 0.389 g(H,U,f)=  0.311E-03 0.314E-04 0.173E-24 ort(H,U,f) =-0.582E-04 0.646E-04-0.168E-25
CGA:   6    -0.202705015201E+04   -0.28601E-03   -0.28576E-03  1304   0.342E-03 0.634E-05
 gam= 0.389 trial= 0.577  step= 0.605 mean= 0.577
 gam= 0.498 g(H,U,f)=  0.159E-03 0.113E-04 0.170E-24 ort(H,U,f) =-0.335E-04 0.270E-04 0.167E-24
CGA:   7    -0.202705025610E+04   -0.10409E-03   -0.10418E-03  1304   0.170E-03-0.653E-05
 gam= 0.498 trial= 0.578  step= 0.515 mean= 0.578
 gam= 0.265 g(H,U,f)=  0.435E-04 0.163E-05 0.304E-26 ort(H,U,f) =-0.130E-05 0.769E-05 0.363E-25
CGA:   8    -0.202705029888E+04   -0.42773E-04   -0.42977E-04  1304   0.451E-04 0.639E-05
 gam= 0.265 trial= 0.575  step= 0.688 mean= 0.575
 gam= 0.256 g(H,U,f)=  0.113E-04 0.240E-06 0.572E-25 ort(H,U,f) =-0.240E-05 0.716E-06 0.565E-25
CGA:   9    -0.202705031488E+04   -0.16003E-04   -0.16098E-04  1304   0.115E-04-0.168E-05
 gam= 0.256 trial= 0.581  step= 0.633 mean= 0.581
 gam= 0.252 g(H,U,f)=  0.280E-05 0.113E-06 0.847E-26 ort(H,U,f) = 0.676E-06-0.599E-07-0.283E-25
CGA:  10    -0.202705031841E+04   -0.35334E-05   -0.35172E-05  1304   0.291E-05 0.616E-06
 gam= 0.252 trial= 0.583  step= 0.800 mean= 0.583
 gam= 0.611 g(H,U,f)=  0.169E-05 0.822E-07 0.104E-25 ort(H,U,f) =-0.511E-06-0.540E-07-0.143E-26
CGA:  11    -0.202705031958E+04   -0.11654E-05   -0.12267E-05  1304   0.178E-05-0.565E-06
 gam= 0.611 trial= 0.594  step= 0.408 mean= 0.594
 gam= 0.338 g(H,U,f)=  0.580E-06 0.211E-07 0.630E-27 ort(H,U,f) = 0.304E-06 0.806E-08 0.236E-26
CGA:  12    -0.202705031984E+04   -0.26341E-06   -0.29239E-06  1304   0.601E-06 0.312E-06
 gam= 0.338 trial= 0.585  step= 0.534 mean= 0.585
 gam= 0.437 g(H,U,f)=  0.241E-06 0.217E-07 0.485E-26 ort(H,U,f) = 0.308E-07-0.319E-08-0.398E-26
CGA:  13    -0.202705032003E+04   -0.18816E-06   -0.18875E-06  1304   0.263E-06 0.276E-07
 gam= 0.437 trial= 0.582  step= 1.686 mean= 0.582
 gam= 0.000 g(H,U,f)=  0.213E-05 0.756E-07 0.800E-26 ort(H,U,f) =-0.626E-06-0.189E-07-0.385E-26
CGA:  14    -0.202705031990E+04    0.12472E-06   -0.23152E-06  1304   0.220E-05-0.645E-06
 gam= 0.000 trial= 0.638  step= 0.253 mean= 0.638
 gam= 0.115 g(H,U,f)=  0.250E-06 0.315E-08 0.229E-27 ort(H,U,f) = 0.444E-06 0.117E-07 0.136E-26
CGA:  15    -0.202705032010E+04   -0.19064E-06   -0.27843E-06  1304   0.253E-06 0.456E-06
 gam= 0.115 trial= 0.618  step= 0.351 mean= 0.618
 gam= 0.356 g(H,U,f)=  0.878E-07 0.225E-08 0.224E-27 ort(H,U,f) = 0.874E-07-0.225E-08-0.383E-27
CGA:  16    -0.202705032014E+04   -0.42404E-07   -0.53649E-07  1304   0.901E-07 0.852E-07
 gam= 0.356 trial= 0.605  step= 1.405 mean= 0.605
 final diagonalization
 143 F= -.20485002E+04 E0= -.20485002E+04  d E =-.149131E-02
 trial-energy change:   -0.001491  1 .order   -0.001512   -0.001991   -0.001033
 step:   0.7117(harm=  0.5549)  dis= 0.00783  next Energy= -2048.500990 (dE=-0.225E-02)
 bond charge predicted
       N       E                     dE             d eps       ncg     rms          ort
 gam= 0.000 g(H,U,f)=  0.109E+01 0.111E+00 0.375E-22 ort(H,U,f) = 0.000E+00 0.000E+00 0.000E+00
SDA:   1    -0.202661271134E+04    0.43761E+00    0.00000E+00  1304   0.120E+01 0.000E+00
 gam= 0.000 trial= 0.645  step= 0.547 mean= 0.645
 gam= 0.255 g(H,U,f)=  0.287E+00 0.178E-01 0.186E-19 ort(H,U,f) = 0.205E-01-0.205E-01-0.157E-19
CGA:   2    -0.202694081056E+04   -0.32810E+00   -0.32808E+00  1304   0.305E+00-0.223E-04
 gam= 0.255 trial= 0.640  step= 0.610 mean= 0.640
 gam= 0.164 g(H,U,f)=  0.483E-01 0.165E-02 0.985E-22 ort(H,U,f) =-0.116E-02 0.116E-02 0.465E-22
CGA:   3    -0.202703393630E+04   -0.93126E-01   -0.93126E-01  1304   0.500E-01 0.571E-06
 gam= 0.164 trial= 0.639  step= 0.497 mean= 0.639
 gam= 0.215 g(H,U,f)=  0.987E-02 0.892E-03 0.186E-24 ort(H,U,f) =-0.373E-03 0.397E-03-0.441E-24
CGA:   4    -0.202704636521E+04   -0.12429E-01   -0.12431E-01  1304   0.108E-01 0.241E-04
 gam= 0.215 trial= 0.631  step= 0.545 mean= 0.631
 gam= 0.228 g(H,U,f)=  0.221E-02 0.244E-03 0.840E-26 ort(H,U,f) =-0.388E-03 0.383E-03-0.297E-25
CGA:   5    -0.202704930196E+04   -0.29367E-02   -0.29365E-02  1304   0.245E-02-0.515E-05
 gam= 0.228 trial= 0.627  step= 0.648 mean= 0.627
 gam= 0.397 g(H,U,f)=  0.884E-03 0.880E-04 0.340E-26 ort(H,U,f) =-0.170E-03 0.181E-03-0.883E-27
CGA:   6    -0.202705009600E+04   -0.79404E-03   -0.79393E-03  1304   0.972E-03 0.104E-04
 gam= 0.397 trial= 0.628  step= 0.590 mean= 0.628
 gam= 0.483 g(H,U,f)=  0.437E-03 0.324E-04 0.438E-26 ort(H,U,f) =-0.876E-04 0.776E-04 0.345E-26
CGA:   7    -0.202705038400E+04   -0.28800E-03   -0.28781E-03  1304   0.469E-03-0.995E-05
 gam= 0.483 trial= 0.626  step= 0.534 mean= 0.626
 gam= 0.272 g(H,U,f)=  0.123E-03 0.463E-05 0.233E-28 ort(H,U,f) =-0.110E-04 0.210E-04 0.492E-27
CGA:   8    -0.202705050757E+04   -0.12357E-03   -0.12404E-03  1304   0.128E-03 0.100E-04
 gam= 0.272 trial= 0.622  step= 0.675 mean= 0.622
 gam= 0.248 g(H,U,f)=  0.311E-04 0.659E-06 0.164E-26 ort(H,U,f) =-0.495E-05 0.207E-05 0.138E-26
CGA:   9    -0.202705055149E+04   -0.43919E-04   -0.43994E-04  1304   0.317E-04-0.287E-05
 gam= 0.248 trial= 0.624  step= 0.622 mean= 0.624
 gam= 0.290 g(H,U,f)=  0.890E-05 0.306E-06 0.229E-27 ort(H,U,f) = 0.144E-05-0.124E-06-0.774E-27
CGA:  10    -0.202705056114E+04   -0.96523E-05   -0.96537E-05  1304   0.921E-05 0.132E-05
 gam= 0.290 trial= 0.624  step= 0.667 mean= 0.624
 gam= 0.588 g(H,U,f)=  0.525E-05 0.164E-06 0.944E-28 ort(H,U,f) =-0.115E-05-0.954E-07-0.263E-29
CGA:  11    -0.202705056431E+04   -0.31705E-05   -0.31972E-05  1304   0.542E-05-0.124E-05
 gam= 0.588 trial= 0.626  step= 0.431 mean= 0.626
 gam= 0.289 g(H,U,f)=  0.151E-05 0.566E-07 0.288E-28 ort(H,U,f) = 0.616E-06 0.327E-08 0.516E-28
CGA:  12    -0.202705056526E+04   -0.94944E-06   -0.10099E-05  1304   0.157E-05 0.619E-06
 gam= 0.289 trial= 0.617  step= 0.627 mean= 0.617
 gam= 0.452 g(H,U,f)=  0.659E-06 0.483E-07 0.109E-27 ort(H,U,f) = 0.369E-07 0.131E-08-0.855E-28
CGA:  13    -0.202705056581E+04   -0.54743E-06   -0.54716E-06  1304   0.707E-06 0.382E-07
 gam= 0.452 trial= 0.617  step= 0.923 mean= 0.617
 gam= 0.000 g(H,U,f)=  0.147E-05 0.408E-07 0.167E-28 ort(H,U,f) =-0.623E-06-0.573E-08-0.267E-28
CGA:  14    -0.202705056605E+04   -0.23823E-06   -0.33426E-06  1304   0.151E-05-0.629E-06
 gam= 0.000 trial= 0.632  step= 0.218 mean= 0.632
 gam= 0.118 g(H,U,f)=  0.173E-06 0.499E-08 0.319E-31 ort(H,U,f) = 0.358E-06 0.106E-07 0.730E-30
CGA:  15    -0.202705056614E+04   -0.88607E-07   -0.16497E-06  1304   0.178E-06 0.369E-06
 gam= 0.118 trial= 0.612  step= 0.235 mean= 0.612
 final diagonalization
 144 F= -.20485005E+04 E0= -.20485005E+04  d E =-.179530E-02
 curvature:  -5.22 expect dE=-0.457E-01 dE for cont linesearch -0.140E-03
 ZBRENT: interpolating
 opt :   0.5452  next Energy= -2048.500724 (dE=-0.199E-02)
 bond charge predicted
       N       E                     dE             d eps       ncg     rms          ort
 gam= 0.000 g(H,U,f)=  0.152E+00 0.156E-01 0.615E-25 ort(H,U,f) = 0.000E+00 0.000E+00 0.000E+00
SDA:   1    -0.202698942247E+04    0.61144E-01    0.00000E+00  1304   0.168E+00 0.000E+00
 gam= 0.000 trial= 0.593  step= 0.547 mean= 0.593
 gam= 0.255 g(H,U,f)=  0.403E-01 0.252E-02 0.815E-26 ort(H,U,f) = 0.289E-02-0.291E-02-0.599E-26
CGA:   2    -0.202703540324E+04   -0.45981E-01   -0.45981E-01  1304   0.428E-01-0.194E-04
 gam= 0.255 trial= 0.591  step= 0.610 mean= 0.591
 gam= 0.164 g(H,U,f)=  0.679E-02 0.231E-03 0.339E-24 ort(H,U,f) =-0.156E-03 0.163E-03 0.168E-24
CGA:   3    -0.202704845451E+04   -0.13051E-01   -0.13051E-01  1304   0.702E-02 0.693E-05
 gam= 0.164 trial= 0.592  step= 0.498 mean= 0.592
 gam= 0.217 g(H,U,f)=  0.140E-02 0.126E-03 0.462E-24 ort(H,U,f) =-0.636E-04 0.556E-04-0.105E-23
CGA:   4    -0.202705020213E+04   -0.17476E-02   -0.17472E-02  1304   0.152E-02-0.802E-05
 gam= 0.217 trial= 0.587  step= 0.541 mean= 0.587
 gam= 0.227 g(H,U,f)=  0.312E-03 0.344E-04 0.358E-26 ort(H,U,f) =-0.513E-04 0.546E-04-0.176E-25
CGA:   5    -0.202705061376E+04   -0.41162E-03   -0.41170E-03  1304   0.346E-03 0.327E-05
 gam= 0.227 trial= 0.585  step= 0.653 mean= 0.585
 gam= 0.417 g(H,U,f)=  0.132E-03 0.123E-04 0.390E-26 ort(H,U,f) =-0.296E-04 0.252E-04 0.445E-27
CGA:   6    -0.202705072692E+04   -0.11316E-03   -0.11331E-03  1304   0.145E-03-0.434E-05
 gam= 0.417 trial= 0.588  step= 0.548 mean= 0.588
 gam= 0.426 g(H,U,f)=  0.569E-04 0.466E-05 0.580E-26 ort(H,U,f) =-0.722E-05 0.116E-04 0.499E-26
CGA:   7    -0.202705076596E+04   -0.39040E-04   -0.39127E-04  1304   0.615E-04 0.440E-05
 gam= 0.426 trial= 0.586  step= 0.616 mean= 0.586
 gam= 0.337 g(H,U,f)=  0.200E-04 0.710E-06 0.347E-30 ort(H,U,f) =-0.636E-05 0.245E-05-0.500E-28
CGA:   8    -0.202705078542E+04   -0.19463E-04   -0.19522E-04  1304   0.208E-04-0.390E-05
 gam= 0.337 trial= 0.588  step= 0.568 mean= 0.588
 gam= 0.213 g(H,U,f)=  0.433E-05 0.792E-07 0.123E-26 ort(H,U,f) = 0.109E-05 0.330E-06 0.115E-26
CGA:   9    -0.202705079093E+04   -0.55109E-05   -0.55244E-05  1304   0.441E-05 0.142E-05
 gam= 0.213 trial= 0.587  step= 0.711 mean= 0.587
 gam= 0.475 g(H,U,f)=  0.203E-05 0.618E-07 0.158E-27 ort(H,U,f) =-0.655E-06-0.262E-07-0.521E-27
CGA:  10    -0.202705079256E+04   -0.16341E-05   -0.16765E-05  1304   0.210E-05-0.681E-06
 gam= 0.475 trial= 0.593  step= 0.377 mean= 0.593
 gam= 0.310 g(H,U,f)=  0.633E-06 0.174E-07 0.329E-28 ort(H,U,f) = 0.417E-06 0.387E-09-0.413E-28
CGA:  11    -0.202705079285E+04   -0.28934E-06   -0.33423E-06  1304   0.650E-06 0.417E-06
 gam= 0.310 trial= 0.582  step= 0.521 mean= 0.582
 gam= 0.420 g(H,U,f)=  0.260E-06 0.129E-07 0.534E-28 ort(H,U,f) = 0.688E-07-0.189E-08-0.259E-28
CGA:  12    -0.202705079305E+04   -0.20124E-06   -0.20311E-06  1304   0.273E-06 0.669E-07
 gam= 0.420 trial= 0.579  step= 1.845 mean= 0.579
 gam= 0.000 g(H,U,f)=  0.344E-05 0.882E-07 0.492E-27 ort(H,U,f) =-0.803E-06-0.190E-07-0.130E-27
CGA:  13    -0.202705079281E+04    0.24256E-06   -0.27771E-06  1304   0.353E-05-0.822E-06
 gam= 0.000 trial= 0.642  step= 0.235 mean= 0.642
 gam= 0.096 g(H,U,f)=  0.335E-06 0.429E-08 0.479E-28 ort(H,U,f) = 0.625E-06 0.130E-07 0.155E-27
CGA:  14    -0.202705079310E+04   -0.28421E-06   -0.41411E-06  1304   0.339E-06 0.638E-06
 gam= 0.096 trial= 0.622  step= 0.334 mean= 0.622
 gam= 0.380 g(H,U,f)=  0.126E-06 0.249E-08 0.431E-32 ort(H,U,f) = 0.119E-06-0.535E-09 0.560E-30
CGA:  15    -0.202705079315E+04   -0.49629E-07   -0.66836E-07  1304   0.129E-06 0.118E-06
 gam= 0.380 trial= 0.607  step= 1.053 mean= 0.607
 final diagonalization
 145 F= -.20485007E+04 E0= -.20485007E+04  d E =-.199943E-02
 curvature:  -7.17 expect dE=-0.323E-01 dE for cont linesearch -0.106E-08
 trial: gam= 0.66291 g(F)=  0.446E-02 g(S)=  0.459E-04 ort = 0.543E-05 (trialstep = 0.323E+00)
 search vector abs. value=  0.922E-01
 bond charge predicted
       N       E                     dE             d eps       ncg     rms          ort
 gam= 0.000 g(H,U,f)=  0.273E+00 0.275E-01 0.733E-23 ort(H,U,f) = 0.000E+00 0.000E+00 0.000E+00
SDA:   1    -0.202694135135E+04    0.10944E+00    0.00000E+00  1304   0.301E+00 0.000E+00
 gam= 0.000 trial= 0.630  step= 0.549 mean= 0.630
 gam= 0.254 g(H,U,f)=  0.719E-01 0.443E-02 0.159E-20 ort(H,U,f) = 0.513E-02-0.510E-02-0.160E-20
CGA:   2    -0.202702384365E+04   -0.82492E-01   -0.82492E-01  1304   0.763E-01 0.291E-04
 gam= 0.254 trial= 0.626  step= 0.609 mean= 0.626
 gam= 0.163 g(H,U,f)=  0.120E-01 0.384E-03 0.888E-24 ort(H,U,f) =-0.316E-03 0.302E-03 0.237E-23
CGA:   3    -0.202704708873E+04   -0.23245E-01   -0.23245E-01  1304   0.124E-01-0.139E-04
 gam= 0.163 trial= 0.625  step= 0.492 mean= 0.625
 gam= 0.221 g(H,U,f)=  0.255E-02 0.201E-03 0.129E-25 ort(H,U,f) =-0.969E-04 0.119E-03-0.715E-25
CGA:   4    -0.202705014272E+04   -0.30540E-02   -0.30555E-02  1304   0.275E-02 0.223E-04
 gam= 0.221 trial= 0.618  step= 0.518 mean= 0.618
 gam= 0.255 g(H,U,f)=  0.638E-03 0.637E-04 0.146E-29 ort(H,U,f) =-0.114E-03 0.104E-03-0.171E-28
CGA:   5    -0.202705085603E+04   -0.71332E-03   -0.71279E-03  1304   0.702E-03-0.105E-04
 gam= 0.255 trial= 0.613  step= 0.546 mean= 0.613
 gam= 0.409 g(H,U,f)=  0.261E-03 0.261E-04 0.439E-27 ort(H,U,f) =-0.432E-04 0.517E-04-0.852E-28
CGA:   6    -0.202705104686E+04   -0.19082E-03   -0.19111E-03  1304   0.287E-03 0.849E-05
 gam= 0.409 trial= 0.610  step= 0.570 mean= 0.610
 gam= 0.407 g(H,U,f)=  0.107E-03 0.103E-04 0.113E-26 ort(H,U,f) =-0.286E-04 0.233E-04 0.628E-27
CGA:   7    -0.202705112972E+04   -0.82860E-04   -0.82753E-04  1304   0.117E-03-0.529E-05
 gam= 0.407 trial= 0.608  step= 0.616 mean= 0.608
 gam= 0.269 g(H,U,f)=  0.301E-04 0.134E-05 0.692E-28 ort(H,U,f) =-0.142E-05 0.583E-05 0.349E-27
CGA:   8    -0.202705116508E+04   -0.35360E-04   -0.35342E-04  1304   0.314E-04 0.441E-05
 gam= 0.269 trial= 0.608  step= 0.686 mean= 0.608
 gam= 0.339 g(H,U,f)=  0.104E-04 0.235E-06 0.889E-27 ort(H,U,f) =-0.206E-05 0.722E-06 0.590E-27
CGA:   9    -0.202705117621E+04   -0.11133E-04   -0.11185E-04  1304   0.107E-04-0.134E-05
 gam= 0.339 trial= 0.612  step= 0.449 mean= 0.612
 gam= 0.308 g(H,U,f)=  0.322E-05 0.622E-07 0.817E-29 ort(H,U,f) = 0.844E-06 0.667E-07 0.106E-27
CGA:  10    -0.202705117843E+04   -0.22180E-05   -0.22920E-05  1304   0.328E-05 0.911E-06
 gam= 0.308 trial= 0.604  step= 0.623 mean= 0.604
 gam= 0.381 g(H,U,f)=  0.121E-05 0.455E-07 0.523E-29 ort(H,U,f) =-0.301E-06-0.211E-07-0.327E-28
CGA:  11    -0.202705117954E+04   -0.11079E-05   -0.11108E-05  1304   0.125E-05-0.322E-06
 gam= 0.381 trial= 0.605  step= 0.593 mean= 0.605
 gam= 0.341 g(H,U,f)=  0.415E-06 0.113E-07 0.410E-28 ort(H,U,f) = 0.102E-06-0.456E-08 0.202E-28
CGA:  12    -0.202705117987E+04   -0.33385E-06   -0.33449E-06  1304   0.426E-06 0.973E-07
 gam= 0.341 trial= 0.604  step= 0.794 mean= 0.604
 gam= 0.546 g(H,U,f)=  0.224E-06 0.855E-08 0.272E-28 ort(H,U,f) =-0.961E-07-0.247E-09-0.391E-28
CGA:  13    -0.202705118004E+04   -0.17328E-06   -0.18253E-06  1304   0.233E-06-0.964E-07
 gam= 0.546 trial= 0.614  step= 0.437 mean= 0.614
 gam= 0.376 g(H,U,f)=  0.847E-07 0.285E-08 0.627E-29 ort(H,U,f) = 0.301E-07 0.424E-08 0.279E-29
CGA:  14    -0.202705118008E+04   -0.36314E-07   -0.39414E-07  1304   0.875E-07 0.343E-07
 gam= 0.376 trial= 0.605  step= 0.647 mean= 0.605
 final diagonalization
 146 F= -.20485017E+04 E0= -.20485017E+04  d E =-.994025E-03
 trial-energy change:   -0.000994  1 .order   -0.001011   -0.001454   -0.000567
 step:   0.5819(harm=  0.5288)  dis= 0.00447  next Energy= -2048.501948 (dE=-0.121E-02)
 bond charge predicted
       N       E                     dE             d eps       ncg     rms          ort
 gam= 0.000 g(H,U,f)=  0.177E+00 0.178E-01 0.110E-23 ort(H,U,f) = 0.000E+00 0.000E+00 0.000E+00
SDA:   1    -0.202697985904E+04    0.71321E-01    0.00000E+00  1304   0.194E+00 0.000E+00
 gam= 0.000 trial= 0.607  step= 0.549 mean= 0.607
 gam= 0.254 g(H,U,f)=  0.465E-01 0.286E-02 0.935E-22 ort(H,U,f) = 0.333E-02-0.330E-02-0.942E-22
CGA:   2    -0.202703318220E+04   -0.53323E-01   -0.53323E-01  1304   0.493E-01 0.268E-04
 gam= 0.254 trial= 0.604  step= 0.609 mean= 0.604
 gam= 0.162 g(H,U,f)=  0.776E-02 0.248E-03 0.117E-24 ort(H,U,f) =-0.206E-03 0.194E-03 0.318E-24
CGA:   3    -0.202704821240E+04   -0.15030E-01   -0.15030E-01  1304   0.801E-02-0.118E-04
 gam= 0.162 trial= 0.604  step= 0.493 mean= 0.604
 gam= 0.220 g(H,U,f)=  0.163E-02 0.130E-03 0.225E-26 ort(H,U,f) =-0.585E-04 0.765E-04-0.125E-25
CGA:   4    -0.202705018633E+04   -0.19739E-02   -0.19749E-02  1304   0.176E-02 0.180E-04
 gam= 0.220 trial= 0.599  step= 0.521 mean= 0.599
 gam= 0.254 g(H,U,f)=  0.407E-03 0.408E-04 0.124E-30 ort(H,U,f) =-0.745E-04 0.661E-04 0.769E-30
CGA:   5    -0.202705064700E+04   -0.46067E-03   -0.46034E-03  1304   0.448E-03-0.844E-05
 gam= 0.254 trial= 0.595  step= 0.550 mean= 0.595
 gam= 0.408 g(H,U,f)=  0.166E-03 0.166E-04 0.977E-28 ort(H,U,f) =-0.262E-04 0.331E-04-0.213E-28
CGA:   6    -0.202705076944E+04   -0.12244E-03   -0.12260E-03  1304   0.183E-03 0.689E-05
 gam= 0.408 trial= 0.593  step= 0.572 mean= 0.593
 gam= 0.418 g(H,U,f)=  0.698E-04 0.661E-05 0.204E-27 ort(H,U,f) =-0.193E-04 0.148E-04 0.125E-27
CGA:   7    -0.202705082255E+04   -0.53108E-04   -0.53062E-04  1304   0.764E-04-0.444E-05
 gam= 0.418 trial= 0.592  step= 0.601 mean= 0.592
 gam= 0.262 g(H,U,f)=  0.192E-04 0.854E-06 0.151E-28 ort(H,U,f) =-0.204E-06 0.385E-05 0.706E-28
CGA:   8    -0.202705084496E+04   -0.22416E-04   -0.22399E-04  1304   0.200E-04 0.365E-05
 gam= 0.262 trial= 0.592  step= 0.700 mean= 0.592
 gam= 0.339 g(H,U,f)=  0.664E-05 0.150E-06 0.165E-27 ort(H,U,f) =-0.150E-05 0.455E-06 0.112E-27
CGA:   9    -0.202705085225E+04   -0.72922E-05   -0.73486E-05  1304   0.679E-05-0.105E-05
 gam= 0.339 trial= 0.597  step= 0.452 mean= 0.597
 gam= 0.304 g(H,U,f)=  0.202E-05 0.385E-07 0.124E-29 ort(H,U,f) = 0.670E-06 0.410E-07 0.178E-28
CGA:  10    -0.202705085366E+04   -0.14016E-05   -0.14533E-05  1304   0.206E-05 0.711E-06
 gam= 0.304 trial= 0.590  step= 0.633 mean= 0.590
 gam= 0.408 g(H,U,f)=  0.812E-06 0.304E-07 0.708E-30 ort(H,U,f) =-0.240E-06-0.131E-07-0.502E-29
CGA:  11    -0.202705085437E+04   -0.71537E-06   -0.72088E-06  1304   0.842E-06-0.253E-06
 gam= 0.408 trial= 0.592  step= 0.569 mean= 0.592
 gam= 0.342 g(H,U,f)=  0.281E-06 0.727E-08 0.611E-29 ort(H,U,f) = 0.821E-07-0.266E-08 0.394E-29
CGA:  12    -0.202705085458E+04   -0.20930E-06   -0.21028E-06  1304   0.288E-06 0.794E-07
 gam= 0.342 trial= 0.591  step= 0.786 mean= 0.591
 gam= 0.494 g(H,U,f)=  0.137E-06 0.579E-08 0.343E-29 ort(H,U,f) =-0.653E-07-0.517E-09-0.559E-29
CGA:  13    -0.202705085470E+04   -0.11741E-06   -0.12406E-06  1304   0.143E-06-0.659E-07
 gam= 0.494 trial= 0.601  step= 0.549 mean= 0.601
 gam= 0.381 g(H,U,f)=  0.525E-07 0.175E-08 0.605E-30 ort(H,U,f) = 0.113E-07 0.223E-08 0.276E-30
CGA:  14    -0.202705085473E+04   -0.29744E-07   -0.30196E-07  1304   0.543E-07 0.135E-07
 gam= 0.381 trial= 0.598  step= 0.744 mean= 0.598
 final diagonalization
 147 F= -.20485019E+04 E0= -.20485019E+04  d E =-.115827E-02
 curvature:  -5.05 expect dE=-0.196E-01 dE for cont linesearch -0.102E-04
 trial: gam= 0.95356 g(F)=  0.387E-02 g(S)=  0.795E-05 ort =-0.431E-03 (trialstep = 0.374E+00)
 search vector abs. value=  0.869E-01
 bond charge predicted
       N       E                     dE             d eps       ncg     rms          ort
 gam= 0.000 g(H,U,f)=  0.344E+00 0.350E-01 0.382E-25 ort(H,U,f) = 0.000E+00 0.000E+00 0.000E+00
SDA:   1    -0.202691272237E+04    0.13813E+00    0.00000E+00  1304   0.379E+00 0.000E+00
 gam= 0.000 trial= 0.606  step= 0.546 mean= 0.606
 gam= 0.252 g(H,U,f)=  0.900E-01 0.551E-02 0.145E-23 ort(H,U,f) = 0.626E-02-0.624E-02-0.141E-23
CGA:   2    -0.202701608796E+04   -0.10337E+00   -0.10336E+00  1304   0.955E-01 0.151E-04
 gam= 0.252 trial= 0.603  step= 0.613 mean= 0.603
 gam= 0.163 g(H,U,f)=  0.151E-01 0.485E-03 0.213E-24 ort(H,U,f) =-0.382E-03 0.362E-03 0.712E-25
CGA:   3    -0.202704535576E+04   -0.29268E-01   -0.29268E-01  1304   0.155E-01-0.194E-04
 gam= 0.163 trial= 0.603  step= 0.494 mean= 0.603
 gam= 0.221 g(H,U,f)=  0.318E-02 0.261E-03 0.337E-26 ort(H,U,f) =-0.107E-03 0.125E-03-0.781E-26
CGA:   4    -0.202704919065E+04   -0.38349E-02   -0.38359E-02  1304   0.344E-02 0.183E-04
 gam= 0.221 trial= 0.598  step= 0.523 mean= 0.598
 gam= 0.246 g(H,U,f)=  0.767E-03 0.785E-04 0.544E-28 ort(H,U,f) =-0.136E-03 0.126E-03-0.261E-27
CGA:   5    -0.202705009140E+04   -0.90075E-03   -0.90035E-03  1304   0.845E-03-0.105E-04
 gam= 0.246 trial= 0.594  step= 0.568 mean= 0.594
 gam= 0.410 g(H,U,f)=  0.316E-03 0.311E-04 0.133E-28 ort(H,U,f) =-0.528E-04 0.619E-04-0.467E-29
CGA:   6    -0.202705033050E+04   -0.23911E-03   -0.23922E-03  1304   0.347E-03 0.910E-05
 gam= 0.410 trial= 0.593  step= 0.565 mean= 0.593
 gam= 0.424 g(H,U,f)=  0.134E-03 0.125E-04 0.998E-28 ort(H,U,f) =-0.349E-04 0.278E-04-0.285E-28
CGA:   7    -0.202705042959E+04   -0.99088E-04   -0.98989E-04  1304   0.147E-03-0.707E-05
 gam= 0.424 trial= 0.591  step= 0.599 mean= 0.591
 gam= 0.260 g(H,U,f)=  0.366E-04 0.163E-05 0.876E-30 ort(H,U,f) =-0.198E-05 0.736E-05-0.861E-29
CGA:   8    -0.202705047277E+04   -0.43178E-04   -0.43156E-04  1304   0.383E-04 0.538E-05
 gam= 0.260 trial= 0.592  step= 0.707 mean= 0.592
 gam= 0.304 g(H,U,f)=  0.114E-04 0.257E-06 0.879E-29 ort(H,U,f) =-0.238E-05 0.791E-06 0.435E-29
CGA:   9    -0.202705048671E+04   -0.13936E-04   -0.14027E-04  1304   0.116E-04-0.158E-05
 gam= 0.304 trial= 0.597  step= 0.490 mean= 0.597
 gam= 0.317 g(H,U,f)=  0.361E-05 0.791E-07 0.249E-30 ort(H,U,f) = 0.108E-05 0.445E-07-0.171E-29
CGA:  10    -0.202705048938E+04   -0.26734E-05   -0.27333E-05  1304   0.369E-05 0.112E-05
 gam= 0.317 trial= 0.592  step= 0.647 mean= 0.592
 gam= 0.492 g(H,U,f)=  0.176E-05 0.557E-07 0.221E-30 ort(H,U,f) =-0.633E-06-0.237E-07-0.274E-30
CGA:  11    -0.202705049067E+04   -0.12895E-05   -0.13075E-05  1304   0.181E-05-0.657E-06
 gam= 0.492 trial= 0.595  step= 0.457 mean= 0.595
 gam= 0.326 g(H,U,f)=  0.577E-06 0.149E-07 0.799E-31 ort(H,U,f) = 0.274E-06-0.131E-09-0.513E-31
CGA:  12    -0.202705049099E+04   -0.32161E-06   -0.34056E-06  1304   0.592E-06 0.274E-06
 gam= 0.326 trial= 0.588  step= 0.629 mean= 0.588
 gam= 0.375 g(H,U,f)=  0.211E-06 0.110E-07 0.742E-31 ort(H,U,f) =-0.858E-08-0.282E-09-0.608E-31
CGA:  13    -0.202705049120E+04   -0.21395E-06   -0.21427E-06  1304   0.222E-06-0.886E-08
 gam= 0.375 trial= 0.590  step= 3.140 mean= 0.590
 gam= 0.375 trial= 3.835  step= 3.835 mean= 0.931
 gam= 0.000 g(H,U,f)=  0.103E-04 0.338E-06 0.549E-30 ort(H,U,f) =-0.123E-05-0.311E-07 0.130E-30
CGA:  14    -0.202705048956E+04    0.16443E-05    0.25338E+03  1304   0.107E-04-0.126E-05
 gam= 0.000 trial= 1.076  step= 0.280 mean= 1.076
 gam= 0.102 g(H,U,f)=  0.107E-05 0.179E-07 0.715E-31 ort(H,U,f) = 0.638E-06 0.177E-07-0.199E-30
CGA:  15    -0.202705049079E+04   -0.12328E-05   -0.14935E-05  1304   0.109E-05 0.656E-06
 gam= 0.102 trial= 1.036  step= 0.654 mean= 1.036
 gam= 0.320 g(H,U,f)=  0.307E-06 0.401E-07 0.206E-30 ort(H,U,f) =-0.565E-07-0.121E-07 0.880E-31
CGA:  16    -0.202705049118E+04   -0.38997E-06   -0.37698E-06  1304   0.347E-06-0.685E-07
 gam= 0.320 trial= 1.017  step= 0.703 mean= 1.017
 gam= 0.506 g(H,U,f)=  0.168E-06 0.778E-08 0.171E-30 ort(H,U,f) =-0.412E-07-0.592E-08-0.215E-30
CGA:  17    -0.202705049130E+04   -0.12193E-06   -0.11440E-06  1304   0.176E-06-0.471E-07
 gam= 0.506 trial= 1.001  step= 0.340 mean= 1.001
 gam= 0.383 g(H,U,f)=  0.638E-07 0.357E-08 0.991E-32 ort(H,U,f) = 0.604E-07 0.124E-08 0.150E-31
CGA:  18    -0.202705049131E+04   -0.52823E-08   -0.25804E-07  1304   0.673E-07 0.617E-07
 gam= 0.383 trial= 0.968  step= 0.381 mean= 0.968
 final diagonalization
 148 F= -.20485028E+04 E0= -.20485028E+04  d E =-.859791E-03
 trial-energy change:   -0.000860  1 .order   -0.000869   -0.001299   -0.000440
 step:   0.5885(harm=  0.5658)  dis= 0.00451  next Energy= -2048.502877 (dE=-0.984E-03)
 bond charge predicted
       N       E                     dE             d eps       ncg     rms          ort
 gam= 0.000 g(H,U,f)=  0.112E+00 0.115E-01 0.112E-26 ort(H,U,f) = 0.000E+00 0.000E+00 0.000E+00
SDA:   1    -0.202700484473E+04    0.45647E-01    0.00000E+00  1304   0.124E+00 0.000E+00
 gam= 0.000 trial= 0.939  step= 0.546 mean= 0.939
 gam= 0.252 g(H,U,f)=  0.294E-01 0.180E-02 0.986E-26 ort(H,U,f) = 0.206E-02-0.204E-02-0.989E-26
CGA:   2    -0.202703864478E+04   -0.33800E-01   -0.33800E-01  1304   0.312E-01 0.162E-04
 gam= 0.252 trial= 0.919  step= 0.613 mean= 0.919
 gam= 0.163 g(H,U,f)=  0.492E-02 0.158E-03 0.604E-26 ort(H,U,f) =-0.127E-03 0.119E-03 0.201E-26
CGA:   3    -0.202704821828E+04   -0.95735E-02   -0.95723E-02  1304   0.508E-02-0.804E-05
 gam= 0.163 trial= 0.904  step= 0.494 mean= 0.904
 gam= 0.221 g(H,U,f)=  0.104E-02 0.855E-04 0.281E-27 ort(H,U,f) =-0.345E-04 0.413E-04-0.654E-27
CGA:   4    -0.202704947136E+04   -0.12531E-02   -0.12545E-02  1304   0.112E-02 0.675E-05
 gam= 0.221 trial= 0.883  step= 0.523 mean= 0.883
 gam= 0.246 g(H,U,f)=  0.250E-03 0.257E-04 0.395E-29 ort(H,U,f) =-0.452E-04 0.411E-04-0.185E-28
CGA:   5    -0.202704976669E+04   -0.29532E-03   -0.29458E-03  1304   0.276E-03-0.414E-05
 gam= 0.246 trial= 0.865  step= 0.567 mean= 0.865
 gam= 0.408 g(H,U,f)=  0.102E-03 0.102E-04 0.906E-30 ort(H,U,f) =-0.167E-04 0.203E-04-0.275E-30
CGA:   6    -0.202704984415E+04   -0.77461E-04   -0.77988E-04  1304   0.113E-03 0.354E-05
 gam= 0.408 trial= 0.851  step= 0.568 mean= 0.851
 gam= 0.430 g(H,U,f)=  0.444E-04 0.411E-05 0.781E-29 ort(H,U,f) =-0.119E-04 0.906E-05-0.221E-29
CGA:   7    -0.202704987697E+04   -0.32827E-04   -0.32423E-04  1304   0.485E-04-0.287E-05
 gam= 0.430 trial= 0.836  step= 0.590 mean= 0.836
 gam= 0.255 g(H,U,f)=  0.118E-04 0.533E-06 0.498E-31 ort(H,U,f) =-0.314E-06 0.246E-05-0.563E-30
CGA:   8    -0.202704989064E+04   -0.13661E-04   -0.13926E-04  1304   0.124E-04 0.215E-05
 gam= 0.255 trial= 0.824  step= 0.716 mean= 0.824
 gam= 0.308 g(H,U,f)=  0.372E-05 0.849E-07 0.592E-30 ort(H,U,f) =-0.881E-06 0.259E-06 0.325E-30
CGA:   9    -0.202704989529E+04   -0.46596E-05   -0.46263E-05  1304   0.380E-05-0.621E-06
 gam= 0.308 trial= 0.819  step= 0.485 mean= 0.819
 gam= 0.304 g(H,U,f)=  0.113E-05 0.248E-07 0.139E-31 ort(H,U,f) = 0.427E-06 0.166E-07-0.106E-30
CGA:  10    -0.202704989610E+04   -0.80247E-06   -0.87650E-06  1304   0.116E-05 0.444E-06
 gam= 0.304 trial= 0.802  step= 0.681 mean= 0.802
 gam= 0.547 g(H,U,f)=  0.614E-06 0.189E-07 0.146E-31 ort(H,U,f) =-0.257E-06-0.792E-08-0.188E-31
CGA:  11    -0.202704989655E+04   -0.45515E-06   -0.43906E-06  1304   0.633E-06-0.265E-06
 gam= 0.547 trial= 0.796  step= 0.417 mean= 0.796
 gam= 0.356 g(H,U,f)=  0.220E-06 0.528E-08 0.260E-32 ort(H,U,f) = 0.110E-06 0.413E-09-0.181E-32
CGA:  12    -0.202704989663E+04   -0.80850E-07   -0.10169E-06  1304   0.225E-06 0.110E-06
 gam= 0.356 trial= 0.777  step= 0.493 mean= 0.777
 final diagonalization
 149 F= -.20485029E+04 E0= -.20485029E+04  d E =-.966659E-03
 curvature:  -6.99 expect dE=-0.263E-01 dE for cont linesearch -0.747E-06
 trial: gam= 0.79998 g(F)=  0.354E-02 g(S)=  0.222E-03 ort =-0.964E-04 (trialstep = 0.417E+00)
 search vector abs. value=  0.592E-01
 bond charge predicted
       N       E                     dE             d eps       ncg     rms          ort
 gam= 0.000 g(H,U,f)=  0.295E+00 0.299E-01 0.114E-26 ort(H,U,f) = 0.000E+00 0.000E+00 0.000E+00
SDA:   1    -0.202693432509E+04    0.11557E+00    0.00000E+00  1304   0.325E+00 0.000E+00
 gam= 0.000 trial= 0.763  step= 0.547 mean= 0.763
 gam= 0.250 g(H,U,f)=  0.766E-01 0.464E-02 0.107E-28 ort(H,U,f) = 0.510E-02-0.510E-02 0.983E-27
CGA:   2    -0.202702307924E+04   -0.88754E-01   -0.88751E-01  1304   0.812E-01 0.571E-05
 gam= 0.250 trial= 0.752  step= 0.617 mean= 0.752
 gam= 0.156 g(H,U,f)=  0.123E-01 0.375E-03 0.190E-25 ort(H,U,f) =-0.303E-03 0.301E-03-0.466E-26
CGA:   3    -0.202704811997E+04   -0.25041E-01   -0.25041E-01  1304   0.127E-01-0.209E-05
 gam= 0.156 trial= 0.745  step= 0.510 mean= 0.745
 gam= 0.213 g(H,U,f)=  0.249E-02 0.217E-03 0.373E-26 ort(H,U,f) =-0.116E-03 0.114E-03-0.392E-26
CGA:   4    -0.202705135133E+04   -0.32314E-02   -0.32311E-02  1304   0.270E-02-0.207E-05
 gam= 0.213 trial= 0.733  step= 0.543 mean= 0.733
 gam= 0.222 g(H,U,f)=  0.536E-03 0.637E-04 0.668E-28 ort(H,U,f) =-0.909E-04 0.951E-04 0.709E-27
CGA:   5    -0.202705208519E+04   -0.73387E-03   -0.73426E-03  1304   0.600E-03 0.423E-05
 gam= 0.222 trial= 0.724  step= 0.688 mean= 0.724
 gam= 0.354 g(H,U,f)=  0.191E-03 0.217E-04 0.407E-27 ort(H,U,f) =-0.459E-04 0.444E-04 0.702E-27
CGA:   6    -0.202705229201E+04   -0.20682E-03   -0.20679E-03  1304   0.212E-03-0.155E-05
 gam= 0.354 trial= 0.722  step= 0.694 mean= 0.722
 gam= 0.455 g(H,U,f)=  0.914E-04 0.532E-05 0.210E-27 ort(H,U,f) =-0.150E-04 0.157E-04 0.578E-27
CGA:   7    -0.202705236548E+04   -0.73463E-04   -0.73473E-04  1304   0.967E-04 0.729E-06
 gam= 0.455 trial= 0.721  step= 0.524 mean= 0.721
 gam= 0.374 g(H,U,f)=  0.351E-04 0.114E-05 0.765E-28 ort(H,U,f) =-0.349E-05 0.400E-05 0.329E-27
CGA:   8    -0.202705239086E+04   -0.25379E-04   -0.25428E-04  1304   0.362E-04 0.506E-06
 gam= 0.374 trial= 0.711  step= 0.553 mean= 0.711
 gam= 0.232 g(H,U,f)=  0.826E-05 0.154E-06 0.130E-28 ort(H,U,f) =-0.679E-06 0.531E-06 0.910E-28
CGA:   9    -0.202705240093E+04   -0.10074E-04   -0.10063E-04  1304   0.842E-05-0.148E-06
 gam= 0.232 trial= 0.703  step= 0.657 mean= 0.703
 gam= 0.301 g(H,U,f)=  0.245E-05 0.791E-07 0.116E-30 ort(H,U,f) =-0.463E-08-0.601E-07-0.336E-29
CGA:  10    -0.202705240369E+04   -0.27560E-05   -0.27546E-05  1304   0.253E-05-0.648E-07
 gam= 0.301 trial= 0.701  step= 0.587 mean= 0.701
 gam= 0.431 g(H,U,f)=  0.105E-05 0.382E-07 0.295E-29 ort(H,U,f) = 0.541E-07-0.149E-07 0.463E-29
CGA:  11    -0.202705240442E+04   -0.73524E-06   -0.73747E-06  1304   0.109E-05 0.392E-07
 gam= 0.431 trial= 0.695  step= 0.592 mean= 0.695
 gam= 0.446 g(H,U,f)=  0.472E-06 0.156E-07 0.123E-31 ort(H,U,f) =-0.694E-07 0.302E-08 0.326E-30
CGA:  12    -0.202705240475E+04   -0.33202E-06   -0.32854E-06  1304   0.487E-06-0.664E-07
 gam= 0.446 trial= 0.690  step= 0.556 mean= 0.690
 gam= 0.326 g(H,U,f)=  0.151E-06 0.824E-08 0.814E-30 ort(H,U,f) = 0.108E-07 0.553E-08-0.130E-29
CGA:  13    -0.202705240488E+04   -0.12613E-06   -0.12733E-06  1304   0.159E-06 0.163E-07
 gam= 0.326 trial= 0.683  step= 0.796 mean= 0.683
 gam= 0.568 g(H,U,f)=  0.858E-07 0.460E-08 0.685E-30 ort(H,U,f) =-0.433E-07 0.222E-08-0.352E-30
CGA:  14    -0.202705240494E+04   -0.62995E-07   -0.65430E-07  1304   0.904E-07-0.411E-07
 gam= 0.568 trial= 0.689  step= 0.318 mean= 0.689
 final diagonalization
 150 F= -.20485039E+04 E0= -.20485039E+04  d E =-.102938E-02
 trial-energy change:   -0.001029  1 .order   -0.001041   -0.001537   -0.000545
 step:   0.6775(harm=  0.6467)  dis= 0.00441  next Energy= -2048.504056 (dE=-0.120E-02)
 bond charge predicted
       N       E                     dE             d eps       ncg     rms          ort
 gam= 0.000 g(H,U,f)=  0.115E+00 0.116E-01 0.138E-25 ort(H,U,f) = 0.000E+00 0.000E+00 0.000E+00
SDA:   1    -0.202700753236E+04    0.44873E-01    0.00000E+00  1304   0.126E+00 0.000E+00
 gam= 0.000 trial= 0.670  step= 0.547 mean= 0.670
 gam= 0.250 g(H,U,f)=  0.298E-01 0.181E-02 0.267E-27 ort(H,U,f) = 0.199E-02-0.199E-02 0.731E-26
CGA:   2    -0.202704206277E+04   -0.34530E-01   -0.34530E-01  1304   0.316E-01 0.334E-05
 gam= 0.250 trial= 0.664  step= 0.617 mean= 0.664
 gam= 0.156 g(H,U,f)=  0.478E-02 0.146E-03 0.987E-25 ort(H,U,f) =-0.119E-03 0.117E-03-0.239E-25
CGA:   3    -0.202705180760E+04   -0.97448E-02   -0.97448E-02  1304   0.493E-02-0.202E-05
 gam= 0.156 trial= 0.662  step= 0.510 mean= 0.662
 gam= 0.214 g(H,U,f)=  0.968E-03 0.844E-04 0.359E-25 ort(H,U,f) =-0.458E-04 0.444E-04-0.370E-25
CGA:   4    -0.202705306532E+04   -0.12577E-02   -0.12576E-02  1304   0.105E-02-0.148E-05
 gam= 0.214 trial= 0.654  step= 0.543 mean= 0.654
 gam= 0.222 g(H,U,f)=  0.208E-03 0.248E-04 0.492E-27 ort(H,U,f) =-0.344E-04 0.371E-04 0.476E-26
CGA:   5    -0.202705335061E+04   -0.28529E-03   -0.28544E-03  1304   0.233E-03 0.265E-05
 gam= 0.222 trial= 0.649  step= 0.689 mean= 0.649
 gam= 0.355 g(H,U,f)=  0.744E-04 0.844E-05 0.212E-26 ort(H,U,f) =-0.181E-04 0.173E-04 0.374E-26
CGA:   6    -0.202705343118E+04   -0.80571E-04   -0.80589E-04  1304   0.828E-04-0.882E-06
 gam= 0.355 trial= 0.651  step= 0.694 mean= 0.651
 gam= 0.453 g(H,U,f)=  0.355E-04 0.206E-05 0.961E-27 ort(H,U,f) =-0.592E-05 0.609E-05 0.264E-26
CGA:   7    -0.202705345982E+04   -0.28643E-04   -0.28639E-04  1304   0.375E-04 0.170E-06
 gam= 0.453 trial= 0.653  step= 0.520 mean= 0.653
 gam= 0.367 g(H,U,f)=  0.133E-04 0.444E-06 0.313E-27 ort(H,U,f) =-0.991E-06 0.158E-05 0.135E-26
CGA:   8    -0.202705346955E+04   -0.97295E-05   -0.97684E-05  1304   0.138E-04 0.586E-06
 gam= 0.367 trial= 0.646  step= 0.565 mean= 0.646
 gam= 0.243 g(H,U,f)=  0.329E-05 0.622E-07 0.478E-28 ort(H,U,f) =-0.443E-06 0.206E-06 0.336E-27
CGA:   9    -0.202705347352E+04   -0.39617E-05   -0.39519E-05  1304   0.335E-05-0.236E-06
 gam= 0.243 trial= 0.642  step= 0.635 mean= 0.642
 gam= 0.291 g(H,U,f)=  0.947E-06 0.288E-07 0.420E-30 ort(H,U,f) = 0.583E-07-0.215E-07-0.125E-28
CGA:  10    -0.202705347456E+04   -0.10456E-05   -0.10457E-05  1304   0.976E-06 0.368E-07
 gam= 0.291 trial= 0.642  step= 0.617 mean= 0.642
 gam= 0.487 g(H,U,f)=  0.459E-06 0.160E-07 0.112E-28 ort(H,U,f) =-0.325E-07-0.696E-08 0.169E-28
CGA:  11    -0.202705347487E+04   -0.30460E-06   -0.30422E-06  1304   0.475E-06-0.395E-07
 gam= 0.487 trial= 0.641  step= 0.514 mean= 0.641
 gam= 0.346 g(H,U,f)=  0.158E-06 0.581E-08 0.379E-30 ort(H,U,f) = 0.111E-07 0.190E-08 0.361E-29
CGA:  12    -0.202705347498E+04   -0.11626E-06   -0.11710E-06  1304   0.164E-06 0.130E-07
 gam= 0.346 trial= 0.634  step= 0.767 mean= 0.634
 gam= 0.505 g(H,U,f)=  0.780E-07 0.497E-08 0.726E-29 ort(H,U,f) =-0.294E-07 0.878E-09-0.722E-29
CGA:  13    -0.202705347505E+04   -0.62850E-07   -0.64655E-07  1304   0.830E-07-0.286E-07
 gam= 0.505 trial= 0.641  step= 0.490 mean= 0.641
 final diagonalization
 151 F= -.20485040E+04 E0= -.20485040E+04  d E =-.117887E-02
 curvature:  -5.11 expect dE=-0.209E-01 dE for cont linesearch -0.225E-05
 trial: gam= 1.15855 g(F)=  0.405E-02 g(S)=  0.382E-04 ort =-0.162E-03 (trialstep = 0.334E+00)
 search vector abs. value=  0.832E-01
 bond charge predicted
       N       E                     dE             d eps       ncg     rms          ort
 gam= 0.000 g(H,U,f)=  0.261E+00 0.267E-01 0.292E-24 ort(H,U,f) = 0.000E+00 0.000E+00 0.000E+00
SDA:   1    -0.202695161249E+04    0.10186E+00    0.00000E+00  1304   0.288E+00 0.000E+00
 gam= 0.000 trial= 0.633  step= 0.544 mean= 0.633
 gam= 0.250 g(H,U,f)=  0.679E-01 0.416E-02 0.184E-24 ort(H,U,f) = 0.456E-02-0.457E-02-0.157E-23
CGA:   2    -0.202702996094E+04   -0.78348E-01   -0.78347E-01  1304   0.720E-01-0.452E-05
 gam= 0.250 trial= 0.629  step= 0.617 mean= 0.629
 gam= 0.159 g(H,U,f)=  0.111E-01 0.343E-03 0.593E-23 ort(H,U,f) =-0.253E-03 0.258E-03-0.544E-24
CGA:   3    -0.202705219314E+04   -0.22232E-01   -0.22232E-01  1304   0.114E-01 0.455E-05
 gam= 0.159 trial= 0.628  step= 0.505 mean= 0.628
 gam= 0.215 g(H,U,f)=  0.227E-02 0.191E-03 0.289E-24 ort(H,U,f) =-0.952E-04 0.871E-04-0.468E-24
CGA:   4    -0.202705508393E+04   -0.28908E-02   -0.28903E-02  1304   0.246E-02-0.814E-05
 gam= 0.215 trial= 0.622  step= 0.539 mean= 0.622
 gam= 0.221 g(H,U,f)=  0.488E-03 0.558E-04 0.224E-26 ort(H,U,f) =-0.732E-04 0.830E-04-0.259E-25
CGA:   5    -0.202705574553E+04   -0.66160E-03   -0.66200E-03  1304   0.544E-03 0.974E-05
 gam= 0.221 trial= 0.618  step= 0.677 mean= 0.618
 gam= 0.381 g(H,U,f)=  0.189E-03 0.186E-04 0.469E-26 ort(H,U,f) =-0.443E-04 0.384E-04 0.540E-26
CGA:   6    -0.202705593013E+04   -0.18460E-03   -0.18477E-03  1304   0.207E-03-0.582E-05
 gam= 0.381 trial= 0.621  step= 0.612 mean= 0.621
 gam= 0.462 g(H,U,f)=  0.896E-04 0.622E-05 0.333E-26 ort(H,U,f) =-0.114E-04 0.161E-04 0.608E-26
CGA:   7    -0.202705599287E+04   -0.62743E-04   -0.62764E-04  1304   0.958E-04 0.469E-05
 gam= 0.462 trial= 0.620  step= 0.545 mean= 0.620
 gam= 0.347 g(H,U,f)=  0.321E-04 0.114E-05 0.104E-27 ort(H,U,f) =-0.655E-05 0.407E-05 0.117E-26
CGA:   8    -0.202705601965E+04   -0.26780E-04   -0.26686E-04  1304   0.333E-04-0.248E-05
 gam= 0.347 trial= 0.617  step= 0.577 mean= 0.617
 gam= 0.220 g(H,U,f)=  0.719E-05 0.136E-06 0.967E-28 ort(H,U,f) = 0.476E-06 0.567E-06 0.513E-27
CGA:   9    -0.202705602898E+04   -0.93285E-05   -0.93492E-05  1304   0.733E-05 0.104E-05
 gam= 0.220 trial= 0.615  step= 0.710 mean= 0.615
 gam= 0.415 g(H,U,f)=  0.295E-05 0.950E-07 0.138E-27 ort(H,U,f) =-0.727E-06-0.522E-07-0.255E-27
CGA:  10    -0.202705603163E+04   -0.26468E-05   -0.26836E-05  1304   0.305E-05-0.779E-06
 gam= 0.415 trial= 0.619  step= 0.432 mean= 0.619
 gam= 0.318 g(H,U,f)=  0.942E-06 0.271E-07 0.127E-28 ort(H,U,f) = 0.398E-06-0.789E-08 0.962E-29
CGA:  11    -0.202705603218E+04   -0.55050E-06   -0.58727E-06  1304   0.969E-06 0.390E-06
 gam= 0.318 trial= 0.610  step= 0.702 mean= 0.610
 gam= 0.423 g(H,U,f)=  0.388E-06 0.210E-07 0.222E-28 ort(H,U,f) =-0.108E-06-0.479E-08-0.206E-28
CGA:  12    -0.202705603256E+04   -0.37829E-06   -0.38354E-06  1304   0.409E-06-0.112E-06
 gam= 0.423 trial= 0.615  step= 0.875 mean= 0.615
 gam= 0.577 g(H,U,f)=  0.218E-06 0.187E-07 0.819E-28 ort(H,U,f) =-0.818E-07-0.441E-08-0.265E-28
CGA:  13    -0.202705603270E+04   -0.14737E-06   -0.15839E-06  1304   0.236E-06-0.863E-07
 gam= 0.577 trial= 0.628  step= 0.368 mean= 0.628
 gam= 0.335 g(H,U,f)=  0.754E-07 0.382E-08 0.355E-29 ort(H,U,f) = 0.454E-07 0.706E-08 0.138E-28
CGA:  14    -0.202705603273E+04   -0.27532E-07   -0.34353E-07  1304   0.792E-07 0.524E-07
 gam= 0.335 trial= 0.615  step= 0.403 mean= 0.615
 final diagonalization
 152 F= -.20485050E+04 E0= -.20485050E+04  d E =-.943895E-03
 trial-energy change:   -0.000944  1 .order   -0.000946   -0.001304   -0.000589
 step:   0.6190(harm=  0.6088)  dis= 0.00489  next Energy= -2048.505232 (dE=-0.119E-02)
 bond charge predicted
       N       E                     dE             d eps       ncg     rms          ort
 gam= 0.000 g(H,U,f)=  0.190E+00 0.194E-01 0.554E-24 ort(H,U,f) = 0.000E+00 0.000E+00 0.000E+00
SDA:   1    -0.202698166318E+04    0.74370E-01    0.00000E+00  1304   0.209E+00 0.000E+00
 gam= 0.000 trial= 0.604  step= 0.544 mean= 0.604
 gam= 0.250 g(H,U,f)=  0.494E-01 0.303E-02 0.186E-24 ort(H,U,f) = 0.333E-02-0.333E-02-0.163E-23
CGA:   2    -0.202703867249E+04   -0.57009E-01   -0.57009E-01  1304   0.524E-01-0.271E-05
 gam= 0.250 trial= 0.601  step= 0.617 mean= 0.601
 gam= 0.159 g(H,U,f)=  0.808E-02 0.250E-03 0.863E-23 ort(H,U,f) =-0.183E-03 0.187E-03-0.778E-24
CGA:   3    -0.202705485108E+04   -0.16179E-01   -0.16179E-01  1304   0.833E-02 0.389E-05
 gam= 0.159 trial= 0.602  step= 0.505 mean= 0.602
 gam= 0.215 g(H,U,f)=  0.165E-02 0.139E-03 0.581E-24 ort(H,U,f) =-0.706E-04 0.632E-04-0.938E-24
CGA:   4    -0.202705695500E+04   -0.21039E-02   -0.21036E-02  1304   0.179E-02-0.740E-05
 gam= 0.215 trial= 0.597  step= 0.538 mean= 0.597
 gam= 0.221 g(H,U,f)=  0.355E-03 0.406E-04 0.329E-26 ort(H,U,f) =-0.519E-04 0.605E-04-0.416E-25
CGA:   5    -0.202705743629E+04   -0.48129E-03   -0.48154E-03  1304   0.395E-03 0.860E-05
 gam= 0.221 trial= 0.594  step= 0.678 mean= 0.594
 gam= 0.385 g(H,U,f)=  0.139E-03 0.135E-04 0.788E-26 ort(H,U,f) =-0.331E-04 0.279E-04 0.969E-26
CGA:   6    -0.202705757080E+04   -0.13451E-03   -0.13472E-03  1304   0.152E-03-0.516E-05
 gam= 0.385 trial= 0.598  step= 0.605 mean= 0.598
 gam= 0.457 g(H,U,f)=  0.650E-04 0.457E-05 0.583E-26 ort(H,U,f) =-0.776E-05 0.118E-04 0.106E-25
CGA:   7    -0.202705761626E+04   -0.45459E-04   -0.45445E-04  1304   0.695E-04 0.408E-05
 gam= 0.457 trial= 0.599  step= 0.550 mean= 0.599
 gam= 0.351 g(H,U,f)=  0.236E-04 0.844E-06 0.176E-27 ort(H,U,f) =-0.510E-05 0.296E-05 0.197E-26
CGA:   8    -0.202705763595E+04   -0.19691E-04   -0.19639E-04  1304   0.244E-04-0.214E-05
 gam= 0.351 trial= 0.596  step= 0.572 mean= 0.596
 gam= 0.219 g(H,U,f)=  0.525E-05 0.993E-07 0.164E-27 ort(H,U,f) = 0.489E-06 0.422E-06 0.868E-27
CGA:   9    -0.202705764271E+04   -0.67595E-05   -0.67703E-05  1304   0.535E-05 0.911E-06
 gam= 0.219 trial= 0.595  step= 0.722 mean= 0.595
 gam= 0.439 g(H,U,f)=  0.228E-05 0.731E-07 0.234E-27 ort(H,U,f) =-0.662E-06-0.409E-07-0.430E-27
CGA:  10    -0.202705764467E+04   -0.19604E-05   -0.20051E-05  1304   0.235E-05-0.702E-06
 gam= 0.439 trial= 0.601  step= 0.413 mean= 0.601
 gam= 0.312 g(H,U,f)=  0.713E-06 0.203E-07 0.335E-28 ort(H,U,f) = 0.345E-06-0.552E-08 0.169E-28
CGA:  11    -0.202705764506E+04   -0.38938E-06   -0.42126E-06  1304   0.733E-06 0.340E-06
 gam= 0.312 trial= 0.592  step= 0.651 mean= 0.592
 gam= 0.397 g(H,U,f)=  0.274E-06 0.164E-07 0.322E-28 ort(H,U,f) =-0.353E-07-0.349E-08-0.377E-28
CGA:  12    -0.202705764533E+04   -0.27190E-06   -0.27302E-06  1304   0.291E-06-0.388E-07
 gam= 0.397 trial= 0.595  step= 1.260 mean= 0.595
 gam= 0.000 g(H,U,f)=  0.622E-06 0.420E-07 0.313E-27 ort(H,U,f) =-0.247E-06-0.116E-07-0.555E-28
CGA:  13    -0.202705764542E+04   -0.87268E-07   -0.17336E-06  1304   0.664E-06-0.259E-06
 gam= 0.000 trial= 0.628  step= 0.247 mean= 0.628
 final diagonalization
 153 F= -.20485052E+04 E0= -.20485052E+04  d E =-.118185E-02
 curvature:  -6.48 expect dE=-0.210E-01 dE for cont linesearch -0.412E-06
 trial: gam= 0.74859 g(F)=  0.307E-02 g(S)=  0.171E-03 ort =-0.728E-04 (trialstep = 0.391E+00)
 search vector abs. value=  0.498E-01
 bond charge predicted
       N       E                     dE             d eps       ncg     rms          ort
 gam= 0.000 g(H,U,f)=  0.216E+00 0.217E-01 0.141E-22 ort(H,U,f) = 0.000E+00 0.000E+00 0.000E+00
SDA:   1    -0.202697099783E+04    0.86647E-01    0.00000E+00  1304   0.238E+00 0.000E+00
 gam= 0.000 trial= 0.609  step= 0.549 mean= 0.609
 gam= 0.251 g(H,U,f)=  0.563E-01 0.345E-02 0.662E-21 ort(H,U,f) = 0.347E-02-0.345E-02-0.980E-21
CGA:   2    -0.202703642272E+04   -0.65425E-01   -0.65425E-01  1304   0.598E-01 0.224E-04
 gam= 0.251 trial= 0.606  step= 0.614 mean= 0.606
 gam= 0.158 g(H,U,f)=  0.915E-02 0.264E-03 0.573E-23 ort(H,U,f) =-0.245E-03 0.235E-03 0.749E-23
CGA:   3    -0.202705476406E+04   -0.18341E-01   -0.18341E-01  1304   0.942E-02-0.109E-04
 gam= 0.158 trial= 0.607  step= 0.505 mean= 0.607
 gam= 0.218 g(H,U,f)=  0.190E-02 0.152E-03 0.374E-24 ort(H,U,f) =-0.806E-04 0.946E-04-0.945E-24
CGA:   4    -0.202705713945E+04   -0.23754E-02   -0.23761E-02  1304   0.205E-02 0.140E-04
 gam= 0.218 trial= 0.601  step= 0.526 mean= 0.601
 gam= 0.245 g(H,U,f)=  0.454E-03 0.494E-04 0.317E-27 ort(H,U,f) =-0.832E-04 0.755E-04-0.535E-26
CGA:   5    -0.202705768097E+04   -0.54152E-03   -0.54123E-03  1304   0.504E-03-0.772E-05
 gam= 0.245 trial= 0.598  step= 0.584 mean= 0.598
 gam= 0.403 g(H,U,f)=  0.184E-03 0.191E-04 0.415E-26 ort(H,U,f) =-0.323E-04 0.389E-04 0.374E-26
CGA:   6    -0.202705782747E+04   -0.14650E-03   -0.14655E-03  1304   0.203E-03 0.655E-05
 gam= 0.403 trial= 0.597  step= 0.576 mean= 0.597
 gam= 0.461 g(H,U,f)=  0.863E-04 0.736E-05 0.110E-25 ort(H,U,f) =-0.223E-04 0.170E-04 0.922E-26
CGA:   7    -0.202705788685E+04   -0.59380E-04   -0.59326E-04  1304   0.936E-04-0.527E-05
 gam= 0.461 trial= 0.596  step= 0.563 mean= 0.596
 gam= 0.258 g(H,U,f)=  0.232E-04 0.100E-05 0.193E-27 ort(H,U,f) =-0.539E-06 0.476E-05 0.210E-26
CGA:   8    -0.202705791244E+04   -0.25593E-04   -0.25664E-04  1304   0.242E-04 0.422E-05
 gam= 0.258 trial= 0.594  step= 0.713 mean= 0.594
 gam= 0.284 g(H,U,f)=  0.672E-05 0.140E-06 0.367E-26 ort(H,U,f) =-0.172E-05 0.481E-06 0.328E-26
CGA:   9    -0.202705792138E+04   -0.89304E-05   -0.90044E-05  1304   0.686E-05-0.124E-05
 gam= 0.284 trial= 0.600  step= 0.544 mean= 0.600
 gam= 0.282 g(H,U,f)=  0.189E-05 0.482E-07 0.389E-27 ort(H,U,f) = 0.735E-06-0.578E-08-0.152E-26
CGA:  10    -0.202705792312E+04   -0.17495E-05   -0.17699E-05  1304   0.193E-05 0.729E-06
 gam= 0.282 trial= 0.597  step= 0.737 mean= 0.597
 gam= 0.775 g(H,U,f)=  0.146E-05 0.417E-07 0.190E-27 ort(H,U,f) =-0.608E-06-0.201E-07 0.283E-28
CGA:  11    -0.202705792387E+04   -0.74482E-06   -0.78880E-06  1304   0.150E-05-0.628E-06
 gam= 0.775 trial= 0.604  step= 0.331 mean= 0.604
 gam= 0.405 g(H,U,f)=  0.591E-06 0.159E-07 0.165E-27 ort(H,U,f) = 0.239E-06 0.231E-08 0.199E-27
CGA:  12    -0.202705792400E+04   -0.13490E-06   -0.16771E-06  1304   0.607E-06 0.241E-06
 gam= 0.405 trial= 0.591  step= 0.308 mean= 0.591
 gam= 0.454 g(H,U,f)=  0.266E-06 0.921E-08 0.216E-30 ort(H,U,f) = 0.168E-06 0.251E-08-0.884E-29
CGA:  13    -0.202705792409E+04   -0.84619E-07   -0.10854E-06  1304   0.275E-06 0.170E-06
 gam= 0.454 trial= 0.577  step= 0.651 mean= 0.577
 gam= 0.000 g(H,U,f)=  0.202E-06 0.756E-08 0.231E-27 ort(H,U,f) =-0.184E-06 0.296E-08-0.126E-27
CGA:  14    -0.202705792420E+04   -0.10783E-06   -0.11476E-06  1304   0.209E-06-0.181E-06
 gam= 0.000 trial= 0.580  step= 0.410 mean= 0.580
 gam= 0.125 g(H,U,f)=  0.239E-07 0.237E-08 0.251E-29 ort(H,U,f) = 0.453E-07 0.172E-08-0.239E-28
CGA:  15    -0.202705792424E+04   -0.38934E-07   -0.42958E-07  1304   0.263E-07 0.470E-07
 gam= 0.125 trial= 0.572  step= 3.141 mean= 0.572
 gam= 0.125 trial= 3.717  step= 3.717 mean= 0.902
 gam= 0.000 g(H,U,f)=  0.923E-06 0.130E-07 0.547E-28 ort(H,U,f) =-0.154E-06-0.299E-08 0.175E-29
CGA:  16    -0.202705792405E+04    0.18977E-06    0.25338E+03  1304   0.936E-06-0.157E-06
 gam= 0.000 trial= 1.043  step= 0.401 mean= 1.043
 gam= 0.151 g(H,U,f)=  0.139E-06 0.250E-08 0.291E-28 ort(H,U,f) = 0.125E-06-0.247E-08-0.399E-28
CGA:  17    -0.202705792419E+04   -0.14827E-06   -0.18774E-06  1304   0.141E-06 0.123E-06
 gam= 0.151 trial= 1.011  step= 0.699 mean= 1.011
 gam= 0.000 g(H,U,f)=  0.997E-07 0.176E-08 0.201E-30 ort(H,U,f) =-0.103E-06-0.301E-09 0.193E-29
CGA:  18    -0.202705792427E+04   -0.71923E-07   -0.55800E-07  1304   0.101E-06-0.104E-06
 gam= 0.000 trial= 0.995  step= 0.195 mean= 0.995
 final diagonalization
 154 F= -.20485060E+04 E0= -.20485060E+04  d E =-.786530E-03
 trial-energy change:   -0.000787  1 .order   -0.000798   -0.001246   -0.000350
 step:   0.5625(harm=  0.5436)  dis= 0.00333  next Energy= -2048.506083 (dE=-0.862E-03)
 bond charge predicted
       N       E                     dE             d eps       ncg     rms          ort
 gam= 0.000 g(H,U,f)=  0.416E-01 0.418E-02 0.403E-23 ort(H,U,f) = 0.000E+00 0.000E+00 0.000E+00
SDA:   1    -0.202704104771E+04    0.16876E-01    0.00000E+00  1304   0.458E-01 0.000E+00
 gam= 0.000 trial= 0.955  step= 0.549 mean= 0.955
 gam= 0.251 g(H,U,f)=  0.108E-01 0.665E-03 0.147E-22 ort(H,U,f) = 0.672E-03-0.662E-03-0.218E-22
CGA:   2    -0.202705362951E+04   -0.12582E-01   -0.12583E-01  1304   0.115E-01 0.943E-05
 gam= 0.251 trial= 0.935  step= 0.614 mean= 0.935
 gam= 0.158 g(H,U,f)=  0.176E-02 0.511E-04 0.747E-24 ort(H,U,f) =-0.489E-04 0.454E-04 0.998E-24
CGA:   3    -0.202705715804E+04   -0.35285E-02   -0.35280E-02  1304   0.182E-02-0.347E-05
 gam= 0.158 trial= 0.919  step= 0.504 mean= 0.919
 gam= 0.218 g(H,U,f)=  0.367E-03 0.292E-04 0.997E-25 ort(H,U,f) =-0.144E-04 0.184E-04-0.252E-24
CGA:   4    -0.202705761453E+04   -0.45649E-03   -0.45732E-03  1304   0.396E-03 0.400E-05
 gam= 0.218 trial= 0.898  step= 0.527 mean= 0.898
 gam= 0.248 g(H,U,f)=  0.886E-04 0.959E-05 0.183E-28 ort(H,U,f) =-0.170E-04 0.146E-04-0.605E-27
CGA:   5    -0.202705771952E+04   -0.10499E-03   -0.10455E-03  1304   0.981E-04-0.239E-05
 gam= 0.248 trial= 0.880  step= 0.575 mean= 0.880
 gam= 0.398 g(H,U,f)=  0.353E-04 0.374E-05 0.100E-26 ort(H,U,f) =-0.563E-05 0.760E-05 0.105E-26
CGA:   6    -0.202705774727E+04   -0.27751E-04   -0.28051E-04  1304   0.390E-04 0.197E-05
 gam= 0.398 trial= 0.864  step= 0.588 mean= 0.864
 gam= 0.477 g(H,U,f)=  0.172E-04 0.145E-05 0.295E-26 ort(H,U,f) =-0.489E-05 0.325E-05 0.244E-26
CGA:   7    -0.202705775921E+04   -0.11938E-04   -0.11711E-04  1304   0.186E-04-0.164E-05
 gam= 0.477 trial= 0.851  step= 0.543 mean= 0.851
 gam= 0.246 g(H,U,f)=  0.438E-05 0.191E-06 0.710E-28 ort(H,U,f) = 0.295E-06 0.969E-06 0.649E-27
CGA:   8    -0.202705776386E+04   -0.46458E-05   -0.48401E-05  1304   0.457E-05 0.126E-05
 gam= 0.246 trial= 0.835  step= 0.730 mean= 0.835
 gam= 0.296 g(H,U,f)=  0.132E-05 0.287E-07 0.729E-27 ort(H,U,f) =-0.403E-06 0.933E-07 0.748E-27
CGA:   9    -0.202705776566E+04   -0.17999E-05   -0.17838E-05  1304   0.135E-05-0.310E-06
 gam= 0.296 trial= 0.830  step= 0.561 mean= 0.830
 gam= 0.249 g(H,U,f)=  0.327E-06 0.100E-07 0.822E-28 ort(H,U,f) = 0.159E-06-0.298E-08-0.321E-27
CGA:  10    -0.202705776599E+04   -0.33256E-06   -0.35364E-06  1304   0.337E-06 0.156E-06
 gam= 0.249 trial= 0.817  step= 0.851 mean= 0.817
 gam= 0.862 g(H,U,f)=  0.281E-06 0.980E-08 0.112E-27 ort(H,U,f) =-0.133E-06-0.520E-08-0.243E-29
CGA:  11    -0.202705776615E+04   -0.15728E-06   -0.15977E-06  1304   0.290E-06-0.138E-06
 gam= 0.862 trial= 0.818  step= 0.287 mean= 0.818
 gam= 0.518 g(H,U,f)=  0.146E-06 0.435E-08 0.510E-28 ort(H,U,f) = 0.521E-07 0.985E-09 0.744E-28
CGA:  12    -0.202705776616E+04   -0.10594E-07   -0.24608E-07  1304   0.151E-06 0.531E-07
 gam= 0.518 trial= 0.792  step= 0.270 mean= 0.792
 final diagonalization
 155 F= -.20485061E+04 E0= -.20485061E+04  d E =-.852047E-03
 curvature:  -4.18 expect dE=-0.127E-01 dE for cont linesearch -0.612E-06
 trial: gam= 0.96670 g(F)=  0.290E-02 g(S)=  0.132E-03 ort =-0.854E-04 (trialstep = 0.425E+00)
 search vector abs. value=  0.494E-01
 bond charge predicted
       N       E                     dE             d eps       ncg     rms          ort
 gam= 0.000 g(H,U,f)=  0.255E+00 0.250E-01 0.365E-22 ort(H,U,f) = 0.000E+00 0.000E+00 0.000E+00
SDA:   1    -0.202695430457E+04    0.10346E+00    0.00000E+00  1304   0.280E+00 0.000E+00
 gam= 0.000 trial= 0.766  step= 0.548 mean= 0.766
 gam= 0.251 g(H,U,f)=  0.665E-01 0.382E-02 0.650E-20 ort(H,U,f) = 0.382E-02-0.377E-02-0.719E-20
CGA:   2    -0.202703103963E+04   -0.76735E-01   -0.76735E-01  1304   0.704E-01 0.465E-04
 gam= 0.251 trial= 0.755  step= 0.608 mean= 0.755
 gam= 0.165 g(H,U,f)=  0.113E-01 0.310E-03 0.329E-23 ort(H,U,f) =-0.272E-03 0.247E-03 0.108E-22
CGA:   3    -0.202705244404E+04   -0.21404E-01   -0.21403E-01  1304   0.116E-01-0.247E-04
 gam= 0.165 trial= 0.747  step= 0.483 mean= 0.747
 gam= 0.237 g(H,U,f)=  0.259E-02 0.160E-03 0.301E-25 ort(H,U,f) =-0.874E-04 0.113E-03-0.254E-24
CGA:   4    -0.202705524230E+04   -0.27983E-02   -0.28016E-02  1304   0.275E-02 0.258E-04
 gam= 0.237 trial= 0.734  step= 0.478 mean= 0.734
 gam= 0.268 g(H,U,f)=  0.676E-03 0.633E-04 0.736E-28 ort(H,U,f) =-0.115E-03 0.101E-03 0.134E-26
CGA:   5    -0.202705590309E+04   -0.66079E-03   -0.65907E-03  1304   0.739E-03-0.136E-04
 gam= 0.268 trial= 0.721  step= 0.512 mean= 0.721
 gam= 0.359 g(H,U,f)=  0.238E-03 0.267E-04 0.116E-27 ort(H,U,f) =-0.437E-04 0.510E-04-0.490E-27
CGA:   6    -0.202705609056E+04   -0.18747E-03   -0.18822E-03  1304   0.265E-03 0.724E-05
 gam= 0.359 trial= 0.711  step= 0.619 mean= 0.711
 gam= 0.387 g(H,U,f)=  0.927E-04 0.989E-05 0.684E-26 ort(H,U,f) =-0.246E-04 0.212E-04-0.421E-27
CGA:   7    -0.202705617354E+04   -0.82984E-04   -0.82826E-04  1304   0.103E-03-0.345E-05
 gam= 0.387 trial= 0.706  step= 0.649 mean= 0.706
 gam= 0.292 g(H,U,f)=  0.285E-04 0.142E-05 0.562E-28 ort(H,U,f) =-0.171E-05 0.537E-05 0.607E-27
CGA:   8    -0.202705620631E+04   -0.32771E-04   -0.32876E-04  1304   0.300E-04 0.366E-05
 gam= 0.292 trial= 0.703  step= 0.653 mean= 0.703
 gam= 0.395 g(H,U,f)=  0.116E-04 0.266E-06 0.330E-26 ort(H,U,f) =-0.231E-05 0.801E-06 0.180E-26
CGA:   9    -0.202705621648E+04   -0.10165E-04   -0.10127E-04  1304   0.118E-04-0.151E-05
 gam= 0.395 trial= 0.701  step= 0.408 mean= 0.701
 gam= 0.262 g(H,U,f)=  0.304E-05 0.568E-07 0.897E-28 ort(H,U,f) = 0.947E-06 0.103E-06 0.666E-27
CGA:  10    -0.202705621862E+04   -0.21393E-05   -0.22926E-05  1304   0.310E-05 0.105E-05
 gam= 0.262 trial= 0.686  step= 0.646 mean= 0.686
 gam= 0.324 g(H,U,f)=  0.956E-06 0.474E-07 0.180E-27 ort(H,U,f) =-0.101E-06-0.233E-07-0.373E-27
CGA:  11    -0.202705621971E+04   -0.10932E-05   -0.10907E-05  1304   0.100E-05-0.125E-06
 gam= 0.324 trial= 0.684  step= 0.888 mean= 0.684
 gam= 0.594 g(H,U,f)=  0.569E-06 0.274E-07 0.774E-27 ort(H,U,f) =-0.187E-06-0.238E-07-0.119E-27
CGA:  12    -0.202705622012E+04   -0.40641E-06   -0.42788E-06  1304   0.596E-06-0.210E-06
 gam= 0.594 trial= 0.694  step= 0.366 mean= 0.694
 gam= 0.339 g(H,U,f)=  0.193E-06 0.933E-08 0.426E-29 ort(H,U,f) = 0.136E-06 0.342E-08 0.523E-28
CGA:  13    -0.202705622018E+04   -0.63643E-07   -0.86329E-07  1304   0.202E-06 0.139E-06
 gam= 0.339 trial= 0.678  step= 0.439 mean= 0.678
 final diagonalization
 156 F= -.20485069E+04 E0= -.20485069E+04  d E =-.875101E-03
 trial-energy change:   -0.000875  1 .order   -0.000901   -0.001255   -0.000546
 step:   0.7535(harm=  0.7535)  dis= 0.00429  next Energy= -2048.507184 (dE=-0.111E-02)
 bond charge predicted
       N       E                     dE             d eps       ncg     rms          ort
 gam= 0.000 g(H,U,f)=  0.152E+00 0.149E-01 0.845E-23 ort(H,U,f) = 0.000E+00 0.000E+00 0.000E+00
SDA:   1    -0.202699387165E+04    0.62348E-01    0.00000E+00  1304   0.167E+00 0.000E+00
 gam= 0.000 trial= 0.666  step= 0.548 mean= 0.666
 gam= 0.251 g(H,U,f)=  0.396E-01 0.228E-02 0.464E-21 ort(H,U,f) = 0.229E-02-0.225E-02-0.516E-21
CGA:   2    -0.202703955404E+04   -0.45682E-01   -0.45684E-01  1304   0.419E-01 0.379E-04
 gam= 0.251 trial= 0.660  step= 0.608 mean= 0.660
 gam= 0.165 g(H,U,f)=  0.673E-02 0.185E-03 0.651E-24 ort(H,U,f) =-0.169E-03 0.146E-03 0.209E-23
CGA:   3    -0.202705229857E+04   -0.12745E-01   -0.12744E-01  1304   0.691E-02-0.221E-04
 gam= 0.165 trial= 0.658  step= 0.483 mean= 0.658
 gam= 0.237 g(H,U,f)=  0.154E-02 0.950E-04 0.802E-26 ort(H,U,f) =-0.448E-04 0.671E-04-0.666E-25
CGA:   4    -0.202705396394E+04   -0.16654E-02   -0.16673E-02  1304   0.164E-02 0.223E-04
 gam= 0.237 trial= 0.649  step= 0.479 mean= 0.649
 gam= 0.270 g(H,U,f)=  0.404E-03 0.377E-04 0.313E-28 ort(H,U,f) =-0.717E-04 0.598E-04 0.443E-27
CGA:   5    -0.202705435858E+04   -0.39464E-03   -0.39364E-03  1304   0.442E-03-0.119E-04
 gam= 0.270 trial= 0.640  step= 0.508 mean= 0.640
 gam= 0.354 g(H,U,f)=  0.141E-03 0.158E-04 0.220E-28 ort(H,U,f) =-0.241E-04 0.304E-04-0.115E-27
CGA:   6    -0.202705446972E+04   -0.11114E-03   -0.11155E-03  1304   0.157E-03 0.628E-05
 gam= 0.354 trial= 0.634  step= 0.625 mean= 0.634
 gam= 0.394 g(H,U,f)=  0.557E-04 0.591E-05 0.200E-26 ort(H,U,f) =-0.154E-04 0.125E-04-0.173E-27
CGA:   7    -0.202705451936E+04   -0.49643E-04   -0.49630E-04  1304   0.617E-04-0.299E-05
 gam= 0.394 trial= 0.633  step= 0.637 mean= 0.633
 gam= 0.284 g(H,U,f)=  0.166E-04 0.840E-06 0.135E-28 ort(H,U,f) =-0.197E-06 0.327E-05 0.159E-27
CGA:   8    -0.202705453864E+04   -0.19279E-04   -0.19272E-04  1304   0.175E-04 0.307E-05
 gam= 0.284 trial= 0.634  step= 0.674 mean= 0.634
 gam= 0.414 g(H,U,f)=  0.707E-05 0.161E-06 0.928E-27 ort(H,U,f) =-0.170E-05 0.468E-06 0.487E-27
CGA:   9    -0.202705454479E+04   -0.61552E-05   -0.61798E-05  1304   0.724E-05-0.123E-05
 gam= 0.414 trial= 0.636  step= 0.390 mean= 0.636
 gam= 0.257 g(H,U,f)=  0.183E-05 0.311E-07 0.351E-28 ort(H,U,f) = 0.788E-06 0.686E-07 0.221E-27
CGA:  10    -0.202705454600E+04   -0.12067E-05   -0.13118E-05  1304   0.186E-05 0.856E-06
 gam= 0.257 trial= 0.623  step= 0.614 mean= 0.623
 gam= 0.326 g(H,U,f)=  0.579E-06 0.283E-07 0.571E-28 ort(H,U,f) = 0.122E-07-0.115E-07-0.117E-27
CGA:  11    -0.202705454664E+04   -0.63894E-06   -0.63903E-06  1304   0.608E-06 0.656E-09
 gam= 0.326 trial= 0.623  step= 1.227 mean= 0.623
 gam= 0.000 g(H,U,f)=  0.139E-05 0.512E-07 0.561E-27 ort(H,U,f) =-0.503E-06-0.292E-07-0.577E-28
CGA:  12    -0.202705454685E+04   -0.21216E-06   -0.37284E-06  1304   0.145E-05-0.532E-06
 gam= 0.000 trial= 0.653  step= 0.233 mean= 0.653
 gam= 0.129 g(H,U,f)=  0.179E-06 0.718E-08 0.118E-28 ort(H,U,f) = 0.344E-06 0.144E-07 0.817E-28
CGA:  13    -0.202705454694E+04   -0.92892E-07   -0.16818E-06  1304   0.187E-06 0.359E-06
 gam= 0.129 trial= 0.632  step= 0.293 mean= 0.632
 final diagonalization
 157 F= -.20485071E+04 E0= -.20485071E+04  d E =-.107226E-02
 curvature:  -6.31 expect dE=-0.215E-01 dE for cont linesearch -0.761E-07
 trial: gam= 1.06697 g(F)=  0.339E-02 g(S)=  0.141E-04 ort = 0.244E-04 (trialstep = 0.406E+00)
 search vector abs. value=  0.597E-01
 bond charge predicted
       N       E                     dE             d eps       ncg     rms          ort
 gam= 0.000 g(H,U,f)=  0.283E+00 0.279E-01 0.416E-23 ort(H,U,f) = 0.000E+00 0.000E+00 0.000E+00
SDA:   1    -0.202694050753E+04    0.11404E+00    0.00000E+00  1304   0.311E+00 0.000E+00
 gam= 0.000 trial= 0.615  step= 0.550 mean= 0.615
 gam= 0.252 g(H,U,f)=  0.738E-01 0.438E-02 0.228E-21 ort(H,U,f) = 0.433E-02-0.429E-02-0.225E-21
CGA:   2    -0.202702594641E+04   -0.85439E-01   -0.85439E-01  1304   0.782E-01 0.391E-04
 gam= 0.252 trial= 0.612  step= 0.609 mean= 0.612
 gam= 0.162 g(H,U,f)=  0.123E-01 0.352E-03 0.435E-24 ort(H,U,f) =-0.313E-03 0.285E-03 0.834E-24
CGA:   3    -0.202704973171E+04   -0.23785E-01   -0.23785E-01  1304   0.126E-01-0.287E-04
 gam= 0.162 trial= 0.612  step= 0.493 mean= 0.612
 gam= 0.231 g(H,U,f)=  0.274E-02 0.185E-03 0.767E-26 ort(H,U,f) =-0.963E-04 0.120E-03-0.327E-25
CGA:   4    -0.202705284580E+04   -0.31141E-02   -0.31155E-02  1304   0.292E-02 0.238E-04
 gam= 0.231 trial= 0.606  step= 0.493 mean= 0.606
 gam= 0.267 g(H,U,f)=  0.711E-03 0.693E-04 0.582E-28 ort(H,U,f) =-0.125E-03 0.110E-03-0.125E-28
CGA:   5    -0.202705356860E+04   -0.72280E-03   -0.72200E-03  1304   0.780E-03-0.143E-04
 gam= 0.267 trial= 0.600  step= 0.521 mean= 0.600
 gam= 0.379 g(H,U,f)=  0.267E-03 0.290E-04 0.122E-28 ort(H,U,f) =-0.467E-04 0.566E-04 0.228E-28
CGA:   6    -0.202705377031E+04   -0.20171E-03   -0.20211E-03  1304   0.296E-03 0.994E-05
 gam= 0.379 trial= 0.596  step= 0.601 mean= 0.596
 gam= 0.399 g(H,U,f)=  0.107E-03 0.110E-04 0.542E-27 ort(H,U,f) =-0.290E-04 0.239E-04-0.123E-27
CGA:   7    -0.202705386035E+04   -0.90037E-04   -0.90050E-04  1304   0.118E-03-0.517E-05
 gam= 0.399 trial= 0.596  step= 0.637 mean= 0.596
 gam= 0.282 g(H,U,f)=  0.318E-04 0.147E-05 0.178E-29 ort(H,U,f) =-0.163E-05 0.598E-05-0.284E-28
CGA:   8    -0.202705389736E+04   -0.37008E-04   -0.36920E-04  1304   0.333E-04 0.435E-05
 gam= 0.282 trial= 0.598  step= 0.669 mean= 0.598
 gam= 0.372 g(H,U,f)=  0.121E-04 0.262E-06 0.132E-27 ort(H,U,f) =-0.243E-05 0.793E-06 0.539E-28
CGA:   9    -0.202705390885E+04   -0.11489E-04   -0.11547E-04  1304   0.124E-04-0.163E-05
 gam= 0.372 trial= 0.602  step= 0.416 mean= 0.602
 gam= 0.281 g(H,U,f)=  0.341E-05 0.608E-07 0.208E-29 ort(H,U,f) = 0.109E-05 0.816E-07 0.192E-28
CGA:  10    -0.202705391119E+04   -0.23408E-05   -0.24499E-05  1304   0.348E-05 0.117E-05
 gam= 0.281 trial= 0.593  step= 0.639 mean= 0.593
 gam= 0.331 g(H,U,f)=  0.110E-05 0.507E-07 0.949E-29 ort(H,U,f) =-0.171E-06-0.269E-07-0.158E-28
CGA:  11    -0.202705391240E+04   -0.12102E-05   -0.12147E-05  1304   0.115E-05-0.198E-06
 gam= 0.331 trial= 0.595  step= 0.808 mean= 0.595
 gam= 0.432 g(H,U,f)=  0.476E-06 0.207E-07 0.239E-28 ort(H,U,f) =-0.826E-07-0.176E-07-0.657E-29
CGA:  12    -0.202705391282E+04   -0.42751E-06   -0.43834E-06  1304   0.497E-06-0.100E-06
 gam= 0.432 trial= 0.606  step= 0.472 mean= 0.606
 gam= 0.295 g(H,U,f)=  0.139E-06 0.741E-08 0.177E-29 ort(H,U,f) = 0.102E-06 0.344E-08-0.573E-29
CGA:  13    -0.202705391292E+04   -0.99928E-07   -0.10709E-06  1304   0.147E-06 0.105E-06
 gam= 0.295 trial= 0.599  step= 1.024 mean= 0.599
 final diagonalization
 158 F= -.20485080E+04 E0= -.20485080E+04  d E =-.805775E-03
 trial-energy change:   -0.000806  1 .order   -0.000820   -0.001393   -0.000248
 step:   0.5035(harm=  0.4942)  dis= 0.00326  next Energy= -2048.507980 (dE=-0.835E-03)
 bond charge predicted
       N       E                     dE             d eps       ncg     rms          ort
 gam= 0.000 g(H,U,f)=  0.162E-01 0.160E-02 0.167E-25 ort(H,U,f) = 0.000E+00 0.000E+00 0.000E+00
SDA:   1    -0.202704710301E+04    0.68098E-02    0.00000E+00  1304   0.178E-01 0.000E+00
 gam= 0.000 trial= 0.620  step= 0.549 mean= 0.620
 gam= 0.251 g(H,U,f)=  0.422E-02 0.251E-03 0.462E-25 ort(H,U,f) = 0.258E-03-0.246E-03-0.457E-25
CGA:   2    -0.202705199336E+04   -0.48903E-02   -0.48908E-02  1304   0.447E-02 0.124E-04
 gam= 0.251 trial= 0.617  step= 0.610 mean= 0.617
 gam= 0.163 g(H,U,f)=  0.711E-03 0.202E-04 0.260E-26 ort(H,U,f) =-0.233E-04 0.160E-04 0.474E-26
CGA:   3    -0.202705335792E+04   -0.13646E-02   -0.13645E-02  1304   0.731E-03-0.735E-05
 gam= 0.163 trial= 0.616  step= 0.487 mean= 0.616
 gam= 0.230 g(H,U,f)=  0.158E-03 0.104E-04 0.159E-27 ort(H,U,f) =-0.119E-05 0.685E-05-0.678E-27
CGA:   4    -0.202705353531E+04   -0.17739E-03   -0.17775E-03  1304   0.168E-03 0.566E-05
 gam= 0.230 trial= 0.610  step= 0.499 mean= 0.610
 gam= 0.280 g(H,U,f)=  0.431E-04 0.402E-05 0.120E-29 ort(H,U,f) =-0.992E-05 0.627E-05-0.304E-30
CGA:   5    -0.202705357779E+04   -0.42477E-04   -0.42276E-04  1304   0.471E-04-0.365E-05
 gam= 0.280 trial= 0.604  step= 0.489 mean= 0.604
 gam= 0.338 g(H,U,f)=  0.142E-04 0.169E-05 0.364E-30 ort(H,U,f) =-0.103E-05 0.338E-05 0.600E-30
CGA:   6    -0.202705358892E+04   -0.11135E-04   -0.11270E-04  1304   0.159E-04 0.235E-05
 gam= 0.338 trial= 0.599  step= 0.663 mean= 0.599
 gam= 0.464 g(H,U,f)=  0.670E-05 0.676E-06 0.225E-28 ort(H,U,f) =-0.241E-05 0.124E-05-0.430E-29
CGA:   7    -0.202705359442E+04   -0.55021E-05   -0.55398E-05  1304   0.738E-05-0.117E-05
 gam= 0.464 trial= 0.602  step= 0.560 mean= 0.602
 gam= 0.246 g(H,U,f)=  0.174E-05 0.795E-07 0.524E-33 ort(H,U,f) = 0.494E-06 0.393E-06 0.320E-31
CGA:   8    -0.202705359632E+04   -0.18960E-05   -0.19145E-05  1304   0.182E-05 0.887E-06
 gam= 0.246 trial= 0.600  step= 0.718 mean= 0.600
 gam= 0.366 g(H,U,f)=  0.647E-06 0.174E-07 0.194E-29 ort(H,U,f) =-0.196E-06 0.461E-07 0.150E-29
CGA:   9    -0.202705359704E+04   -0.72190E-06   -0.73086E-06  1304   0.665E-06-0.150E-06
 gam= 0.366 trial= 0.606  step= 0.458 mean= 0.606
 gam= 0.288 g(H,U,f)=  0.188E-06 0.335E-08 0.819E-31 ort(H,U,f) = 0.117E-06 0.440E-08 0.511E-30
CGA:  10    -0.202705359717E+04   -0.13053E-06   -0.13967E-06  1304   0.191E-06 0.122E-06
 gam= 0.288 trial= 0.598  step= 0.603 mean= 0.598
 gam= 0.377 g(H,U,f)=  0.687E-07 0.346E-08 0.587E-31 ort(H,U,f) =-0.123E-07-0.921E-09-0.194E-30
CGA:  11    -0.202705359724E+04   -0.68234E-07   -0.68282E-07  1304   0.722E-07-0.132E-07
 gam= 0.377 trial= 0.598  step= 0.793 mean= 0.598
 final diagonalization
 159 F= -.20485080E+04 E0= -.20485080E+04  d E =-.835010E-03
 curvature:  -4.25 expect dE=-0.977E-02 dE for cont linesearch -0.728E-07
 trial: gam= 0.70317 g(F)=  0.218E-02 g(S)=  0.116E-03 ort = 0.320E-04 (trialstep = 0.426E+00)
 search vector abs. value=  0.318E-01
 bond charge predicted
       N       E                     dE             d eps       ncg     rms          ort
 gam= 0.000 g(H,U,f)=  0.164E+00 0.161E-01 0.527E-25 ort(H,U,f) = 0.000E+00 0.000E+00 0.000E+00
SDA:   1    -0.202698850543E+04    0.65092E-01    0.00000E+00  1304   0.180E+00 0.000E+00
 gam= 0.000 trial= 0.608  step= 0.555 mean= 0.608
 gam= 0.252 g(H,U,f)=  0.427E-01 0.267E-02 0.949E-24 ort(H,U,f) = 0.275E-02-0.274E-02-0.125E-23
CGA:   2    -0.202703841077E+04   -0.49905E-01   -0.49905E-01  1304   0.454E-01 0.127E-04
 gam= 0.252 trial= 0.605  step= 0.610 mean= 0.605
 gam= 0.153 g(H,U,f)=  0.678E-02 0.186E-03 0.372E-25 ort(H,U,f) =-0.187E-03 0.179E-03 0.310E-25
CGA:   3    -0.202705226613E+04   -0.13855E-01   -0.13855E-01  1304   0.696E-02-0.860E-05
 gam= 0.153 trial= 0.606  step= 0.515 mean= 0.606
 gam= 0.213 g(H,U,f)=  0.137E-02 0.112E-03 0.573E-26 ort(H,U,f) =-0.659E-04 0.685E-04-0.889E-26
CGA:   4    -0.202705405861E+04   -0.17925E-02   -0.17926E-02  1304   0.149E-02 0.260E-05
 gam= 0.213 trial= 0.601  step= 0.540 mean= 0.601
 gam= 0.229 g(H,U,f)=  0.305E-03 0.359E-04 0.675E-29 ort(H,U,f) =-0.542E-04 0.537E-04-0.164E-27
CGA:   5    -0.202705445975E+04   -0.40114E-03   -0.40113E-03  1304   0.340E-03-0.573E-06
 gam= 0.229 trial= 0.598  step= 0.661 mean= 0.598
 gam= 0.364 g(H,U,f)=  0.111E-03 0.125E-04 0.183E-27 ort(H,U,f) =-0.232E-04 0.259E-04 0.166E-27
CGA:   6    -0.202705457229E+04   -0.11254E-03   -0.11246E-03  1304   0.124E-03 0.262E-05
 gam= 0.364 trial= 0.601  step= 0.668 mean= 0.601
 gam= 0.522 g(H,U,f)=  0.610E-04 0.364E-05 0.103E-27 ort(H,U,f) =-0.131E-04 0.961E-05 0.191E-27
CGA:   7    -0.202705461385E+04   -0.41565E-04   -0.41681E-04  1304   0.647E-04-0.348E-05
 gam= 0.522 trial= 0.605  step= 0.480 mean= 0.605
 gam= 0.290 g(H,U,f)=  0.181E-04 0.619E-06 0.181E-28 ort(H,U,f) = 0.481E-06 0.291E-05 0.900E-28
CGA:   8    -0.202705462873E+04   -0.14881E-04   -0.15092E-04  1304   0.187E-04 0.339E-05
 gam= 0.290 trial= 0.598  step= 0.659 mean= 0.598
 gam= 0.255 g(H,U,f)=  0.470E-05 0.802E-07 0.172E-28 ort(H,U,f) =-0.116E-05 0.278E-06 0.448E-28
CGA:   9    -0.202705463521E+04   -0.64741E-05   -0.65011E-05  1304   0.478E-05-0.885E-06
 gam= 0.255 trial= 0.601  step= 0.671 mean= 0.601
 gam= 0.249 g(H,U,f)=  0.115E-05 0.423E-07 0.522E-29 ort(H,U,f) = 0.194E-06-0.447E-07-0.160E-28
CGA:  10    -0.202705463674E+04   -0.15345E-05   -0.15294E-05  1304   0.119E-05 0.149E-06
 gam= 0.249 trial= 0.605  step= 0.654 mean= 0.605
 gam= 0.421 g(H,U,f)=  0.477E-06 0.241E-07 0.812E-29 ort(H,U,f) = 0.498E-07-0.849E-08-0.152E-29
CGA:  11    -0.202705463714E+04   -0.40274E-06   -0.40159E-06  1304   0.501E-06 0.413E-07
 gam= 0.421 trial= 0.607  step= 0.737 mean= 0.607
 gam= 0.713 g(H,U,f)=  0.346E-06 0.115E-07 0.149E-29 ort(H,U,f) =-0.107E-06-0.247E-08-0.325E-29
CGA:  12    -0.202705463733E+04   -0.18367E-06   -0.19087E-06  1304   0.357E-06-0.110E-06
 gam= 0.713 trial= 0.614  step= 0.402 mean= 0.614
 gam= 0.296 g(H,U,f)=  0.101E-06 0.504E-08 0.173E-29 ort(H,U,f) = 0.371E-07 0.463E-08-0.885E-30
CGA:  13    -0.202705463738E+04   -0.51950E-07   -0.56123E-07  1304   0.106E-06 0.417E-07
 gam= 0.296 trial= 0.603  step= 0.435 mean= 0.603
 final diagonalization
 160 F= -.20485087E+04 E0= -.20485087E+04  d E =-.678060E-03
 trial-energy change:   -0.000678  1 .order   -0.000687   -0.000988   -0.000386
 step:   0.7480(harm=  0.6984)  dis= 0.00375  next Energy= -2048.508800 (dE=-0.820E-03)
 bond charge predicted
       N       E                     dE             d eps       ncg     rms          ort
 gam= 0.000 g(H,U,f)=  0.939E-01 0.926E-02 0.367E-25 ort(H,U,f) = 0.000E+00 0.000E+00 0.000E+00
SDA:   1    -0.202701712596E+04    0.37511E-01    0.00000E+00  1304   0.103E+00 0.000E+00
 gam= 0.000 trial= 0.595  step= 0.555 mean= 0.595
 gam= 0.252 g(H,U,f)=  0.245E-01 0.153E-02 0.296E-24 ort(H,U,f) = 0.158E-02-0.157E-02-0.388E-24
CGA:   2    -0.202704572657E+04   -0.28601E-01   -0.28601E-01  1304   0.260E-01 0.116E-04
 gam= 0.252 trial= 0.593  step= 0.610 mean= 0.593
 gam= 0.153 g(H,U,f)=  0.389E-02 0.107E-03 0.214E-25 ort(H,U,f) =-0.109E-03 0.102E-03 0.183E-25
CGA:   3    -0.202705366744E+04   -0.79409E-02   -0.79409E-02  1304   0.399E-02-0.673E-05
 gam= 0.153 trial= 0.594  step= 0.515 mean= 0.594
 gam= 0.213 g(H,U,f)=  0.787E-03 0.641E-04 0.453E-26 ort(H,U,f) =-0.374E-04 0.392E-04-0.700E-26
CGA:   4    -0.202705469501E+04   -0.10276E-02   -0.10276E-02  1304   0.851E-03 0.180E-05
 gam= 0.213 trial= 0.590  step= 0.540 mean= 0.590
 gam= 0.229 g(H,U,f)=  0.175E-03 0.205E-04 0.317E-29 ort(H,U,f) =-0.311E-04 0.307E-04-0.949E-28
CGA:   5    -0.202705492493E+04   -0.22992E-03   -0.22991E-03  1304   0.195E-03-0.426E-06
 gam= 0.229 trial= 0.587  step= 0.658 mean= 0.587
 gam= 0.363 g(H,U,f)=  0.637E-04 0.716E-05 0.133E-27 ort(H,U,f) =-0.129E-04 0.148E-04 0.124E-27
CGA:   6    -0.202705498922E+04   -0.64291E-04   -0.64222E-04  1304   0.709E-04 0.196E-05
 gam= 0.363 trial= 0.591  step= 0.672 mean= 0.591
 gam= 0.537 g(H,U,f)=  0.359E-04 0.210E-05 0.755E-28 ort(H,U,f) =-0.815E-05 0.548E-05 0.139E-27
CGA:   7    -0.202705501316E+04   -0.23939E-04   -0.24047E-04  1304   0.380E-04-0.267E-05
 gam= 0.537 trial= 0.595  step= 0.468 mean= 0.595
 gam= 0.279 g(H,U,f)=  0.103E-04 0.349E-06 0.135E-28 ort(H,U,f) = 0.791E-06 0.172E-05 0.662E-28
CGA:   8    -0.202705502156E+04   -0.83968E-05   -0.85566E-05  1304   0.106E-04 0.251E-05
 gam= 0.279 trial= 0.589  step= 0.667 mean= 0.589
 gam= 0.262 g(H,U,f)=  0.273E-05 0.468E-07 0.115E-28 ort(H,U,f) =-0.680E-06 0.164E-06 0.304E-28
CGA:   9    -0.202705502531E+04   -0.37540E-05   -0.37743E-05  1304   0.278E-05-0.517E-06
 gam= 0.262 trial= 0.592  step= 0.713 mean= 0.592
 gam= 0.287 g(H,U,f)=  0.765E-06 0.305E-07 0.470E-29 ort(H,U,f) =-0.455E-07-0.332E-07-0.126E-28
CGA:  10    -0.202705502625E+04   -0.93773E-06   -0.94258E-06  1304   0.796E-06-0.787E-07
 gam= 0.287 trial= 0.599  step= 0.453 mean= 0.599
 gam= 0.339 g(H,U,f)=  0.259E-06 0.111E-07 0.932E-30 ort(H,U,f) = 0.198E-06-0.181E-09-0.481E-30
CGA:  11    -0.202705502641E+04   -0.16086E-06   -0.17512E-06  1304   0.270E-06 0.198E-06
 gam= 0.339 trial= 0.591  step= 1.099 mean= 0.591
 gam= 0.000 g(H,U,f)=  0.421E-06 0.141E-07 0.740E-30 ort(H,U,f) =-0.222E-06-0.506E-08 0.692E-30
CGA:  12    -0.202705502654E+04   -0.12726E-06   -0.18538E-06  1304   0.435E-06-0.227E-06
 gam= 0.000 trial= 0.617  step= 0.293 mean= 0.617
 gam= 0.173 g(H,U,f)=  0.730E-07 0.241E-08 0.352E-31 ort(H,U,f) = 0.136E-06 0.371E-08-0.162E-30
CGA:  13    -0.202705502658E+04   -0.40774E-07   -0.63620E-07  1304   0.754E-07 0.140E-06
 gam= 0.173 trial= 0.600  step= 0.462 mean= 0.600
 final diagonalization
 161 F= -.20485088E+04 E0= -.20485088E+04  d E =-.794410E-03
 curvature:  -4.63 expect dE=-0.137E-01 dE for cont linesearch -0.315E-05
 trial: gam= 1.34233 g(F)=  0.293E-02 g(S)=  0.138E-04 ort =-0.147E-03 (trialstep = 0.260E+00)
 search vector abs. value=  0.599E-01
 bond charge predicted
       N       E                     dE             d eps       ncg     rms          ort
 gam= 0.000 g(H,U,f)=  0.111E+00 0.111E-01 0.258E-25 ort(H,U,f) = 0.000E+00 0.000E+00 0.000E+00
SDA:   1    -0.202701085304E+04    0.44174E-01    0.00000E+00  1304   0.122E+00 0.000E+00
 gam= 0.000 trial= 0.593  step= 0.554 mean= 0.593
 gam= 0.252 g(H,U,f)=  0.290E-01 0.188E-02 0.124E-24 ort(H,U,f) = 0.189E-02-0.188E-02-0.228E-24
CGA:   2    -0.202704473206E+04   -0.33879E-01   -0.33879E-01  1304   0.308E-01 0.487E-05
 gam= 0.252 trial= 0.591  step= 0.609 mean= 0.591
 gam= 0.158 g(H,U,f)=  0.472E-02 0.139E-03 0.141E-24 ort(H,U,f) =-0.108E-03 0.108E-03 0.273E-25
CGA:   3    -0.202705412130E+04   -0.93892E-02   -0.93893E-02  1304   0.486E-02-0.660E-06
 gam= 0.158 trial= 0.592  step= 0.511 mean= 0.592
 gam= 0.212 g(H,U,f)=  0.950E-03 0.811E-04 0.893E-26 ort(H,U,f) =-0.422E-04 0.407E-04-0.174E-25
CGA:   4    -0.202705536238E+04   -0.12411E-02   -0.12410E-02  1304   0.103E-02-0.153E-05
 gam= 0.212 trial= 0.588  step= 0.547 mean= 0.588
 gam= 0.217 g(H,U,f)=  0.199E-03 0.249E-04 0.680E-27 ort(H,U,f) =-0.331E-04 0.365E-04-0.184E-26
CGA:   5    -0.202705564404E+04   -0.28166E-03   -0.28173E-03  1304   0.224E-03 0.340E-05
 gam= 0.217 trial= 0.586  step= 0.713 mean= 0.586
 gam= 0.338 g(H,U,f)=  0.678E-04 0.782E-05 0.668E-28 ort(H,U,f) =-0.184E-04 0.164E-04-0.823E-28
CGA:   6    -0.202705572396E+04   -0.79922E-04   -0.80049E-04  1304   0.756E-04-0.201E-05
 gam= 0.338 trial= 0.593  step= 0.763 mean= 0.593
 gam= 0.341 g(H,U,f)=  0.243E-04 0.149E-05 0.635E-30 ort(H,U,f) =-0.395E-05 0.526E-05-0.379E-29
CGA:   7    -0.202705575263E+04   -0.28671E-04   -0.28560E-04  1304   0.257E-04 0.131E-05
 gam= 0.341 trial= 0.601  step= 0.727 mean= 0.601
 gam= 0.328 g(H,U,f)=  0.815E-05 0.297E-06 0.146E-28 ort(H,U,f) =-0.108E-05 0.700E-06 0.332E-29
CGA:   8    -0.202705576213E+04   -0.94976E-05   -0.95218E-05  1304   0.844E-05-0.384E-06
 gam= 0.328 trial= 0.607  step= 0.551 mean= 0.607
 gam= 0.299 g(H,U,f)=  0.248E-05 0.513E-07 0.129E-29 ort(H,U,f) = 0.349E-06 0.296E-07-0.474E-29
CGA:   9    -0.202705576441E+04   -0.22828E-05   -0.22933E-05  1304   0.253E-05 0.379E-06
 gam= 0.299 trial= 0.605  step= 0.640 mean= 0.605
 gam= 0.492 g(H,U,f)=  0.121E-05 0.317E-07 0.702E-30 ort(H,U,f) =-0.398E-06-0.303E-07-0.964E-31
CGA:  10    -0.202705576525E+04   -0.83755E-06   -0.84512E-06  1304   0.124E-05-0.428E-06
 gam= 0.492 trial= 0.606  step= 0.428 mean= 0.606
 gam= 0.279 g(H,U,f)=  0.333E-06 0.139E-07 0.147E-30 ort(H,U,f) = 0.191E-06-0.636E-08-0.298E-30
CGA:  11    -0.202705576545E+04   -0.20467E-06   -0.22109E-06  1304   0.347E-06 0.185E-06
 gam= 0.279 trial= 0.597  step= 0.575 mean= 0.597
 gam= 0.467 g(H,U,f)=  0.155E-06 0.726E-08 0.208E-32 ort(H,U,f) = 0.272E-07 0.328E-08-0.768E-32
CGA:  12    -0.202705576556E+04   -0.11417E-06   -0.11465E-06  1304   0.162E-06 0.305E-07
 gam= 0.467 trial= 0.596  step= 1.354 mean= 0.596
 gam= 0.000 g(H,U,f)=  0.104E-05 0.191E-07 0.469E-30 ort(H,U,f) =-0.308E-06-0.259E-08-0.242E-31
CGA:  13    -0.202705576557E+04   -0.15061E-08   -0.11931E-06  1304   0.106E-05-0.311E-06
 gam= 0.000 trial= 0.634  step= 0.218 mean= 0.634
 gam= 0.091 g(H,U,f)=  0.958E-07 0.730E-09 0.795E-32 ort(H,U,f) = 0.198E-06 0.225E-08 0.610E-31
CGA:  14    -0.202705576564E+04   -0.74011E-07   -0.11552E-06  1304   0.965E-07 0.200E-06
 gam= 0.091 trial= 0.613  step= 0.275 mean= 0.613
 final diagonalization
 162 F= -.20485093E+04 E0= -.20485093E+04  d E =-.561358E-03
 trial-energy change:   -0.000561  1 .order   -0.000563   -0.000716   -0.000409
 step:   0.6332(harm=  0.6074)  dis= 0.00436  next Energy= -2048.509624 (dE=-0.850E-03)
 bond charge predicted
       N       E                     dE             d eps       ncg     rms          ort
 gam= 0.000 g(H,U,f)=  0.228E+00 0.228E-01 0.470E-25 ort(H,U,f) = 0.000E+00 0.000E+00 0.000E+00
SDA:   1    -0.202696430822E+04    0.91457E-01    0.00000E+00  1304   0.251E+00 0.000E+00
 gam= 0.000 trial= 0.596  step= 0.554 mean= 0.596
 gam= 0.252 g(H,U,f)=  0.593E-01 0.384E-02 0.738E-24 ort(H,U,f) = 0.386E-02-0.385E-02-0.136E-23
CGA:   2    -0.202703368961E+04   -0.69381E-01   -0.69381E-01  1304   0.632E-01 0.180E-05
 gam= 0.252 trial= 0.594  step= 0.609 mean= 0.594
 gam= 0.158 g(H,U,f)=  0.967E-02 0.285E-03 0.374E-24 ort(H,U,f) =-0.222E-03 0.221E-03 0.735E-25
CGA:   3    -0.202705291638E+04   -0.19227E-01   -0.19227E-01  1304   0.996E-02-0.484E-06
 gam= 0.158 trial= 0.595  step= 0.511 mean= 0.595
 gam= 0.212 g(H,U,f)=  0.194E-02 0.166E-03 0.124E-25 ort(H,U,f) =-0.857E-04 0.838E-04-0.244E-25
CGA:   4    -0.202705545798E+04   -0.25416E-02   -0.25415E-02  1304   0.211E-02-0.187E-05
 gam= 0.212 trial= 0.591  step= 0.548 mean= 0.591
 gam= 0.218 g(H,U,f)=  0.408E-03 0.511E-04 0.121E-26 ort(H,U,f) =-0.699E-04 0.749E-04-0.319E-26
CGA:   5    -0.202705603559E+04   -0.57761E-03   -0.57772E-03  1304   0.459E-03 0.497E-05
 gam= 0.218 trial= 0.589  step= 0.711 mean= 0.589
 gam= 0.335 g(H,U,f)=  0.138E-03 0.161E-04 0.106E-27 ort(H,U,f) =-0.365E-04 0.336E-04-0.139E-27
CGA:   6    -0.202705619890E+04   -0.16331E-03   -0.16349E-03  1304   0.154E-03-0.287E-05
 gam= 0.335 trial= 0.595  step= 0.766 mean= 0.595
 gam= 0.347 g(H,U,f)=  0.504E-04 0.307E-05 0.132E-29 ort(H,U,f) =-0.877E-05 0.108E-04-0.668E-29
CGA:   7    -0.202705625770E+04   -0.58797E-04   -0.58627E-04  1304   0.534E-04 0.199E-05
 gam= 0.347 trial= 0.603  step= 0.713 mean= 0.603
 gam= 0.337 g(H,U,f)=  0.174E-04 0.619E-06 0.225E-28 ort(H,U,f) =-0.210E-05 0.149E-05 0.441E-29
CGA:   8    -0.202705627697E+04   -0.19264E-04   -0.19298E-04  1304   0.180E-04-0.615E-06
 gam= 0.337 trial= 0.609  step= 0.535 mean= 0.609
 gam= 0.313 g(H,U,f)=  0.553E-05 0.102E-06 0.120E-29 ort(H,U,f) = 0.490E-06 0.898E-07-0.565E-29
CGA:   9    -0.202705628170E+04   -0.47378E-05   -0.47593E-05  1304   0.564E-05 0.580E-06
 gam= 0.313 trial= 0.605  step= 0.594 mean= 0.605
 gam= 0.390 g(H,U,f)=  0.214E-05 0.607E-07 0.219E-29 ort(H,U,f) =-0.504E-06-0.562E-07-0.780E-30
CGA:  10    -0.202705628343E+04   -0.17308E-05   -0.17275E-05  1304   0.220E-05-0.560E-06
 gam= 0.390 trial= 0.605  step= 0.506 mean= 0.605
 gam= 0.284 g(H,U,f)=  0.597E-06 0.276E-07 0.589E-30 ort(H,U,f) = 0.257E-06-0.140E-07-0.971E-30
CGA:  11    -0.202705628392E+04   -0.48853E-06   -0.50049E-06  1304   0.624E-06 0.243E-06
 gam= 0.284 trial= 0.600  step= 0.826 mean= 0.600
 gam= 0.496 g(H,U,f)=  0.296E-06 0.134E-07 0.355E-30 ort(H,U,f) =-0.109E-06 0.122E-08-0.248E-30
CGA:  12    -0.202705628420E+04   -0.27417E-06   -0.28618E-06  1304   0.310E-06-0.108E-06
 gam= 0.496 trial= 0.611  step= 0.771 mean= 0.611
 gam= 0.329 g(H,U,f)=  0.978E-07 0.420E-08 0.174E-31 ort(H,U,f) =-0.116E-07 0.516E-08-0.509E-31
CGA:  13    -0.202705628430E+04   -0.98342E-07   -0.98836E-07  1304   0.102E-06-0.639E-08
 gam= 0.329 trial= 0.619  step= 0.598 mean= 0.619
 final diagonalization
 163 F= -.20485096E+04 E0= -.20485096E+04  d E =-.826672E-03
 curvature:  -6.58 expect dE=-0.211E-01 dE for cont linesearch -0.166E-05
 trial: gam= 0.99163 g(F)=  0.317E-02 g(S)=  0.470E-04 ort =-0.123E-03 (trialstep = 0.324E+00)
 search vector abs. value=  0.619E-01
 bond charge predicted
       N       E                     dE             d eps       ncg     rms          ort
 gam= 0.000 g(H,U,f)=  0.177E+00 0.173E-01 0.234E-24 ort(H,U,f) = 0.000E+00 0.000E+00 0.000E+00
SDA:   1    -0.202698493232E+04    0.71352E-01    0.00000E+00  1304   0.194E+00 0.000E+00
 gam= 0.000 trial= 0.618  step= 0.560 mean= 0.618
 gam= 0.253 g(H,U,f)=  0.461E-01 0.294E-02 0.535E-22 ort(H,U,f) = 0.285E-02-0.283E-02-0.769E-22
CGA:   2    -0.202703923142E+04   -0.54299E-01   -0.54299E-01  1304   0.491E-01 0.170E-04
 gam= 0.253 trial= 0.615  step= 0.608 mean= 0.615
 gam= 0.156 g(H,U,f)=  0.743E-02 0.210E-03 0.137E-24 ort(H,U,f) =-0.156E-03 0.151E-03 0.246E-24
CGA:   3    -0.202705413852E+04   -0.14907E-01   -0.14907E-01  1304   0.764E-02-0.564E-05
 gam= 0.156 trial= 0.615  step= 0.513 mean= 0.615
 gam= 0.212 g(H,U,f)=  0.150E-02 0.123E-03 0.699E-26 ort(H,U,f) =-0.652E-04 0.747E-04-0.220E-25
CGA:   4    -0.202705609870E+04   -0.19602E-02   -0.19607E-02  1304   0.162E-02 0.955E-05
 gam= 0.212 trial= 0.610  step= 0.542 mean= 0.610
 gam= 0.234 g(H,U,f)=  0.340E-03 0.398E-04 0.678E-28 ort(H,U,f) =-0.619E-04 0.589E-04-0.240E-27
CGA:   5    -0.202705653879E+04   -0.44009E-03   -0.43999E-03  1304   0.379E-03-0.295E-05
 gam= 0.234 trial= 0.606  step= 0.649 mean= 0.606
 gam= 0.377 g(H,U,f)=  0.129E-03 0.139E-04 0.205E-28 ort(H,U,f) =-0.254E-04 0.288E-04-0.391E-29
CGA:   6    -0.202705666177E+04   -0.12298E-03   -0.12291E-03  1304   0.143E-03 0.332E-05
 gam= 0.377 trial= 0.608  step= 0.630 mean= 0.608
 gam= 0.522 g(H,U,f)=  0.700E-04 0.457E-05 0.900E-28 ort(H,U,f) =-0.151E-04 0.114E-04 0.395E-28
CGA:   7    -0.202705670712E+04   -0.45358E-04   -0.45398E-04  1304   0.746E-04-0.369E-05
 gam= 0.522 trial= 0.609  step= 0.492 mean= 0.609
 gam= 0.269 g(H,U,f)=  0.193E-04 0.720E-06 0.361E-28 ort(H,U,f) = 0.201E-06 0.354E-05 0.713E-28
CGA:   8    -0.202705672478E+04   -0.17651E-04   -0.17871E-04  1304   0.201E-04 0.374E-05
 gam= 0.269 trial= 0.603  step= 0.687 mean= 0.603
 gam= 0.260 g(H,U,f)=  0.512E-05 0.855E-07 0.219E-28 ort(H,U,f) =-0.130E-05 0.328E-06 0.440E-28
CGA:   9    -0.202705673198E+04   -0.72001E-05   -0.72410E-05  1304   0.521E-05-0.974E-06
 gam= 0.260 trial= 0.608  step= 0.662 mean= 0.608
 gam= 0.254 g(H,U,f)=  0.128E-05 0.463E-07 0.553E-29 ort(H,U,f) = 0.190E-06-0.456E-07-0.168E-28
CGA:  10    -0.202705673362E+04   -0.16450E-05   -0.16411E-05  1304   0.132E-05 0.145E-06
 gam= 0.254 trial= 0.610  step= 0.648 mean= 0.610
 gam= 0.441 g(H,U,f)=  0.560E-06 0.242E-07 0.187E-28 ort(H,U,f) = 0.145E-07-0.110E-07-0.223E-29
CGA:  11    -0.202705673406E+04   -0.44142E-06   -0.44120E-06  1304   0.584E-06 0.353E-08
 gam= 0.441 trial= 0.612  step= 0.662 mean= 0.612
 gam= 0.587 g(H,U,f)=  0.332E-06 0.106E-07 0.257E-30 ort(H,U,f) =-0.836E-07-0.166E-08-0.210E-29
CGA:  12    -0.202705673425E+04   -0.19158E-06   -0.19370E-06  1304   0.343E-06-0.853E-07
 gam= 0.587 trial= 0.615  step= 0.492 mean= 0.615
 gam= 0.284 g(H,U,f)=  0.924E-07 0.514E-08 0.192E-29 ort(H,U,f) = 0.701E-08 0.357E-08-0.267E-29
CGA:  13    -0.202705673432E+04   -0.71363E-07   -0.71968E-07  1304   0.975E-07 0.106E-07
 gam= 0.284 trial= 0.609  step= 0.624 mean= 0.609
 final diagonalization
 164 F= -.20485103E+04 E0= -.20485103E+04  d E =-.686338E-03
 trial-energy change:   -0.000686  1 .order   -0.000690   -0.001003   -0.000378
 step:   0.5326(harm=  0.5203)  dis= 0.00361  next Energy= -2048.510408 (dE=-0.807E-03)
 bond charge predicted
       N       E                     dE             d eps       ncg     rms          ort
 gam= 0.000 g(H,U,f)=  0.729E-01 0.712E-02 0.291E-24 ort(H,U,f) = 0.000E+00 0.000E+00 0.000E+00
SDA:   1    -0.202702708879E+04    0.29645E-01    0.00000E+00  1304   0.800E-01 0.000E+00
 gam= 0.000 trial= 0.609  step= 0.560 mean= 0.609
 gam= 0.253 g(H,U,f)=  0.190E-01 0.121E-02 0.756E-23 ort(H,U,f) = 0.118E-02-0.117E-02-0.108E-22
CGA:   2    -0.202704947601E+04   -0.22387E-01   -0.22387E-01  1304   0.202E-01 0.135E-04
 gam= 0.253 trial= 0.607  step= 0.608 mean= 0.607
 gam= 0.156 g(H,U,f)=  0.307E-02 0.865E-04 0.710E-25 ort(H,U,f) =-0.655E-04 0.615E-04 0.132E-24
CGA:   3    -0.202705562331E+04   -0.61473E-02   -0.61473E-02  1304   0.315E-02-0.399E-05
 gam= 0.156 trial= 0.607  step= 0.513 mean= 0.607
 gam= 0.212 g(H,U,f)=  0.618E-03 0.507E-04 0.565E-26 ort(H,U,f) =-0.246E-04 0.307E-04-0.178E-25
CGA:   4    -0.202705643126E+04   -0.80795E-03   -0.80823E-03  1304   0.668E-03 0.606E-05
 gam= 0.212 trial= 0.602  step= 0.543 mean= 0.602
 gam= 0.235 g(H,U,f)=  0.140E-03 0.164E-04 0.379E-28 ort(H,U,f) =-0.262E-04 0.242E-04-0.158E-27
CGA:   5    -0.202705661300E+04   -0.18174E-03   -0.18168E-03  1304   0.157E-03-0.199E-05
 gam= 0.235 trial= 0.599  step= 0.645 mean= 0.599
 gam= 0.373 g(H,U,f)=  0.528E-04 0.572E-05 0.195E-28 ort(H,U,f) =-0.973E-05 0.119E-04 0.911E-30
CGA:   6    -0.202705666345E+04   -0.50449E-04   -0.50400E-04  1304   0.585E-04 0.215E-05
 gam= 0.373 trial= 0.602  step= 0.641 mean= 0.602
 gam= 0.544 g(H,U,f)=  0.299E-04 0.188E-05 0.818E-28 ort(H,U,f) =-0.710E-05 0.463E-05 0.403E-28
CGA:   7    -0.202705668242E+04   -0.18968E-04   -0.19017E-04  1304   0.318E-04-0.247E-05
 gam= 0.544 trial= 0.604  step= 0.471 mean= 0.604
 gam= 0.255 g(H,U,f)=  0.781E-05 0.288E-06 0.344E-28 ort(H,U,f) = 0.846E-06 0.152E-05 0.680E-28
CGA:   8    -0.202705668943E+04   -0.70180E-05   -0.71746E-05  1304   0.810E-05 0.237E-05
 gam= 0.255 trial= 0.597  step= 0.695 mean= 0.597
 gam= 0.277 g(H,U,f)=  0.220E-05 0.391E-07 0.156E-28 ort(H,U,f) =-0.558E-06 0.140E-06 0.353E-28
CGA:   9    -0.202705669244E+04   -0.30031E-05   -0.30238E-05  1304   0.224E-05-0.418E-06
 gam= 0.277 trial= 0.602  step= 0.731 mean= 0.602
 gam= 0.377 g(H,U,f)=  0.812E-06 0.318E-07 0.607E-29 ort(H,U,f) =-0.199E-06-0.324E-07-0.159E-28
CGA:  10    -0.202705669320E+04   -0.76197E-06   -0.77695E-06  1304   0.844E-06-0.231E-06
 gam= 0.377 trial= 0.608  step= 0.343 mean= 0.608
 gam= 0.321 g(H,U,f)=  0.260E-06 0.108E-07 0.494E-30 ort(H,U,f) = 0.228E-06 0.109E-08-0.217E-31
CGA:  11    -0.202705669330E+04   -0.99477E-07   -0.12988E-06  1304   0.271E-06 0.229E-06
 gam= 0.321 trial= 0.595  step= 0.519 mean= 0.595
 final diagonalization
 165 F= -.20485104E+04 E0= -.20485104E+04  d E =-.797720E-03
 curvature:  -5.19 expect dE=-0.111E-01 dE for cont linesearch -0.660E-07
 trial: gam= 0.66297 g(F)=  0.202E-02 g(S)=  0.125E-03 ort =-0.281E-04 (trialstep = 0.366E+00)
 search vector abs. value=  0.293E-01
 bond charge predicted
       N       E                     dE             d eps       ncg     rms          ort
 gam= 0.000 g(H,U,f)=  0.102E+00 0.985E-02 0.143E-23 ort(H,U,f) = 0.000E+00 0.000E+00 0.000E+00
SDA:   1    -0.202701465374E+04    0.42039E-01    0.00000E+00  1304   0.112E+00 0.000E+00
 gam= 0.000 trial= 0.591  step= 0.563 mean= 0.591
 gam= 0.258 g(H,U,f)=  0.270E-01 0.175E-02 0.117E-21 ort(H,U,f) = 0.169E-02-0.166E-02-0.142E-21
CGA:   2    -0.202704609080E+04   -0.31437E-01   -0.31437E-01  1304   0.288E-01 0.348E-04
 gam= 0.258 trial= 0.590  step= 0.602 mean= 0.590
 gam= 0.164 g(H,U,f)=  0.458E-02 0.136E-03 0.142E-24 ort(H,U,f) =-0.124E-03 0.103E-03 0.433E-24
CGA:   3    -0.202705475286E+04   -0.86621E-02   -0.86622E-02  1304   0.472E-02-0.211E-04
 gam= 0.164 trial= 0.590  step= 0.486 mean= 0.590
 gam= 0.238 g(H,U,f)=  0.106E-02 0.665E-04 0.108E-26 ort(H,U,f) =-0.296E-04 0.471E-04 0.111E-25
CGA:   4    -0.202705589826E+04   -0.11454E-02   -0.11463E-02  1304   0.112E-02 0.175E-04
 gam= 0.238 trial= 0.585  step= 0.486 mean= 0.585
 gam= 0.274 g(H,U,f)=  0.280E-03 0.274E-04 0.164E-26 ort(H,U,f) =-0.534E-04 0.432E-04 0.380E-26
CGA:   5    -0.202705617266E+04   -0.27440E-03   -0.27390E-03  1304   0.307E-03-0.102E-04
 gam= 0.274 trial= 0.580  step= 0.512 mean= 0.580
 gam= 0.361 g(H,U,f)=  0.996E-04 0.115E-04 0.314E-27 ort(H,U,f) =-0.158E-04 0.222E-04 0.989E-27
CGA:   6    -0.202705625029E+04   -0.77636E-04   -0.77856E-04  1304   0.111E-03 0.641E-05
 gam= 0.361 trial= 0.577  step= 0.627 mean= 0.577
 gam= 0.403 g(H,U,f)=  0.405E-04 0.422E-05 0.105E-29 ort(H,U,f) =-0.117E-04 0.881E-05-0.329E-28
CGA:   7    -0.202705628573E+04   -0.35435E-04   -0.35508E-04  1304   0.448E-04-0.293E-05
 gam= 0.403 trial= 0.579  step= 0.620 mean= 0.579
 gam= 0.266 g(H,U,f)=  0.114E-04 0.563E-06 0.930E-29 ort(H,U,f) = 0.334E-06 0.243E-05 0.342E-28
CGA:   8    -0.202705629929E+04   -0.13562E-04   -0.13506E-04  1304   0.119E-04 0.276E-05
 gam= 0.266 trial= 0.581  step= 0.699 mean= 0.581
 gam= 0.422 g(H,U,f)=  0.492E-05 0.111E-06 0.222E-28 ort(H,U,f) =-0.142E-05 0.318E-06-0.270E-28
CGA:   9    -0.202705630365E+04   -0.43621E-05   -0.44272E-05  1304   0.503E-05-0.110E-05
 gam= 0.422 trial= 0.587  step= 0.375 mean= 0.587
 gam= 0.262 g(H,U,f)=  0.130E-05 0.195E-07 0.141E-30 ort(H,U,f) = 0.696E-06 0.494E-07 0.855E-30
CGA:  10    -0.202705630443E+04   -0.77573E-06   -0.85495E-06  1304   0.132E-05 0.745E-06
 gam= 0.262 trial= 0.577  step= 0.564 mean= 0.577
 gam= 0.336 g(H,U,f)=  0.425E-06 0.174E-07 0.324E-29 ort(H,U,f) = 0.670E-07-0.640E-08-0.172E-29
CGA:  11    -0.202705630485E+04   -0.42507E-06   -0.42564E-06  1304   0.442E-06 0.606E-07
 gam= 0.336 trial= 0.576  step= 1.487 mean= 0.576
 gam= 0.000 g(H,U,f)=  0.271E-05 0.677E-07 0.350E-28 ort(H,U,f) =-0.743E-06-0.269E-07-0.838E-29
CGA:  12    -0.202705630485E+04    0.70213E-08   -0.34360E-06  1304   0.278E-05-0.770E-06
 gam= 0.000 trial= 0.622  step= 0.221 mean= 0.622
 gam= 0.095 g(H,U,f)=  0.256E-06 0.780E-08 0.125E-29 ort(H,U,f) = 0.530E-06 0.159E-07 0.665E-29
CGA:  13    -0.202705630504E+04   -0.19812E-06   -0.30753E-06  1304   0.264E-06 0.546E-06
 gam= 0.095 trial= 0.602  step= 0.284 mean= 0.602
 gam= 0.391 g(H,U,f)=  0.995E-07 0.370E-08 0.609E-30 ort(H,U,f) = 0.104E-06 0.317E-08-0.131E-29
CGA:  14    -0.202705630507E+04   -0.27947E-07   -0.44774E-07  1304   0.103E-06 0.107E-06
 gam= 0.391 trial= 0.586  step= 0.851 mean= 0.586
 final diagonalization
 166 F= -.20485110E+04 E0= -.20485110E+04  d E =-.571965E-03
 trial-energy change:   -0.000572  1 .order   -0.000586   -0.000777   -0.000396
 step:   0.7463(harm=  0.7463)  dis= 0.00343  next Energy= -2048.511191 (dE=-0.792E-03)
 bond charge predicted
       N       E                     dE             d eps       ncg     rms          ort
 gam= 0.000 g(H,U,f)=  0.110E+00 0.106E-01 0.403E-24 ort(H,U,f) = 0.000E+00 0.000E+00 0.000E+00
SDA:   1    -0.202701053476E+04    0.45770E-01    0.00000E+00  1304   0.121E+00 0.000E+00
 gam= 0.000 trial= 0.599  step= 0.563 mean= 0.599
 gam= 0.258 g(H,U,f)=  0.292E-01 0.189E-02 0.409E-22 ort(H,U,f) = 0.182E-02-0.179E-02-0.502E-22
CGA:   2    -0.202704448414E+04   -0.33949E-01   -0.33950E-01  1304   0.311E-01 0.358E-04
 gam= 0.258 trial= 0.597  step= 0.601 mean= 0.597
 gam= 0.165 g(H,U,f)=  0.497E-02 0.147E-03 0.460E-25 ort(H,U,f) =-0.136E-03 0.114E-03 0.134E-24
CGA:   3    -0.202705383802E+04   -0.93539E-02   -0.93539E-02  1304   0.512E-02-0.220E-04
 gam= 0.165 trial= 0.597  step= 0.485 mean= 0.597
 gam= 0.239 g(H,U,f)=  0.115E-02 0.718E-04 0.269E-27 ort(H,U,f) =-0.331E-04 0.514E-04 0.300E-26
CGA:   4    -0.202705507623E+04   -0.12382E-02   -0.12392E-02  1304   0.122E-02 0.183E-04
 gam= 0.239 trial= 0.592  step= 0.483 mean= 0.592
 gam= 0.274 g(H,U,f)=  0.305E-03 0.300E-04 0.472E-27 ort(H,U,f) =-0.579E-04 0.472E-04 0.108E-26
CGA:   5    -0.202705537358E+04   -0.29735E-03   -0.29678E-03  1304   0.335E-03-0.107E-04
 gam= 0.274 trial= 0.586  step= 0.512 mean= 0.586
 gam= 0.358 g(H,U,f)=  0.108E-03 0.125E-04 0.998E-28 ort(H,U,f) =-0.176E-04 0.242E-04 0.295E-27
CGA:   6    -0.202705545832E+04   -0.84740E-04   -0.84985E-04  1304   0.120E-03 0.661E-05
 gam= 0.358 trial= 0.583  step= 0.629 mean= 0.583
 gam= 0.400 g(H,U,f)=  0.434E-04 0.459E-05 0.441E-30 ort(H,U,f) =-0.125E-04 0.957E-05-0.115E-28
CGA:   7    -0.202705549672E+04   -0.38403E-04   -0.38471E-04  1304   0.480E-04-0.297E-05
 gam= 0.400 trial= 0.585  step= 0.623 mean= 0.585
 gam= 0.269 g(H,U,f)=  0.123E-04 0.618E-06 0.305E-29 ort(H,U,f) = 0.208E-06 0.263E-05 0.102E-28
CGA:   8    -0.202705551136E+04   -0.14641E-04   -0.14587E-04  1304   0.129E-04 0.284E-05
 gam= 0.269 trial= 0.587  step= 0.693 mean= 0.587
 gam= 0.423 g(H,U,f)=  0.535E-05 0.123E-06 0.552E-29 ort(H,U,f) =-0.151E-05 0.356E-06-0.736E-29
CGA:   9    -0.202705551605E+04   -0.46820E-05   -0.47433E-05  1304   0.547E-05-0.116E-05
 gam= 0.423 trial= 0.592  step= 0.375 mean= 0.592
 gam= 0.258 g(H,U,f)=  0.139E-05 0.216E-07 0.389E-31 ort(H,U,f) = 0.722E-06 0.574E-07 0.200E-30
CGA:  10    -0.202705551689E+04   -0.84839E-06   -0.93288E-06  1304   0.141E-05 0.779E-06
 gam= 0.258 trial= 0.581  step= 0.569 mean= 0.581
 gam= 0.336 g(H,U,f)=  0.455E-06 0.184E-07 0.892E-30 ort(H,U,f) = 0.700E-07-0.633E-08-0.425E-30
CGA:  11    -0.202705551735E+04   -0.45767E-06   -0.45823E-06  1304   0.473E-06 0.637E-07
 gam= 0.336 trial= 0.581  step= 1.403 mean= 0.581
 gam= 0.000 g(H,U,f)=  0.256E-05 0.626E-07 0.791E-29 ort(H,U,f) =-0.727E-06-0.265E-07-0.214E-29
CGA:  12    -0.202705551739E+04   -0.36875E-07   -0.34716E-06  1304   0.262E-05-0.754E-06
 gam= 0.000 trial= 0.622  step= 0.218 mean= 0.622
 gam= 0.095 g(H,U,f)=  0.241E-06 0.732E-08 0.317E-30 ort(H,U,f) = 0.513E-06 0.150E-07 0.159E-29
CGA:  13    -0.202705551757E+04   -0.17929E-06   -0.28581E-06  1304   0.248E-06 0.528E-06
 gam= 0.095 trial= 0.601  step= 0.270 mean= 0.601
 gam= 0.396 g(H,U,f)=  0.947E-07 0.358E-08 0.104E-30 ort(H,U,f) = 0.102E-06 0.326E-08-0.268E-30
CGA:  14    -0.202705551759E+04   -0.22759E-07   -0.40204E-07  1304   0.982E-07 0.106E-06
 gam= 0.396 trial= 0.585  step= 0.739 mean= 0.585
 final diagonalization
 167 F= -.20485112E+04 E0= -.20485112E+04  d E =-.782548E-03
 curvature:  -5.15 expect dE=-0.107E-01 dE for cont linesearch -0.526E-06
 trial: gam= 0.93583 g(F)=  0.207E-02 g(S)=  0.347E-05 ort = 0.547E-04 (trialstep = 0.442E+00)
 search vector abs. value=  0.278E-01
 bond charge predicted
       N       E                     dE             d eps       ncg     rms          ort
 gam= 0.000 g(H,U,f)=  0.139E+00 0.129E-01 0.116E-24 ort(H,U,f) = 0.000E+00 0.000E+00 0.000E+00
SDA:   1    -0.202699734102E+04    0.58177E-01    0.00000E+00  1304   0.152E+00 0.000E+00
 gam= 0.000 trial= 0.593  step= 0.574 mean= 0.593
 gam= 0.262 g(H,U,f)=  0.372E-01 0.244E-02 0.313E-22 ort(H,U,f) = 0.220E-02-0.217E-02-0.400E-22
CGA:   2    -0.202704086250E+04   -0.43521E-01   -0.43522E-01  1304   0.397E-01 0.366E-04
 gam= 0.262 trial= 0.592  step= 0.595 mean= 0.592
 gam= 0.158 g(H,U,f)=  0.610E-02 0.177E-03 0.127E-26 ort(H,U,f) =-0.197E-03 0.172E-03 0.181E-25
CGA:   3    -0.202705266214E+04   -0.11800E-01   -0.11800E-01  1304   0.627E-02-0.249E-04
 gam= 0.158 trial= 0.592  step= 0.495 mean= 0.592
 gam= 0.236 g(H,U,f)=  0.139E-02 0.921E-04 0.142E-27 ort(H,U,f) =-0.554E-04 0.770E-04-0.104E-26
CGA:   4    -0.202705421226E+04   -0.15501E-02   -0.15512E-02  1304   0.148E-02 0.217E-04
 gam= 0.236 trial= 0.587  step= 0.488 mean= 0.587
 gam= 0.277 g(H,U,f)=  0.372E-03 0.385E-04 0.141E-28 ort(H,U,f) =-0.723E-04 0.612E-04-0.313E-28
CGA:   5    -0.202705457531E+04   -0.36305E-03   -0.36251E-03  1304   0.411E-03-0.110E-04
 gam= 0.277 trial= 0.582  step= 0.516 mean= 0.582
 gam= 0.369 g(H,U,f)=  0.135E-03 0.162E-04 0.142E-27 ort(H,U,f) =-0.256E-04 0.326E-04 0.174E-28
CGA:   6    -0.202705468017E+04   -0.10486E-03   -0.10509E-03  1304   0.151E-03 0.698E-05
 gam= 0.369 trial= 0.579  step= 0.618 mean= 0.579
 gam= 0.405 g(H,U,f)=  0.554E-04 0.587E-05 0.886E-28 ort(H,U,f) =-0.167E-04 0.131E-04 0.118E-27
CGA:   7    -0.202705472771E+04   -0.47537E-04   -0.47608E-04  1304   0.613E-04-0.362E-05
 gam= 0.405 trial= 0.581  step= 0.617 mean= 0.581
 gam= 0.271 g(H,U,f)=  0.158E-04 0.816E-06 0.188E-28 ort(H,U,f) =-0.254E-06 0.351E-05 0.646E-28
CGA:   8    -0.202705474624E+04   -0.18532E-04   -0.18472E-04  1304   0.166E-04 0.325E-05
 gam= 0.271 trial= 0.583  step= 0.687 mean= 0.583
 gam= 0.387 g(H,U,f)=  0.629E-05 0.148E-06 0.500E-28 ort(H,U,f) =-0.167E-05 0.438E-06 0.604E-28
CGA:   9    -0.202705475219E+04   -0.59526E-05   -0.60167E-05  1304   0.643E-05-0.123E-05
 gam= 0.387 trial= 0.588  step= 0.391 mean= 0.588
 gam= 0.267 g(H,U,f)=  0.169E-05 0.289E-07 0.254E-29 ort(H,U,f) = 0.875E-06 0.602E-07 0.167E-28
CGA:  10    -0.202705475326E+04   -0.10719E-05   -0.11639E-05  1304   0.172E-05 0.935E-06
 gam= 0.267 trial= 0.578  step= 0.619 mean= 0.578
 gam= 0.343 g(H,U,f)=  0.564E-06 0.262E-07 0.113E-29 ort(H,U,f) =-0.502E-07-0.107E-07-0.468E-29
CGA:  11    -0.202705475387E+04   -0.60911E-06   -0.61028E-06  1304   0.590E-06-0.608E-07
 gam= 0.343 trial= 0.580  step= 1.196 mean= 0.580
 gam= 0.000 g(H,U,f)=  0.107E-05 0.455E-07 0.221E-28 ort(H,U,f) =-0.422E-06-0.256E-07 0.214E-29
CGA:  12    -0.202705475407E+04   -0.20256E-06   -0.34051E-06  1304   0.111E-05-0.448E-06
 gam= 0.000 trial= 0.611  step= 0.233 mean= 0.611
 gam= 0.154 g(H,U,f)=  0.164E-06 0.734E-08 0.495E-30 ort(H,U,f) = 0.306E-06 0.142E-07 0.332E-29
CGA:  13    -0.202705475414E+04   -0.69478E-07   -0.12994E-06  1304   0.171E-06 0.321E-06
 gam= 0.154 trial= 0.592  step= 0.286 mean= 0.592
 final diagonalization
 168 F= -.20485117E+04 E0= -.20485117E+04  d E =-.539716E-03
 trial-energy change:   -0.000540  1 .order   -0.000553   -0.000939   -0.000167
 step:   0.5523(harm=  0.5378)  dis= 0.00258  next Energy= -2048.511742 (dE=-0.560E-03)
 bond charge predicted
       N       E                     dE             d eps       ncg     rms          ort
 gam= 0.000 g(H,U,f)=  0.861E-02 0.801E-03 0.349E-25 ort(H,U,f) = 0.000E+00 0.000E+00 0.000E+00
SDA:   1    -0.202705087601E+04    0.38781E-02    0.00000E+00  1304   0.941E-02 0.000E+00
 gam= 0.000 trial= 0.577  step= 0.574 mean= 0.577
 gam= 0.261 g(H,U,f)=  0.231E-02 0.151E-03 0.985E-25 ort(H,U,f) = 0.145E-03-0.135E-03-0.126E-24
CGA:   2    -0.202705357829E+04   -0.27023E-02   -0.27023E-02  1304   0.246E-02 0.108E-04
 gam= 0.261 trial= 0.577  step= 0.597 mean= 0.577
 gam= 0.158 g(H,U,f)=  0.378E-03 0.108E-04 0.607E-28 ort(H,U,f) =-0.165E-04 0.101E-04 0.977E-27
CGA:   3    -0.202705431301E+04   -0.73472E-03   -0.73479E-03  1304   0.389E-03-0.637E-05
 gam= 0.158 trial= 0.578  step= 0.491 mean= 0.578
 gam= 0.229 g(H,U,f)=  0.836E-04 0.561E-05 0.117E-28 ort(H,U,f) = 0.509E-06 0.470E-05-0.881E-28
CGA:   4    -0.202705440814E+04   -0.95130E-04   -0.95355E-04  1304   0.892E-04 0.521E-05
 gam= 0.229 trial= 0.573  step= 0.508 mean= 0.573
 gam= 0.294 g(H,U,f)=  0.239E-04 0.236E-05 0.921E-30 ort(H,U,f) =-0.640E-05 0.363E-05-0.236E-29
CGA:   5    -0.202705443121E+04   -0.23070E-04   -0.22980E-04  1304   0.262E-04-0.277E-05
 gam= 0.294 trial= 0.570  step= 0.480 mean= 0.570
 gam= 0.329 g(H,U,f)=  0.764E-05 0.100E-05 0.152E-28 ort(H,U,f) =-0.344E-06 0.207E-05 0.930E-30
CGA:   6    -0.202705443723E+04   -0.60194E-05   -0.60977E-05  1304   0.864E-05 0.173E-05
 gam= 0.329 trial= 0.565  step= 0.687 mean= 0.565
 gam= 0.500 g(H,U,f)=  0.393E-05 0.382E-06 0.109E-28 ort(H,U,f) =-0.157E-05 0.714E-06 0.131E-28
CGA:   7    -0.202705444034E+04   -0.31091E-05   -0.31614E-05  1304   0.432E-05-0.860E-06
 gam= 0.500 trial= 0.572  step= 0.521 mean= 0.572
 gam= 0.242 g(H,U,f)=  0.998E-06 0.452E-07 0.220E-29 ort(H,U,f) = 0.405E-06 0.250E-06 0.792E-29
CGA:   8    -0.202705444133E+04   -0.99673E-06   -0.10132E-05  1304   0.104E-05 0.655E-06
 gam= 0.242 trial= 0.569  step= 0.631 mean= 0.569
 gam= 0.317 g(H,U,f)=  0.318E-06 0.133E-07 0.299E-29 ort(H,U,f) =-0.101E-07 0.334E-07 0.482E-29
CGA:   9    -0.202705444171E+04   -0.38006E-06   -0.37923E-06  1304   0.331E-06 0.233E-07
 gam= 0.317 trial= 0.572  step= 0.701 mean= 0.572
 gam= 0.389 g(H,U,f)=  0.121E-06 0.755E-08 0.154E-32 ort(H,U,f) =-0.372E-07-0.274E-08 0.103E-30
CGA:  10    -0.202705444183E+04   -0.11602E-06   -0.11867E-06  1304   0.129E-06-0.399E-07
 gam= 0.389 trial= 0.579  step= 0.316 mean= 0.579
 gam= 0.389 g(H,U,f)=  0.478E-07 0.229E-08 0.137E-32 ort(H,U,f) = 0.500E-07 0.193E-08 0.390E-31
CGA:  11    -0.202705444184E+04   -0.11059E-07   -0.17883E-07  1304   0.500E-07 0.519E-07
 gam= 0.389 trial= 0.565  step= 0.325 mean= 0.565
 final diagonalization
 169 F= -.20485117E+04 E0= -.20485117E+04  d E =-.552618E-03
 curvature:  -3.44 expect dE=-0.456E-02 dE for cont linesearch -0.602E-06
 trial: gam= 0.74312 g(F)=  0.128E-02 g(S)=  0.400E-04 ort =-0.698E-04 (trialstep = 0.464E+00)
 search vector abs. value=  0.166E-01
 bond charge predicted
       N       E                     dE             d eps       ncg     rms          ort
 gam= 0.000 g(H,U,f)=  0.907E-01 0.823E-02 0.420E-25 ort(H,U,f) = 0.000E+00 0.000E+00 0.000E+00
SDA:   1    -0.202701718451E+04    0.37257E-01    0.00000E+00  1304   0.990E-01 0.000E+00
 gam= 0.000 trial= 0.553  step= 0.578 mean= 0.553
 gam= 0.261 g(H,U,f)=  0.243E-01 0.153E-02 0.236E-24 ort(H,U,f) = 0.141E-02-0.140E-02-0.407E-24
CGA:   2    -0.202704576407E+04   -0.28580E-01   -0.28579E-01  1304   0.258E-01 0.143E-04
 gam= 0.261 trial= 0.555  step= 0.592 mean= 0.555
 gam= 0.154 g(H,U,f)=  0.386E-02 0.115E-03 0.229E-24 ort(H,U,f) =-0.120E-03 0.112E-03 0.513E-25
CGA:   3    -0.202705340700E+04   -0.76429E-02   -0.76431E-02  1304   0.397E-02-0.810E-05
 gam= 0.154 trial= 0.557  step= 0.508 mean= 0.557
 gam= 0.216 g(H,U,f)=  0.795E-03 0.651E-04 0.235E-25 ort(H,U,f) =-0.364E-04 0.421E-04-0.408E-25
CGA:   4    -0.202705441568E+04   -0.10087E-02   -0.10088E-02  1304   0.860E-03 0.568E-05
 gam= 0.216 trial= 0.554  step= 0.537 mean= 0.554
 gam= 0.237 g(H,U,f)=  0.181E-03 0.228E-04 0.113E-26 ort(H,U,f) =-0.369E-04 0.342E-04-0.414E-26
CGA:   5    -0.202705464699E+04   -0.23131E-03   -0.23129E-03  1304   0.204E-03-0.272E-05
 gam= 0.237 trial= 0.553  step= 0.628 mean= 0.553
 gam= 0.385 g(H,U,f)=  0.705E-04 0.810E-05 0.134E-27 ort(H,U,f) =-0.137E-04 0.170E-04-0.474E-28
CGA:   6    -0.202705471102E+04   -0.64032E-04   -0.63907E-04  1304   0.786E-04 0.334E-05
 gam= 0.385 trial= 0.557  step= 0.620 mean= 0.557
 gam= 0.533 g(H,U,f)=  0.391E-04 0.281E-05 0.543E-27 ort(H,U,f) =-0.105E-04 0.682E-05 0.235E-27
CGA:   7    -0.202705473566E+04   -0.24637E-04   -0.24752E-04  1304   0.419E-04-0.368E-05
 gam= 0.533 trial= 0.560  step= 0.486 mean= 0.560
 gam= 0.243 g(H,U,f)=  0.979E-05 0.406E-06 0.114E-30 ort(H,U,f) = 0.697E-06 0.227E-05 0.972E-29
CGA:   8    -0.202705474525E+04   -0.95905E-05   -0.97002E-05  1304   0.102E-04 0.296E-05
 gam= 0.243 trial= 0.556  step= 0.703 mean= 0.556
 gam= 0.270 g(H,U,f)=  0.270E-05 0.540E-07 0.160E-28 ort(H,U,f) =-0.633E-06 0.195E-06 0.313E-28
CGA:   9    -0.202705474905E+04   -0.38047E-05   -0.38369E-05  1304   0.275E-05-0.438E-06
 gam= 0.270 trial= 0.564  step= 0.720 mean= 0.564
 gam= 0.350 g(H,U,f)=  0.920E-06 0.438E-07 0.370E-29 ort(H,U,f) =-0.186E-06-0.368E-07-0.119E-28
CGA:  10    -0.202705474998E+04   -0.93108E-06   -0.94854E-06  1304   0.964E-06-0.223E-06
 gam= 0.350 trial= 0.572  step= 0.371 mean= 0.572
 gam= 0.319 g(H,U,f)=  0.295E-06 0.124E-07 0.332E-31 ort(H,U,f) = 0.249E-06 0.254E-08-0.440E-31
CGA:  11    -0.202705475012E+04   -0.13933E-06   -0.16454E-06  1304   0.308E-06 0.251E-06
 gam= 0.319 trial= 0.562  step= 0.645 mean= 0.562
 gam= 0.588 g(H,U,f)=  0.167E-06 0.143E-07 0.179E-29 ort(H,U,f) =-0.308E-07-0.621E-08-0.132E-30
CGA:  12    -0.202705475024E+04   -0.12336E-06   -0.12509E-06  1304   0.181E-06-0.370E-07
 gam= 0.588 trial= 0.566  step= 2.380 mean= 0.566
 gam= 0.000 g(H,U,f)=  0.223E-05 0.149E-06 0.638E-28 ort(H,U,f) =-0.544E-06-0.289E-07-0.104E-28
CGA:  13    -0.202705474991E+04    0.33021E-06   -0.18941E-06  1304   0.238E-05-0.573E-06
 gam= 0.000 trial= 0.656  step= 0.283 mean= 0.656
 gam= 0.132 g(H,U,f)=  0.309E-06 0.558E-08 0.100E-29 ort(H,U,f) = 0.406E-06 0.195E-07 0.794E-29
CGA:  14    -0.202705475017E+04   -0.25653E-06   -0.33606E-06  1304   0.315E-06 0.426E-06
 gam= 0.132 trial= 0.638  step= 0.534 mean= 0.638
 gam= 0.459 g(H,U,f)=  0.132E-06 0.129E-07 0.479E-29 ort(H,U,f) = 0.486E-07-0.876E-08-0.448E-29
CGA:  15    -0.202705475027E+04   -0.96865E-07   -0.99039E-07  1304   0.145E-06 0.398E-07
 gam= 0.459 trial= 0.633  step= 1.200 mean= 0.633
 final diagonalization
 170 F= -.20485122E+04 E0= -.20485122E+04  d E =-.423281E-03
 trial-energy change:   -0.000423  1 .order   -0.000429   -0.000590   -0.000267
 step:   0.9494(harm=  0.8485)  dis= 0.00372  next Energy= -2048.512291 (dE=-0.557E-03)
 bond charge predicted
       N       E                     dE             d eps       ncg     rms          ort
 gam= 0.000 g(H,U,f)=  0.992E-01 0.899E-02 0.657E-25 ort(H,U,f) = 0.000E+00 0.000E+00 0.000E+00
SDA:   1    -0.202701365528E+04    0.41095E-01    0.00000E+00  1304   0.108E+00 0.000E+00
 gam= 0.000 trial= 0.661  step= 0.578 mean= 0.661
 gam= 0.261 g(H,U,f)=  0.265E-01 0.167E-02 0.402E-24 ort(H,U,f) = 0.154E-02-0.153E-02-0.700E-24
CGA:   2    -0.202704489966E+04   -0.31244E-01   -0.31245E-01  1304   0.282E-01 0.138E-04
 gam= 0.261 trial= 0.657  step= 0.592 mean= 0.657
 gam= 0.154 g(H,U,f)=  0.422E-02 0.126E-03 0.385E-24 ort(H,U,f) =-0.131E-03 0.123E-03 0.835E-25
CGA:   3    -0.202705325430E+04   -0.83546E-02   -0.83544E-02  1304   0.435E-02-0.788E-05
 gam= 0.154 trial= 0.654  step= 0.507 mean= 0.654
 gam= 0.218 g(H,U,f)=  0.877E-03 0.711E-04 0.372E-25 ort(H,U,f) =-0.405E-04 0.464E-04-0.646E-25
CGA:   4    -0.202705435628E+04   -0.11020E-02   -0.11024E-02  1304   0.948E-03 0.588E-05
 gam= 0.218 trial= 0.646  step= 0.532 mean= 0.646
 gam= 0.241 g(H,U,f)=  0.204E-03 0.251E-04 0.149E-26 ort(H,U,f) =-0.411E-04 0.379E-04-0.600E-26
CGA:   5    -0.202705460908E+04   -0.25280E-03   -0.25262E-03  1304   0.229E-03-0.314E-05
 gam= 0.241 trial= 0.641  step= 0.611 mean= 0.641
 gam= 0.396 g(H,U,f)=  0.814E-04 0.917E-05 0.704E-28 ort(H,U,f) =-0.157E-04 0.192E-04-0.870E-29
CGA:   6    -0.202705467872E+04   -0.69633E-04   -0.69685E-04  1304   0.905E-04 0.356E-05
 gam= 0.396 trial= 0.639  step= 0.597 mean= 0.639
 gam= 0.503 g(H,U,f)=  0.422E-04 0.335E-05 0.114E-26 ort(H,U,f) =-0.115E-04 0.799E-05 0.271E-27
CGA:   7    -0.202705470621E+04   -0.27496E-04   -0.27421E-04  1304   0.456E-04-0.355E-05
 gam= 0.503 trial= 0.637  step= 0.515 mean= 0.637
 gam= 0.245 g(H,U,f)=  0.107E-04 0.471E-06 0.414E-31 ort(H,U,f) = 0.189E-06 0.253E-05-0.599E-29
CGA:   8    -0.202705471732E+04   -0.11111E-04   -0.11276E-04  1304   0.112E-04 0.272E-05
 gam= 0.245 trial= 0.631  step= 0.716 mean= 0.631
 gam= 0.266 g(H,U,f)=  0.291E-05 0.580E-07 0.240E-28 ort(H,U,f) =-0.780E-06 0.221E-06 0.485E-28
CGA:   9    -0.202705472153E+04   -0.42089E-05   -0.42328E-05  1304   0.297E-05-0.559E-06
 gam= 0.266 trial= 0.635  step= 0.649 mean= 0.635
 gam= 0.240 g(H,U,f)=  0.683E-06 0.314E-07 0.223E-29 ort(H,U,f) = 0.153E-06-0.210E-07-0.113E-28
CGA:  10    -0.202705472245E+04   -0.91706E-06   -0.91613E-06  1304   0.714E-06 0.132E-06
 gam= 0.240 trial= 0.636  step= 0.734 mean= 0.636
 gam= 0.451 g(H,U,f)=  0.304E-06 0.176E-07 0.337E-29 ort(H,U,f) =-0.435E-07-0.120E-07 0.634E-30
CGA:  11    -0.202705472272E+04   -0.27107E-06   -0.27373E-06  1304   0.322E-06-0.556E-07
 gam= 0.451 trial= 0.641  step= 0.595 mean= 0.641
 gam= 0.401 g(H,U,f)=  0.124E-06 0.466E-08 0.583E-30 ort(H,U,f) = 0.112E-07-0.122E-08-0.153E-29
CGA:  12    -0.202705472281E+04   -0.88061E-07   -0.88270E-07  1304   0.129E-06 0.998E-08
 gam= 0.401 trial= 0.638  step= 0.884 mean= 0.638
 final diagonalization
 171 F= -.20485123E+04 E0= -.20485123E+04  d E =-.516715E-03
 curvature:  -5.16 expect dE=-0.155E-01 dE for cont linesearch -0.939E-05
 trial: gam= 2.26347 g(F)=  0.298E-02 g(S)=  0.402E-04 ort =-0.174E-03 (trialstep = 0.107E+00)
 search vector abs. value=  0.873E-01
 bond charge predicted
       N       E                     dE             d eps       ncg     rms          ort
 gam= 0.000 g(H,U,f)=  0.255E-01 0.233E-02 0.743E-25 ort(H,U,f) = 0.000E+00 0.000E+00 0.000E+00
SDA:   1    -0.202704452422E+04    0.10198E-01    0.00000E+00  1304   0.278E-01 0.000E+00
 gam= 0.000 trial= 0.651  step= 0.578 mean= 0.651
 gam= 0.260 g(H,U,f)=  0.679E-02 0.441E-03 0.174E-24 ort(H,U,f) = 0.412E-03-0.406E-03-0.272E-24
CGA:   2    -0.202705256680E+04   -0.80426E-02   -0.80428E-02  1304   0.723E-02 0.642E-05
 gam= 0.260 trial= 0.647  step= 0.594 mean= 0.647
 gam= 0.152 g(H,U,f)=  0.107E-02 0.308E-04 0.475E-25 ort(H,U,f) =-0.320E-04 0.300E-04 0.308E-25
CGA:   3    -0.202705471410E+04   -0.21473E-02   -0.21472E-02  1304   0.110E-02-0.196E-05
 gam= 0.152 trial= 0.644  step= 0.512 mean= 0.644
 gam= 0.216 g(H,U,f)=  0.219E-03 0.177E-04 0.135E-25 ort(H,U,f) =-0.111E-04 0.127E-04-0.216E-25
CGA:   4    -0.202705499478E+04   -0.28067E-03   -0.28078E-03  1304   0.237E-03 0.156E-05
 gam= 0.216 trial= 0.638  step= 0.539 mean= 0.638
 gam= 0.242 g(H,U,f)=  0.510E-04 0.638E-05 0.534E-28 ort(H,U,f) =-0.102E-04 0.961E-05-0.617E-27
CGA:   5    -0.202705505871E+04   -0.63936E-04   -0.63906E-04  1304   0.574E-04-0.588E-06
 gam= 0.242 trial= 0.633  step= 0.620 mean= 0.633
 gam= 0.400 g(H,U,f)=  0.207E-04 0.229E-05 0.163E-27 ort(H,U,f) =-0.376E-05 0.480E-05 0.170E-27
CGA:   6    -0.202705507645E+04   -0.17738E-04   -0.17745E-04  1304   0.229E-04 0.104E-05
 gam= 0.400 trial= 0.632  step= 0.598 mean= 0.632
 gam= 0.540 g(H,U,f)=  0.116E-04 0.811E-06 0.464E-27 ort(H,U,f) =-0.315E-05 0.198E-05 0.397E-27
CGA:   7    -0.202705508346E+04   -0.70110E-05   -0.69914E-05  1304   0.124E-04-0.117E-05
 gam= 0.540 trial= 0.631  step= 0.481 mean= 0.631
 gam= 0.237 g(H,U,f)=  0.282E-05 0.116E-06 0.327E-28 ort(H,U,f) = 0.302E-06 0.673E-06 0.187E-27
CGA:   8    -0.202705508621E+04   -0.27507E-05   -0.28236E-05  1304   0.293E-05 0.974E-06
 gam= 0.237 trial= 0.623  step= 0.715 mean= 0.623
 gam= 0.282 g(H,U,f)=  0.809E-06 0.176E-07 0.225E-28 ort(H,U,f) =-0.211E-06 0.571E-07 0.653E-28
CGA:   9    -0.202705508733E+04   -0.11237E-05   -0.11308E-05  1304   0.826E-06-0.153E-06
 gam= 0.282 trial= 0.628  step= 0.727 mean= 0.628
 gam= 0.394 g(H,U,f)=  0.311E-06 0.151E-07 0.876E-30 ort(H,U,f) =-0.784E-07-0.143E-07-0.816E-29
CGA:  10    -0.202705508762E+04   -0.28022E-06   -0.28476E-06  1304   0.326E-06-0.926E-07
 gam= 0.394 trial= 0.633  step= 0.339 mean= 0.633
 gam= 0.321 g(H,U,f)=  0.100E-06 0.452E-08 0.360E-30 ort(H,U,f) = 0.811E-07 0.840E-09 0.151E-29
CGA:  11    -0.202705508765E+04   -0.37158E-07   -0.49086E-07  1304   0.105E-06 0.820E-07
 gam= 0.321 trial= 0.618  step= 0.531 mean= 0.618
 final diagonalization
 172 F= -.20485125E+04 E0= -.20485125E+04  d E =-.252001E-03
 ZBRENT: can't locate minimum, use default step
 trial-energy change:   -0.000252  1 .order   -0.000255   -0.000280   -0.000230
 step:   0.4269(harm=  0.6050)  dis= 0.00390  next Energy= -2048.513044 (dE=-0.793E-03)
 bond charge predicted
       N       E                     dE             d eps       ncg     rms          ort
 gam= 0.000 g(H,U,f)=  0.229E+00 0.209E-01 0.117E-23 ort(H,U,f) = 0.000E+00 0.000E+00 0.000E+00
SDA:   1    -0.202696080758E+04    0.94280E-01    0.00000E+00  1304   0.250E+00 0.000E+00
 gam= 0.000 trial= 0.614  step= 0.578 mean= 0.614
 gam= 0.260 g(H,U,f)=  0.611E-01 0.397E-02 0.772E-22 ort(H,U,f) = 0.366E-02-0.365E-02-0.119E-21
CGA:   2    -0.202703318684E+04   -0.72379E-01   -0.72379E-01  1304   0.651E-01 0.106E-04
 gam= 0.260 trial= 0.612  step= 0.594 mean= 0.612
 gam= 0.151 g(H,U,f)=  0.955E-02 0.280E-03 0.240E-23 ort(H,U,f) =-0.273E-03 0.268E-03 0.159E-23
CGA:   3    -0.202705250622E+04   -0.19319E-01   -0.19319E-01  1304   0.983E-02-0.491E-05
 gam= 0.151 trial= 0.611  step= 0.514 mean= 0.611
 gam= 0.215 g(H,U,f)=  0.196E-02 0.161E-03 0.259E-24 ort(H,U,f) =-0.108E-03 0.113E-03-0.416E-24
CGA:   4    -0.202705503289E+04   -0.25267E-02   -0.25269E-02  1304   0.212E-02 0.489E-05
 gam= 0.215 trial= 0.606  step= 0.542 mean= 0.606
 gam= 0.235 g(H,U,f)=  0.441E-03 0.572E-04 0.252E-26 ort(H,U,f) =-0.868E-04 0.859E-04-0.232E-25
CGA:   5    -0.202705560670E+04   -0.57381E-03   -0.57378E-03  1304   0.499E-03-0.941E-06
 gam= 0.235 trial= 0.603  step= 0.655 mean= 0.603
 gam= 0.390 g(H,U,f)=  0.175E-03 0.196E-04 0.790E-26 ort(H,U,f) =-0.386E-04 0.413E-04 0.540E-26
CGA:   6    -0.202705576993E+04   -0.16323E-03   -0.16316E-03  1304   0.194E-03 0.270E-05
 gam= 0.390 trial= 0.605  step= 0.610 mean= 0.605
 gam= 0.517 g(H,U,f)=  0.942E-04 0.637E-05 0.101E-25 ort(H,U,f) =-0.199E-04 0.167E-04 0.121E-25
CGA:   7    -0.202705582956E+04   -0.59628E-04   -0.59635E-04  1304   0.101E-03-0.317E-05
 gam= 0.517 trial= 0.606  step= 0.495 mean= 0.606
 gam= 0.274 g(H,U,f)=  0.265E-04 0.103E-05 0.805E-27 ort(H,U,f) =-0.194E-05 0.522E-05 0.508E-26
CGA:   8    -0.202705585388E+04   -0.24315E-04   -0.24496E-04  1304   0.275E-04 0.328E-05
 gam= 0.274 trial= 0.600  step= 0.677 mean= 0.600
 gam= 0.245 g(H,U,f)=  0.662E-05 0.123E-06 0.167E-26 ort(H,U,f) =-0.150E-05 0.455E-06 0.335E-26
CGA:   9    -0.202705586346E+04   -0.95852E-05   -0.96256E-05  1304   0.674E-05-0.105E-05
 gam= 0.245 trial= 0.604  step= 0.641 mean= 0.604
 gam= 0.260 g(H,U,f)=  0.169E-05 0.600E-07 0.148E-27 ort(H,U,f) = 0.415E-06-0.589E-07-0.766E-27
CGA:  10    -0.202705586555E+04   -0.20856E-05   -0.20789E-05  1304   0.175E-05 0.356E-06
 gam= 0.260 trial= 0.606  step= 0.778 mean= 0.606
 gam= 0.737 g(H,U,f)=  0.124E-05 0.520E-07 0.931E-27 ort(H,U,f) =-0.393E-06-0.239E-07 0.130E-27
CGA:  11    -0.202705586623E+04   -0.67991E-06   -0.71590E-06  1304   0.129E-05-0.417E-06
 gam= 0.737 trial= 0.614  step= 0.354 mean= 0.614
 gam= 0.336 g(H,U,f)=  0.415E-06 0.186E-07 0.131E-27 ort(H,U,f) = 0.189E-06 0.896E-08 0.390E-27
CGA:  12    -0.202705586637E+04   -0.14783E-06   -0.17363E-06  1304   0.434E-06 0.198E-06
 gam= 0.336 trial= 0.601  step= 0.406 mean= 0.601
 gam= 0.490 g(H,U,f)=  0.201E-06 0.116E-07 0.124E-27 ort(H,U,f) = 0.799E-07 0.167E-08-0.258E-27
CGA:  13    -0.202705586647E+04   -0.93365E-07   -0.10160E-06  1304   0.213E-06 0.816E-07
 gam= 0.490 trial= 0.592  step= 0.842 mean= 0.592
 gam= 0.000 g(H,U,f)=  0.392E-06 0.992E-08 0.345E-28 ort(H,U,f) =-0.240E-06 0.290E-08-0.128E-29
CGA:  14    -0.202705586654E+04   -0.76740E-07   -0.10642E-06  1304   0.402E-06-0.237E-06
 gam= 0.000 trial= 0.604  step= 0.233 mean= 0.604
 final diagonalization
 173 F= -.20485129E+04 E0= -.20485129E+04  d E =-.694777E-03
 curvature:  -8.78 expect dE=-0.165E-01 dE for cont linesearch -0.407E-04
 ZBRENT: extrapolating
 opt :   0.5607  next Energy= -2048.512988 (dE=-0.737E-03)
 bond charge predicted
       N       E                     dE             d eps       ncg     rms          ort
 gam= 0.000 g(H,U,f)=  0.400E-01 0.365E-02 0.934E-24 ort(H,U,f) = 0.000E+00 0.000E+00 0.000E+00
SDA:   1    -0.202703946547E+04    0.16401E-01    0.00000E+00  1304   0.437E-01 0.000E+00
 gam= 0.000 trial= 0.586  step= 0.578 mean= 0.586
 gam= 0.260 g(H,U,f)=  0.107E-01 0.693E-03 0.333E-23 ort(H,U,f) = 0.647E-03-0.639E-03-0.512E-23
CGA:   2    -0.202705209327E+04   -0.12628E-01   -0.12628E-01  1304   0.114E-01 0.847E-05
 gam= 0.260 trial= 0.585  step= 0.594 mean= 0.585
 gam= 0.151 g(H,U,f)=  0.167E-02 0.486E-04 0.661E-24 ort(H,U,f) =-0.493E-04 0.468E-04 0.444E-24
CGA:   3    -0.202705546492E+04   -0.33716E-02   -0.33717E-02  1304   0.172E-02-0.258E-05
 gam= 0.151 trial= 0.586  step= 0.513 mean= 0.586
 gam= 0.215 g(H,U,f)=  0.341E-03 0.279E-04 0.173E-24 ort(H,U,f) =-0.177E-04 0.197E-04-0.274E-24
CGA:   4    -0.202705590607E+04   -0.44115E-03   -0.44122E-03  1304   0.369E-03 0.204E-05
 gam= 0.215 trial= 0.582  step= 0.542 mean= 0.582
 gam= 0.238 g(H,U,f)=  0.779E-04 0.998E-05 0.906E-27 ort(H,U,f) =-0.156E-04 0.149E-04-0.945E-26
CGA:   5    -0.202705600627E+04   -0.10020E-03   -0.10019E-03  1304   0.879E-04-0.631E-06
 gam= 0.238 trial= 0.580  step= 0.641 mean= 0.580
 gam= 0.388 g(H,U,f)=  0.306E-04 0.347E-05 0.342E-26 ort(H,U,f) =-0.603E-05 0.732E-05 0.266E-26
CGA:   6    -0.202705603443E+04   -0.28158E-04   -0.28119E-04  1304   0.341E-04 0.128E-05
 gam= 0.388 trial= 0.583  step= 0.621 mean= 0.583
 gam= 0.551 g(H,U,f)=  0.176E-04 0.115E-05 0.495E-26 ort(H,U,f) =-0.445E-05 0.290E-05 0.550E-26
CGA:   7    -0.202705604513E+04   -0.10697E-04   -0.10726E-04  1304   0.188E-04-0.155E-05
 gam= 0.551 trial= 0.585  step= 0.466 mean= 0.585
 gam= 0.245 g(H,U,f)=  0.443E-05 0.175E-06 0.447E-27 ort(H,U,f) = 0.386E-06 0.994E-06 0.250E-26
CGA:   8    -0.202705604922E+04   -0.40911E-05   -0.41733E-05  1304   0.461E-05 0.138E-05
 gam= 0.245 trial= 0.579  step= 0.703 mean= 0.579
 gam= 0.274 g(H,U,f)=  0.124E-05 0.248E-07 0.428E-27 ort(H,U,f) =-0.318E-06 0.845E-07 0.107E-26
CGA:   9    -0.202705605094E+04   -0.17233E-05   -0.17377E-05  1304   0.126E-05-0.233E-06
 gam= 0.274 trial= 0.585  step= 0.745 mean= 0.585
 gam= 0.420 g(H,U,f)=  0.507E-06 0.226E-07 0.630E-28 ort(H,U,f) =-0.143E-06-0.231E-07-0.280E-27
CGA:  10    -0.202705605137E+04   -0.43259E-06   -0.44599E-06  1304   0.529E-06-0.166E-06
 gam= 0.420 trial= 0.593  step= 0.319 mean= 0.593
 gam= 0.325 g(H,U,f)=  0.164E-06 0.751E-08 0.398E-30 ort(H,U,f) = 0.137E-06 0.105E-08 0.435E-29
CGA:  11    -0.202705605143E+04   -0.54599E-07   -0.73297E-07  1304   0.172E-06 0.138E-06
 gam= 0.325 trial= 0.579  step= 0.445 mean= 0.579
 final diagonalization
 174 F= -.20485130E+04 E0= -.20485130E+04  d E =-.740308E-03
 curvature:  -9.17 expect dE=-0.227E-01 dE for cont linesearch -0.257E-06
 trial: gam= 0.56997 g(F)=  0.245E-02 g(S)=  0.306E-04 ort = 0.494E-04 (trialstep = 0.198E+00)
 search vector abs. value=  0.309E-01
 bond charge predicted
       N       E                     dE             d eps       ncg     rms          ort
 gam= 0.000 g(H,U,f)=  0.316E-01 0.301E-02 0.307E-23 ort(H,U,f) = 0.000E+00 0.000E+00 0.000E+00
SDA:   1    -0.202704342703E+04    0.12624E-01    0.00000E+00  1304   0.346E-01 0.000E+00
 gam= 0.000 trial= 0.573  step= 0.575 mean= 0.573
 gam= 0.261 g(H,U,f)=  0.842E-02 0.608E-03 0.228E-22 ort(H,U,f) = 0.603E-03-0.592E-03-0.268E-22
CGA:   2    -0.202705337348E+04   -0.99465E-02   -0.99464E-02  1304   0.903E-02 0.102E-04
 gam= 0.261 trial= 0.573  step= 0.598 mean= 0.573
 gam= 0.155 g(H,U,f)=  0.136E-02 0.430E-04 0.917E-24 ort(H,U,f) =-0.467E-04 0.415E-04 0.128E-23
CGA:   3    -0.202705607510E+04   -0.27016E-02   -0.27017E-02  1304   0.140E-02-0.522E-05
 gam= 0.155 trial= 0.574  step= 0.508 mean= 0.574
 gam= 0.222 g(H,U,f)=  0.291E-03 0.215E-04 0.469E-25 ort(H,U,f) =-0.132E-04 0.162E-04-0.181E-24
CGA:   4    -0.202705643123E+04   -0.35613E-03   -0.35623E-03  1304   0.312E-03 0.308E-05
 gam= 0.222 trial= 0.571  step= 0.535 mean= 0.571
 gam= 0.252 g(H,U,f)=  0.704E-04 0.831E-05 0.132E-25 ort(H,U,f) =-0.150E-04 0.127E-04-0.359E-26
CGA:   5    -0.202705651495E+04   -0.83718E-04   -0.83676E-04  1304   0.787E-04-0.234E-05
 gam= 0.252 trial= 0.569  step= 0.581 mean= 0.569
 gam= 0.397 g(H,U,f)=  0.282E-04 0.306E-05 0.342E-27 ort(H,U,f) =-0.368E-05 0.643E-05 0.184E-26
CGA:   6    -0.202705653767E+04   -0.22718E-04   -0.22701E-04  1304   0.313E-04 0.276E-05
 gam= 0.397 trial= 0.570  step= 0.608 mean= 0.570
 gam= 0.529 g(H,U,f)=  0.154E-04 0.112E-05 0.182E-26 ort(H,U,f) =-0.474E-05 0.253E-05-0.236E-26
CGA:   7    -0.202705654747E+04   -0.97992E-05   -0.98416E-05  1304   0.166E-04-0.221E-05
 gam= 0.529 trial= 0.572  step= 0.495 mean= 0.572
 gam= 0.233 g(H,U,f)=  0.371E-05 0.145E-06 0.134E-28 ort(H,U,f) = 0.644E-06 0.863E-06 0.488E-28
CGA:   8    -0.202705655122E+04   -0.37478E-05   -0.38056E-05  1304   0.386E-05 0.151E-05
 gam= 0.233 trial= 0.568  step= 0.683 mean= 0.568
 gam= 0.291 g(H,U,f)=  0.109E-05 0.296E-07 0.548E-28 ort(H,U,f) =-0.172E-06 0.864E-07 0.499E-28
CGA:   9    -0.202705655265E+04   -0.14335E-05   -0.14386E-05  1304   0.112E-05-0.861E-07
 gam= 0.291 trial= 0.573  step= 0.786 mean= 0.573
 gam= 0.570 g(H,U,f)=  0.605E-06 0.349E-07 0.132E-31 ort(H,U,f) =-0.265E-06-0.255E-07-0.954E-30
CGA:  10    -0.202705655305E+04   -0.39991E-06   -0.43094E-06  1304   0.640E-06-0.290E-06
 gam= 0.570 trial= 0.584  step= 0.268 mean= 0.584
 gam= 0.376 g(H,U,f)=  0.227E-06 0.133E-07 0.291E-31 ort(H,U,f) = 0.171E-06 0.433E-08 0.876E-30
CGA:  11    -0.202705655309E+04   -0.35798E-07   -0.63512E-07  1304   0.240E-06 0.175E-06
 gam= 0.376 trial= 0.568  step= 0.250 mean= 0.568
 final diagonalization
 175 F= -.20485134E+04 E0= -.20485134E+04  d E =-.409386E-03
 trial-energy change:   -0.000409  1 .order   -0.000417   -0.000495   -0.000339
 step:   0.6251(harm=  0.6251)  dis= 0.00310  next Energy= -2048.513774 (dE=-0.783E-03)
 bond charge predicted
       N       E                     dE             d eps       ncg     rms          ort
 gam= 0.000 g(H,U,f)=  0.148E+00 0.141E-01 0.988E-23 ort(H,U,f) = 0.000E+00 0.000E+00 0.000E+00
SDA:   1    -0.202699560642E+04    0.60947E-01    0.00000E+00  1304   0.162E+00 0.000E+00
 gam= 0.000 trial= 0.552  step= 0.575 mean= 0.552
 gam= 0.261 g(H,U,f)=  0.395E-01 0.285E-02 0.994E-21 ort(H,U,f) = 0.279E-02-0.277E-02-0.118E-20
CGA:   2    -0.202704221847E+04   -0.46612E-01   -0.46612E-01  1304   0.423E-01 0.180E-04
 gam= 0.261 trial= 0.554  step= 0.598 mean= 0.554
 gam= 0.155 g(H,U,f)=  0.638E-02 0.202E-03 0.570E-23 ort(H,U,f) =-0.209E-03 0.197E-03 0.767E-23
CGA:   3    -0.202705487405E+04   -0.12656E-01   -0.12656E-01  1304   0.658E-02-0.114E-04
 gam= 0.155 trial= 0.556  step= 0.508 mean= 0.556
 gam= 0.224 g(H,U,f)=  0.137E-02 0.101E-03 0.134E-24 ort(H,U,f) =-0.693E-04 0.767E-04-0.512E-24
CGA:   4    -0.202705654519E+04   -0.16711E-02   -0.16713E-02  1304   0.147E-02 0.738E-05
 gam= 0.224 trial= 0.553  step= 0.530 mean= 0.553
 gam= 0.252 g(H,U,f)=  0.331E-03 0.391E-04 0.370E-25 ort(H,U,f) =-0.653E-04 0.601E-04-0.107E-25
CGA:   5    -0.202705693565E+04   -0.39046E-03   -0.39040E-03  1304   0.370E-03-0.524E-05
 gam= 0.252 trial= 0.552  step= 0.588 mean= 0.552
 gam= 0.415 g(H,U,f)=  0.139E-03 0.144E-04 0.120E-26 ort(H,U,f) =-0.238E-04 0.301E-04 0.526E-26
CGA:   6    -0.202705704413E+04   -0.10848E-03   -0.10837E-03  1304   0.154E-03 0.633E-05
 gam= 0.415 trial= 0.554  step= 0.573 mean= 0.554
 gam= 0.466 g(H,U,f)=  0.664E-04 0.528E-05 0.338E-26 ort(H,U,f) =-0.174E-04 0.127E-04-0.512E-26
CGA:   7    -0.202705708890E+04   -0.44769E-04   -0.44814E-04  1304   0.717E-04-0.471E-05
 gam= 0.466 trial= 0.555  step= 0.550 mean= 0.555
 gam= 0.253 g(H,U,f)=  0.174E-04 0.721E-06 0.132E-28 ort(H,U,f) =-0.396E-06 0.373E-05-0.613E-28
CGA:   8    -0.202705710800E+04   -0.19098E-04   -0.19106E-04  1304   0.181E-04 0.334E-05
 gam= 0.253 trial= 0.555  step= 0.700 mean= 0.555
 gam= 0.288 g(H,U,f)=  0.514E-05 0.985E-07 0.394E-27 ort(H,U,f) =-0.121E-05 0.381E-06 0.131E-28
CGA:   9    -0.202705711458E+04   -0.65865E-05   -0.66472E-05  1304   0.523E-05-0.834E-06
 gam= 0.288 trial= 0.562  step= 0.537 mean= 0.562
 gam= 0.321 g(H,U,f)=  0.164E-05 0.400E-07 0.109E-28 ort(H,U,f) = 0.411E-06-0.772E-08-0.660E-28
CGA:  10    -0.202705711592E+04   -0.13354E-05   -0.13403E-05  1304   0.168E-05 0.403E-06
 gam= 0.321 trial= 0.561  step= 0.588 mean= 0.561
 gam= 0.489 g(H,U,f)=  0.799E-06 0.236E-07 0.510E-29 ort(H,U,f) =-0.220E-06-0.101E-07 0.699E-29
CGA:  11    -0.202705711645E+04   -0.52901E-06   -0.53227E-06  1304   0.823E-06-0.230E-06
 gam= 0.489 trial= 0.562  step= 0.455 mean= 0.562
 gam= 0.309 g(H,U,f)=  0.246E-06 0.824E-08 0.891E-29 ort(H,U,f) = 0.108E-06 0.444E-09 0.112E-28
CGA:  12    -0.202705711660E+04   -0.15557E-06   -0.16137E-06  1304   0.254E-06 0.109E-06
 gam= 0.309 trial= 0.557  step= 0.719 mean= 0.557
 gam= 0.448 g(H,U,f)=  0.108E-06 0.615E-08 0.200E-28 ort(H,U,f) =-0.312E-07 0.645E-09-0.185E-28
CGA:  13    -0.202705711670E+04   -0.10102E-06   -0.10341E-06  1304   0.114E-06-0.306E-07
 gam= 0.448 trial= 0.565  step= 0.969 mean= 0.565
 gam= 0.000 g(H,U,f)=  0.207E-06 0.638E-08 0.144E-29 ort(H,U,f) =-0.798E-07-0.592E-09-0.311E-29
CGA:  14    -0.202705711674E+04   -0.32160E-07   -0.48488E-07  1304   0.213E-06-0.804E-07
 gam= 0.000 trial= 0.585  step= 0.207 mean= 0.585
 final diagonalization
 176 F= -.20485138E+04 E0= -.20485138E+04  d E =-.773431E-03
 curvature:  -3.85 expect dE=-0.865E-02 dE for cont linesearch -0.417E-07
 trial: gam= 0.96211 g(F)=  0.223E-02 g(S)=  0.135E-04 ort = 0.183E-04 (trialstep = 0.283E+00)
 search vector abs. value=  0.309E-01
 bond charge predicted
       N       E                     dE             d eps       ncg     rms          ort
 gam= 0.000 g(H,U,f)=  0.638E-01 0.595E-02 0.174E-23 ort(H,U,f) = 0.000E+00 0.000E+00 0.000E+00
SDA:   1    -0.202703029608E+04    0.26821E-01    0.00000E+00  1304   0.697E-01 0.000E+00
 gam= 0.000 trial= 0.566  step= 0.577 mean= 0.566
 gam= 0.262 g(H,U,f)=  0.171E-01 0.118E-02 0.199E-22 ort(H,U,f) = 0.114E-02-0.112E-02-0.216E-22
CGA:   2    -0.202705042612E+04   -0.20130E-01   -0.20130E-01  1304   0.183E-01 0.195E-04
 gam= 0.262 trial= 0.567  step= 0.594 mean= 0.567
 gam= 0.157 g(H,U,f)=  0.278E-02 0.797E-04 0.798E-25 ort(H,U,f) =-0.912E-04 0.787E-04 0.264E-24
CGA:   3    -0.202705585879E+04   -0.54327E-02   -0.54328E-02  1304   0.286E-02-0.125E-04
 gam= 0.157 trial= 0.568  step= 0.502 mean= 0.568
 gam= 0.221 g(H,U,f)=  0.592E-03 0.408E-04 0.575E-26 ort(H,U,f) =-0.247E-04 0.344E-04-0.237E-25
CGA:   4    -0.202705657632E+04   -0.71754E-03   -0.71786E-03  1304   0.633E-03 0.968E-05
 gam= 0.221 trial= 0.565  step= 0.528 mean= 0.565
 gam= 0.258 g(H,U,f)=  0.147E-03 0.166E-04 0.797E-27 ort(H,U,f) =-0.306E-04 0.256E-04-0.194E-27
CGA:   5    -0.202705674394E+04   -0.16761E-03   -0.16752E-03  1304   0.163E-03-0.499E-05
 gam= 0.258 trial= 0.563  step= 0.559 mean= 0.563
 gam= 0.398 g(H,U,f)=  0.586E-04 0.641E-05 0.531E-29 ort(H,U,f) =-0.905E-05 0.133E-04-0.561E-28
CGA:   6    -0.202705678928E+04   -0.45341E-04   -0.45349E-04  1304   0.650E-04 0.422E-05
 gam= 0.398 trial= 0.563  step= 0.593 mean= 0.563
 gam= 0.471 g(H,U,f)=  0.283E-04 0.237E-05 0.480E-27 ort(H,U,f) =-0.878E-05 0.548E-05-0.159E-27
CGA:   7    -0.202705680900E+04   -0.19718E-04   -0.19768E-04  1304   0.306E-04-0.330E-05
 gam= 0.471 trial= 0.564  step= 0.540 mean= 0.564
 gam= 0.244 g(H,U,f)=  0.715E-05 0.334E-06 0.164E-28 ort(H,U,f) = 0.547E-06 0.173E-05 0.751E-28
CGA:   8    -0.202705681681E+04   -0.78118E-05   -0.78398E-05  1304   0.748E-05 0.227E-05
 gam= 0.244 trial= 0.563  step= 0.718 mean= 0.563
 gam= 0.308 g(H,U,f)=  0.226E-05 0.501E-07 0.574E-28 ort(H,U,f) =-0.720E-06 0.190E-06 0.650E-28
CGA:   9    -0.202705681965E+04   -0.28456E-05   -0.28869E-05  1304   0.231E-05-0.530E-06
 gam= 0.308 trial= 0.571  step= 0.526 mean= 0.571
 gam= 0.263 g(H,U,f)=  0.591E-06 0.158E-07 0.124E-30 ort(H,U,f) = 0.304E-06 0.353E-08-0.358E-29
CGA:  10    -0.202705682021E+04   -0.55649E-06   -0.56332E-06  1304   0.607E-06 0.308E-06
 gam= 0.263 trial= 0.568  step= 0.748 mean= 0.568
 gam= 0.689 g(H,U,f)=  0.406E-06 0.124E-07 0.355E-29 ort(H,U,f) =-0.186E-06-0.533E-08 0.439E-29
CGA:  11    -0.202705682045E+04   -0.24043E-06   -0.25760E-06  1304   0.418E-06-0.191E-06
 gam= 0.689 trial= 0.577  step= 0.334 mean= 0.577
 gam= 0.448 g(H,U,f)=  0.183E-06 0.468E-08 0.148E-29 ort(H,U,f) = 0.809E-07 0.870E-09 0.424E-29
CGA:  12    -0.202705682049E+04   -0.37930E-07   -0.47895E-07  1304   0.188E-06 0.818E-07
 gam= 0.448 trial= 0.565  step= 0.340 mean= 0.565
 final diagonalization
 177 F= -.20485142E+04 E0= -.20485142E+04  d E =-.483517E-03
 trial-energy change:   -0.000484  1 .order   -0.000492   -0.000641   -0.000343
 step:   0.6080(harm=  0.6080)  dis= 0.00279  next Energy= -2048.514453 (dE=-0.688E-03)
 bond charge predicted
       N       E                     dE             d eps       ncg     rms          ort
 gam= 0.000 g(H,U,f)=  0.841E-01 0.783E-02 0.115E-23 ort(H,U,f) = 0.000E+00 0.000E+00 0.000E+00
SDA:   1    -0.202702114218E+04    0.35678E-01    0.00000E+00  1304   0.919E-01 0.000E+00
 gam= 0.000 trial= 0.554  step= 0.577 mean= 0.554
 gam= 0.262 g(H,U,f)=  0.225E-01 0.156E-02 0.195E-22 ort(H,U,f) = 0.150E-02-0.147E-02-0.212E-22
CGA:   2    -0.202704767727E+04   -0.26535E-01   -0.26535E-01  1304   0.241E-01 0.220E-04
 gam= 0.262 trial= 0.555  step= 0.594 mean= 0.555
 gam= 0.156 g(H,U,f)=  0.366E-02 0.105E-03 0.547E-25 ort(H,U,f) =-0.118E-03 0.103E-03 0.180E-24
CGA:   3    -0.202705483795E+04   -0.71607E-02   -0.71610E-02  1304   0.376E-02-0.144E-04
 gam= 0.156 trial= 0.557  step= 0.503 mean= 0.557
 gam= 0.221 g(H,U,f)=  0.778E-03 0.537E-04 0.361E-26 ort(H,U,f) =-0.340E-04 0.452E-04-0.148E-25
CGA:   4    -0.202705578319E+04   -0.94523E-03   -0.94553E-03  1304   0.832E-03 0.112E-04
 gam= 0.221 trial= 0.554  step= 0.528 mean= 0.554
 gam= 0.256 g(H,U,f)=  0.191E-03 0.217E-04 0.526E-27 ort(H,U,f) =-0.392E-04 0.336E-04-0.137E-27
CGA:   5    -0.202705600346E+04   -0.22027E-03   -0.22020E-03  1304   0.213E-03-0.566E-05
 gam= 0.256 trial= 0.553  step= 0.566 mean= 0.553
 gam= 0.401 g(H,U,f)=  0.770E-04 0.834E-05 0.511E-29 ort(H,U,f) =-0.124E-04 0.173E-04-0.444E-28
CGA:   6    -0.202705606334E+04   -0.59885E-04   -0.59854E-04  1304   0.854E-04 0.485E-05
 gam= 0.401 trial= 0.554  step= 0.588 mean= 0.554
 gam= 0.469 g(H,U,f)=  0.370E-04 0.307E-05 0.264E-27 ort(H,U,f) =-0.111E-04 0.720E-05-0.880E-28
CGA:   7    -0.202705608897E+04   -0.25623E-04   -0.25690E-04  1304   0.400E-04-0.385E-05
 gam= 0.469 trial= 0.555  step= 0.543 mean= 0.555
 gam= 0.247 g(H,U,f)=  0.943E-05 0.436E-06 0.841E-29 ort(H,U,f) = 0.460E-06 0.223E-05 0.399E-28
CGA:   8    -0.202705609933E+04   -0.10362E-04   -0.10378E-04  1304   0.987E-05 0.269E-05
 gam= 0.247 trial= 0.555  step= 0.718 mean= 0.555
 gam= 0.302 g(H,U,f)=  0.292E-05 0.613E-07 0.367E-28 ort(H,U,f) =-0.917E-06 0.243E-06 0.381E-28
CGA:   9    -0.202705610306E+04   -0.37271E-05   -0.37822E-05  1304   0.298E-05-0.674E-06
 gam= 0.302 trial= 0.563  step= 0.525 mean= 0.563
 gam= 0.264 g(H,U,f)=  0.766E-06 0.200E-07 0.194E-30 ort(H,U,f) = 0.406E-06 0.425E-08-0.350E-29
CGA:  10    -0.202705610378E+04   -0.72123E-06   -0.72893E-06  1304   0.786E-06 0.410E-06
 gam= 0.264 trial= 0.561  step= 0.776 mean= 0.561
 gam= 0.769 g(H,U,f)=  0.588E-06 0.170E-07 0.251E-29 ort(H,U,f) =-0.281E-06-0.764E-08 0.261E-29
CGA:  11    -0.202705610409E+04   -0.31578E-06   -0.34688E-06  1304   0.605E-06-0.289E-06
 gam= 0.769 trial= 0.572  step= 0.306 mean= 0.572
 gam= 0.485 g(H,U,f)=  0.286E-06 0.702E-08 0.116E-29 ort(H,U,f) = 0.113E-06 0.119E-08 0.307E-29
CGA:  12    -0.202705610414E+04   -0.43525E-07   -0.58581E-07  1304   0.293E-06 0.114E-06
 gam= 0.485 trial= 0.559  step= 0.289 mean= 0.559
 final diagonalization
 178 F= -.20485144E+04 E0= -.20485144E+04  d E =-.663150E-03
 curvature:  -4.15 expect dE=-0.788E-02 dE for cont linesearch -0.967E-07
 trial: gam= 0.88315 g(F)=  0.190E-02 g(S)=  0.595E-05 ort =-0.268E-04 (trialstep = 0.348E+00)
 search vector abs. value=  0.259E-01
 bond charge predicted
       N       E                     dE             d eps       ncg     rms          ort
 gam= 0.000 g(H,U,f)=  0.799E-01 0.712E-02 0.300E-24 ort(H,U,f) = 0.000E+00 0.000E+00 0.000E+00
SDA:   1    -0.202702244184E+04    0.33662E-01    0.00000E+00  1304   0.870E-01 0.000E+00
 gam= 0.000 trial= 0.545  step= 0.580 mean= 0.545
 gam= 0.261 g(H,U,f)=  0.214E-01 0.134E-02 0.447E-23 ort(H,U,f) = 0.116E-02-0.114E-02-0.559E-23
CGA:   2    -0.202704766259E+04   -0.25221E-01   -0.25220E-01  1304   0.227E-01 0.216E-04
 gam= 0.261 trial= 0.547  step= 0.587 mean= 0.547
 gam= 0.162 g(H,U,f)=  0.358E-02 0.109E-03 0.361E-25 ort(H,U,f) =-0.112E-03 0.962E-04 0.906E-25
CGA:   3    -0.202705434060E+04   -0.66780E-02   -0.66783E-02  1304   0.369E-02-0.156E-04
 gam= 0.162 trial= 0.549  step= 0.493 mean= 0.549
 gam= 0.220 g(H,U,f)=  0.758E-03 0.543E-04 0.111E-25 ort(H,U,f) =-0.288E-04 0.398E-04-0.209E-25
CGA:   4    -0.202705525033E+04   -0.90973E-03   -0.91004E-03  1304   0.812E-03 0.110E-04
 gam= 0.220 trial= 0.546  step= 0.526 mean= 0.546
 gam= 0.257 g(H,U,f)=  0.188E-03 0.208E-04 0.398E-27 ort(H,U,f) =-0.391E-04 0.329E-04 0.133E-26
CGA:   5    -0.202705546469E+04   -0.21436E-03   -0.21430E-03  1304   0.209E-03-0.629E-05
 gam= 0.257 trial= 0.545  step= 0.547 mean= 0.545
 gam= 0.400 g(H,U,f)=  0.751E-04 0.846E-05 0.610E-28 ort(H,U,f) =-0.121E-04 0.171E-04 0.295E-27
CGA:   6    -0.202705552131E+04   -0.56616E-04   -0.56612E-04  1304   0.835E-04 0.501E-05
 gam= 0.400 trial= 0.545  step= 0.587 mean= 0.545
 gam= 0.447 g(H,U,f)=  0.341E-04 0.322E-05 0.812E-27 ort(H,U,f) =-0.110E-04 0.731E-05 0.653E-27
CGA:   7    -0.202705554633E+04   -0.25028E-04   -0.25106E-04  1304   0.374E-04-0.372E-05
 gam= 0.447 trial= 0.547  step= 0.565 mean= 0.547
 gam= 0.248 g(H,U,f)=  0.881E-05 0.441E-06 0.106E-27 ort(H,U,f) = 0.315E-06 0.227E-05 0.412E-27
CGA:   8    -0.202705555644E+04   -0.10102E-04   -0.10079E-04  1304   0.925E-05 0.258E-05
 gam= 0.248 trial= 0.548  step= 0.708 mean= 0.548
 gam= 0.338 g(H,U,f)=  0.305E-05 0.783E-07 0.132E-28 ort(H,U,f) =-0.829E-06 0.230E-06 0.749E-28
CGA:   9    -0.202705555989E+04   -0.34552E-05   -0.35034E-05  1304   0.313E-05-0.600E-06
 gam= 0.338 trial= 0.556  step= 0.455 mean= 0.556
 gam= 0.295 g(H,U,f)=  0.908E-06 0.156E-07 0.745E-30 ort(H,U,f) = 0.396E-06 0.212E-07 0.918E-29
CGA:  10    -0.202705556053E+04   -0.64440E-06   -0.66534E-06  1304   0.924E-06 0.417E-06
 gam= 0.295 trial= 0.551  step= 0.624 mean= 0.551
 gam= 0.405 g(H,U,f)=  0.360E-06 0.138E-07 0.256E-29 ort(H,U,f) =-0.117E-06-0.254E-08 0.642E-29
CGA:  11    -0.202705556086E+04   -0.32286E-06   -0.32677E-06  1304   0.374E-06-0.119E-06
 gam= 0.405 trial= 0.555  step= 0.557 mean= 0.555
 gam= 0.356 g(H,U,f)=  0.129E-06 0.398E-08 0.313E-30 ort(H,U,f) = 0.445E-07-0.182E-08 0.181E-29
CGA:  12    -0.202705556095E+04   -0.90651E-07   -0.90689E-07  1304   0.133E-06 0.427E-07
 gam= 0.356 trial= 0.555  step= 0.799 mean= 0.555
 final diagonalization
 179 F= -.20485149E+04 E0= -.20485149E+04  d E =-.460018E-03
 trial-energy change:   -0.000460  1 .order   -0.000472   -0.000654   -0.000290
 step:   0.9584(harm=  0.6263)  dis= 0.00401  next Energy= -2048.515078 (dE=-0.650E-03)
 bond charge predicted
       N       E                     dE             d eps       ncg     rms          ort
 gam= 0.000 g(H,U,f)=  0.246E+00 0.219E-01 0.183E-23 ort(H,U,f) = 0.000E+00 0.000E+00 0.000E+00
SDA:   1    -0.202695185734E+04    0.10370E+00    0.00000E+00  1304   0.268E+00 0.000E+00
 gam= 0.000 trial= 0.567  step= 0.580 mean= 0.567
 gam= 0.261 g(H,U,f)=  0.658E-01 0.412E-02 0.260E-21 ort(H,U,f) = 0.353E-02-0.350E-02-0.324E-21
CGA:   2    -0.202702944334E+04   -0.77586E-01   -0.77586E-01  1304   0.700E-01 0.275E-04
 gam= 0.261 trial= 0.568  step= 0.587 mean= 0.568
 gam= 0.163 g(H,U,f)=  0.110E-01 0.337E-03 0.454E-24 ort(H,U,f) =-0.326E-03 0.300E-03 0.115E-23
CGA:   3    -0.202704997056E+04   -0.20527E-01   -0.20527E-01  1304   0.114E-01-0.256E-04
 gam= 0.163 trial= 0.569  step= 0.493 mean= 0.569
 gam= 0.221 g(H,U,f)=  0.235E-02 0.167E-03 0.896E-25 ort(H,U,f) =-0.104E-03 0.124E-03-0.171E-24
CGA:   4    -0.202705277605E+04   -0.28055E-02   -0.28062E-02  1304   0.252E-02 0.194E-04
 gam= 0.221 trial= 0.565  step= 0.522 mean= 0.565
 gam= 0.256 g(H,U,f)=  0.580E-03 0.643E-04 0.387E-26 ort(H,U,f) =-0.113E-03 0.102E-03 0.123E-25
CGA:   5    -0.202705343447E+04   -0.65842E-03   -0.65819E-03  1304   0.645E-03-0.107E-04
 gam= 0.256 trial= 0.563  step= 0.550 mean= 0.563
 gam= 0.410 g(H,U,f)=  0.238E-03 0.263E-04 0.437E-27 ort(H,U,f) =-0.441E-04 0.528E-04 0.245E-26
CGA:   6    -0.202705361099E+04   -0.17653E-03   -0.17658E-03  1304   0.264E-03 0.870E-05
 gam= 0.410 trial= 0.562  step= 0.570 mean= 0.562
 gam= 0.417 g(H,U,f)=  0.100E-03 0.988E-05 0.722E-26 ort(H,U,f) =-0.295E-04 0.233E-04 0.586E-26
CGA:   7    -0.202705368738E+04   -0.76381E-04   -0.76406E-04  1304   0.110E-03-0.616E-05
 gam= 0.417 trial= 0.563  step= 0.601 mean= 0.563
 gam= 0.263 g(H,U,f)=  0.277E-04 0.138E-05 0.905E-27 ort(H,U,f) =-0.222E-05 0.663E-05 0.363E-26
CGA:   8    -0.202705371980E+04   -0.32428E-04   -0.32344E-04  1304   0.290E-04 0.441E-05
 gam= 0.263 trial= 0.564  step= 0.683 mean= 0.564
 gam= 0.338 g(H,U,f)=  0.959E-05 0.226E-06 0.249E-27 ort(H,U,f) =-0.204E-05 0.741E-06 0.101E-26
CGA:   9    -0.202705373005E+04   -0.10242E-04   -0.10320E-04  1304   0.982E-05-0.130E-05
 gam= 0.338 trial= 0.570  step= 0.439 mean= 0.570
 gam= 0.306 g(H,U,f)=  0.296E-05 0.508E-07 0.570E-29 ort(H,U,f) = 0.833E-06 0.747E-07 0.900E-28
CGA:  10    -0.202705373205E+04   -0.20006E-05   -0.20600E-05  1304   0.301E-05 0.908E-06
 gam= 0.306 trial= 0.564  step= 0.614 mean= 0.564
 gam= 0.347 g(H,U,f)=  0.101E-05 0.370E-07 0.139E-28 ort(H,U,f) =-0.251E-06-0.817E-08 0.520E-28
CGA:  11    -0.202705373305E+04   -0.10032E-05   -0.10100E-05  1304   0.104E-05-0.259E-06
 gam= 0.347 trial= 0.566  step= 0.632 mean= 0.566
 gam= 0.348 g(H,U,f)=  0.352E-06 0.121E-07 0.720E-29 ort(H,U,f) = 0.777E-07-0.741E-08 0.231E-28
CGA:  12    -0.202705373335E+04   -0.30387E-06   -0.30160E-06  1304   0.364E-06 0.703E-07
 gam= 0.348 trial= 0.570  step= 0.779 mean= 0.570
 gam= 0.648 g(H,U,f)=  0.227E-06 0.849E-08 0.228E-28 ort(H,U,f) =-0.979E-07-0.445E-09-0.273E-28
CGA:  13    -0.202705373349E+04   -0.14099E-06   -0.15124E-06  1304   0.236E-06-0.983E-07
 gam= 0.648 trial= 0.580  step= 0.392 mean= 0.580
 gam= 0.370 g(H,U,f)=  0.843E-07 0.288E-08 0.549E-29 ort(H,U,f) = 0.196E-07 0.426E-08 0.251E-29
CGA:  14    -0.202705373353E+04   -0.31388E-07   -0.33760E-07  1304   0.872E-07 0.239E-07
 gam= 0.370 trial= 0.571  step= 0.516 mean= 0.571
 final diagonalization
 180 F= -.20485148E+04 E0= -.20485148E+04  d E =-.393036E-03
 curvature:   1.84 expect dE= 0.935E-02 dE for cont linesearch  0.709E-04
 ZBRENT: interpolating
 opt :   0.6256  next Energy= -2048.515003 (dE=-0.576E-03)
 bond charge predicted
       N       E                     dE             d eps       ncg     rms          ort
 gam= 0.000 g(H,U,f)=  0.730E-01 0.652E-02 0.173E-23 ort(H,U,f) = 0.000E+00 0.000E+00 0.000E+00
SDA:   1    -0.202702457767E+04    0.29156E-01    0.00000E+00  1304   0.795E-01 0.000E+00
 gam= 0.000 trial= 0.568  step= 0.580 mean= 0.568
 gam= 0.262 g(H,U,f)=  0.196E-01 0.123E-02 0.490E-25 ort(H,U,f) = 0.103E-02-0.105E-02-0.616E-25
CGA:   2    -0.202704764757E+04   -0.23070E-01   -0.23070E-01  1304   0.208E-01-0.201E-04
 gam= 0.262 trial= 0.569  step= 0.586 mean= 0.569
 gam= 0.162 g(H,U,f)=  0.328E-02 0.100E-03 0.292E-25 ort(H,U,f) =-0.764E-04 0.910E-04 0.751E-25
CGA:   3    -0.202705374433E+04   -0.60968E-02   -0.60966E-02  1304   0.338E-02 0.146E-04
 gam= 0.162 trial= 0.569  step= 0.496 mean= 0.569
 gam= 0.224 g(H,U,f)=  0.707E-03 0.502E-04 0.309E-25 ort(H,U,f) =-0.468E-04 0.368E-04-0.568E-25
CGA:   4    -0.202705458271E+04   -0.83838E-03   -0.83801E-03  1304   0.758E-03-0.994E-05
 gam= 0.224 trial= 0.566  step= 0.512 mean= 0.566
 gam= 0.249 g(H,U,f)=  0.170E-03 0.192E-04 0.140E-26 ort(H,U,f) =-0.248E-04 0.310E-04 0.361E-26
CGA:   5    -0.202705477589E+04   -0.19318E-03   -0.19335E-03  1304   0.189E-03 0.629E-05
 gam= 0.249 trial= 0.563  step= 0.575 mean= 0.563
 gam= 0.450 g(H,U,f)=  0.773E-04 0.776E-05 0.595E-28 ort(H,U,f) =-0.201E-04 0.153E-04 0.463E-27
CGA:   6    -0.202705483063E+04   -0.54740E-04   -0.54768E-04  1304   0.851E-04-0.478E-05
 gam= 0.450 trial= 0.564  step= 0.517 mean= 0.564
 gam= 0.346 g(H,U,f)=  0.266E-04 0.284E-05 0.118E-26 ort(H,U,f) =-0.415E-05 0.755E-05 0.119E-26
CGA:   7    -0.202705485197E+04   -0.21339E-04   -0.21419E-04  1304   0.294E-04 0.339E-05
 gam= 0.346 trial= 0.561  step= 0.715 mean= 0.561
 gam= 0.339 g(H,U,f)=  0.957E-05 0.401E-06 0.174E-27 ort(H,U,f) =-0.376E-05 0.163E-05 0.596E-27
CGA:   8    -0.202705486275E+04   -0.10780E-04   -0.10943E-04  1304   0.997E-05-0.213E-05
 gam= 0.339 trial= 0.569  step= 0.598 mean= 0.569
 gam= 0.232 g(H,U,f)=  0.227E-05 0.437E-07 0.598E-28 ort(H,U,f) = 0.422E-06 0.191E-06 0.216E-27
CGA:   9    -0.202705486552E+04   -0.27758E-05   -0.27668E-05  1304   0.231E-05 0.613E-06
 gam= 0.232 trial= 0.570  step= 0.630 mean= 0.570
 gam= 0.571 g(H,U,f)=  0.129E-05 0.294E-07 0.462E-29 ort(H,U,f) =-0.398E-06-0.126E-07-0.305E-28
CGA:  10    -0.202705486628E+04   -0.75974E-06   -0.77175E-06  1304   0.132E-05-0.411E-06
 gam= 0.571 trial= 0.573  step= 0.363 mean= 0.573
 gam= 0.272 g(H,U,f)=  0.348E-06 0.993E-08 0.837E-30 ort(H,U,f) = 0.164E-06-0.358E-08-0.544E-29
CGA:  11    -0.202705486646E+04   -0.17948E-06   -0.19648E-06  1304   0.358E-06 0.161E-06
 gam= 0.272 trial= 0.563  step= 0.457 mean= 0.563
 gam= 0.493 g(H,U,f)=  0.170E-06 0.674E-08 0.206E-29 ort(H,U,f) = 0.605E-07-0.333E-10 0.100E-29
CGA:  12    -0.202705486655E+04   -0.88585E-07   -0.91725E-07  1304   0.176E-06 0.605E-07
 gam= 0.493 trial= 0.558  step= 0.742 mean= 0.558
 final diagonalization
 181 F= -.20485150E+04 E0= -.20485150E+04  d E =-.566001E-03
 curvature:  -3.00 expect dE=-0.601E-02 dE for cont linesearch -0.176E-07
 trial: gam= 1.00432 g(F)=  0.198E-02 g(S)=  0.243E-04 ort =-0.123E-04 (trialstep = 0.372E+00)
 search vector abs. value=  0.281E-01
 bond charge predicted
       N       E                     dE             d eps       ncg     rms          ort
 gam= 0.000 g(H,U,f)=  0.101E+00 0.877E-02 0.301E-24 ort(H,U,f) = 0.000E+00 0.000E+00 0.000E+00
SDA:   1    -0.202701318523E+04    0.41681E-01    0.00000E+00  1304   0.110E+00 0.000E+00
 gam= 0.000 trial= 0.567  step= 0.586 mean= 0.567
 gam= 0.262 g(H,U,f)=  0.272E-01 0.156E-02 0.556E-24 ort(H,U,f) = 0.137E-02-0.135E-02-0.128E-23
CGA:   2    -0.202704536178E+04   -0.32177E-01   -0.32176E-01  1304   0.287E-01 0.190E-04
 gam= 0.262 trial= 0.568  step= 0.585 mean= 0.568
 gam= 0.157 g(H,U,f)=  0.438E-02 0.122E-03 0.699E-24 ort(H,U,f) =-0.150E-03 0.139E-03 0.115E-24
CGA:   3    -0.202705377501E+04   -0.84132E-02   -0.84133E-02  1304   0.451E-02-0.102E-04
 gam= 0.157 trial= 0.569  step= 0.504 mean= 0.569
 gam= 0.215 g(H,U,f)=  0.899E-03 0.691E-04 0.173E-24 ort(H,U,f) =-0.496E-04 0.570E-04-0.220E-24
CGA:   4    -0.202705491104E+04   -0.11360E-02   -0.11363E-02  1304   0.968E-03 0.735E-05
 gam= 0.215 trial= 0.565  step= 0.539 mean= 0.565
 gam= 0.246 g(H,U,f)=  0.213E-03 0.254E-04 0.268E-28 ort(H,U,f) =-0.433E-04 0.402E-04 0.201E-26
CGA:   5    -0.202705517248E+04   -0.26144E-03   -0.26140E-03  1304   0.238E-03-0.312E-05
 gam= 0.246 trial= 0.564  step= 0.605 mean= 0.564
 gam= 0.406 g(H,U,f)=  0.870E-04 0.958E-05 0.163E-26 ort(H,U,f) =-0.161E-04 0.201E-04 0.439E-26
CGA:   6    -0.202705524440E+04   -0.71915E-04   -0.71832E-04  1304   0.965E-04 0.401E-05
 gam= 0.406 trial= 0.566  step= 0.584 mean= 0.566
 gam= 0.500 g(H,U,f)=  0.448E-04 0.349E-05 0.922E-26 ort(H,U,f) =-0.122E-04 0.866E-05 0.833E-26
CGA:   7    -0.202705527302E+04   -0.28617E-04   -0.28648E-04  1304   0.483E-04-0.353E-05
 gam= 0.500 trial= 0.567  step= 0.516 mean= 0.567
 gam= 0.249 g(H,U,f)=  0.115E-04 0.506E-06 0.295E-27 ort(H,U,f) = 0.611E-07 0.269E-05 0.257E-26
CGA:   8    -0.202705528495E+04   -0.11933E-04   -0.12003E-04  1304   0.120E-04 0.276E-05
 gam= 0.249 trial= 0.565  step= 0.699 mean= 0.565
 gam= 0.267 g(H,U,f)=  0.315E-05 0.636E-07 0.281E-28 ort(H,U,f) =-0.735E-06 0.243E-06 0.299E-27
CGA:   9    -0.202705528936E+04   -0.44078E-05   -0.44412E-05  1304   0.321E-05-0.492E-06
 gam= 0.267 trial= 0.571  step= 0.638 mean= 0.571
 gam= 0.277 g(H,U,f)=  0.858E-06 0.334E-07 0.177E-30 ort(H,U,f) = 0.987E-07-0.175E-07-0.859E-29
CGA:  10    -0.202705529034E+04   -0.98502E-06   -0.98238E-06  1304   0.891E-06 0.812E-07
 gam= 0.277 trial= 0.575  step= 0.571 mean= 0.575
 gam= 0.427 g(H,U,f)=  0.367E-06 0.132E-07 0.524E-29 ort(H,U,f) = 0.189E-07-0.426E-08 0.121E-28
CGA:  11    -0.202705529060E+04   -0.26102E-06   -0.26098E-06  1304   0.380E-06 0.146E-07
 gam= 0.427 trial= 0.574  step= 0.614 mean= 0.574
 gam= 0.486 g(H,U,f)=  0.178E-06 0.658E-08 0.370E-29 ort(H,U,f) =-0.332E-07-0.209E-08-0.881E-29
CGA:  12    -0.202705529072E+04   -0.11781E-06   -0.11864E-06  1304   0.185E-06-0.352E-07
 gam= 0.486 trial= 0.576  step= 0.608 mean= 0.576
 gam= 0.367 g(H,U,f)=  0.644E-07 0.336E-08 0.502E-29 ort(H,U,f) =-0.160E-07 0.799E-09-0.700E-30
CGA:  13    -0.202705529077E+04   -0.50684E-07   -0.50976E-07  1304   0.678E-07-0.152E-07
 gam= 0.367 trial= 0.578  step= 0.502 mean= 0.578
 final diagonalization
 182 F= -.20485155E+04 E0= -.20485155E+04  d E =-.517100E-03
 trial-energy change:   -0.000517  1 .order   -0.000521   -0.000740   -0.000302
 step:   0.6535(harm=  0.6278)  dis= 0.00282  next Energy= -2048.515623 (dE=-0.630E-03)
 bond charge predicted
       N       E                     dE             d eps       ncg     rms          ort
 gam= 0.000 g(H,U,f)=  0.578E-01 0.502E-02 0.363E-24 ort(H,U,f) = 0.000E+00 0.000E+00 0.000E+00
SDA:   1    -0.202703120848E+04    0.24082E-01    0.00000E+00  1304   0.629E-01 0.000E+00
 gam= 0.000 trial= 0.574  step= 0.586 mean= 0.574
 gam= 0.262 g(H,U,f)=  0.156E-01 0.895E-03 0.384E-24 ort(H,U,f) = 0.791E-03-0.776E-03-0.881E-24
CGA:   2    -0.202704963527E+04   -0.18427E-01   -0.18427E-01  1304   0.165E-01 0.153E-04
 gam= 0.262 trial= 0.575  step= 0.586 mean= 0.575
 gam= 0.157 g(H,U,f)=  0.251E-02 0.693E-04 0.676E-24 ort(H,U,f) =-0.861E-04 0.786E-04 0.113E-24
CGA:   3    -0.202705445270E+04   -0.48174E-02   -0.48175E-02  1304   0.258E-02-0.749E-05
 gam= 0.157 trial= 0.575  step= 0.505 mean= 0.575
 gam= 0.214 g(H,U,f)=  0.512E-03 0.393E-04 0.215E-24 ort(H,U,f) =-0.271E-04 0.322E-04-0.271E-24
CGA:   4    -0.202705510261E+04   -0.64991E-03   -0.65009E-03  1304   0.551E-03 0.512E-05
 gam= 0.214 trial= 0.572  step= 0.543 mean= 0.572
 gam= 0.242 g(H,U,f)=  0.119E-03 0.144E-04 0.285E-29 ort(H,U,f) =-0.247E-04 0.226E-04 0.519E-27
CGA:   5    -0.202705525242E+04   -0.14981E-03   -0.14978E-03  1304   0.134E-03-0.208E-05
 gam= 0.242 trial= 0.570  step= 0.617 mean= 0.570
 gam= 0.392 g(H,U,f)=  0.470E-04 0.532E-05 0.254E-26 ort(H,U,f) =-0.843E-05 0.112E-04 0.536E-26
CGA:   6    -0.202705529355E+04   -0.41130E-04   -0.41065E-04  1304   0.524E-04 0.277E-05
 gam= 0.392 trial= 0.573  step= 0.610 mean= 0.573
 gam= 0.537 g(H,U,f)=  0.263E-04 0.186E-05 0.879E-26 ort(H,U,f) =-0.728E-05 0.461E-05 0.884E-26
CGA:   7    -0.202705530979E+04   -0.16246E-04   -0.16296E-04  1304   0.281E-04-0.267E-05
 gam= 0.537 trial= 0.575  step= 0.482 mean= 0.575
 gam= 0.242 g(H,U,f)=  0.654E-05 0.274E-06 0.427E-27 ort(H,U,f) = 0.583E-06 0.154E-05 0.314E-26
CGA:   8    -0.202705531613E+04   -0.63378E-05   -0.64358E-05  1304   0.681E-05 0.212E-05
 gam= 0.242 trial= 0.570  step= 0.688 mean= 0.570
 gam= 0.272 g(H,U,f)=  0.182E-05 0.378E-07 0.453E-29 ort(H,U,f) =-0.349E-06 0.138E-06 0.126E-27
CGA:   9    -0.202705531864E+04   -0.25091E-05   -0.25216E-05  1304   0.185E-05-0.210E-06
 gam= 0.272 trial= 0.576  step= 0.751 mean= 0.576
 gam= 0.446 g(H,U,f)=  0.791E-06 0.355E-07 0.555E-29 ort(H,U,f) =-0.269E-06-0.258E-07 0.430E-28
CGA:  10    -0.202705531929E+04   -0.64886E-06   -0.67475E-06  1304   0.827E-06-0.295E-06
 gam= 0.446 trial= 0.585  step= 0.302 mean= 0.585
 gam= 0.329 g(H,U,f)=  0.259E-06 0.123E-07 0.134E-29 ort(H,U,f) = 0.228E-06 0.427E-08 0.122E-28
CGA:  11    -0.202705531936E+04   -0.72592E-07   -0.10511E-06  1304   0.272E-06 0.232E-06
 gam= 0.329 trial= 0.570  step= 0.355 mean= 0.570
 final diagonalization
 183 F= -.20485156E+04 E0= -.20485156E+04  d E =-.616618E-03
 curvature:  -4.39 expect dE=-0.848E-02 dE for cont linesearch -0.842E-06
 trial: gam= 1.02276 g(F)=  0.192E-02 g(S)=  0.789E-05 ort =-0.734E-04 (trialstep = 0.386E+00)
 search vector abs. value=  0.312E-01
 bond charge predicted
       N       E                     dE             d eps       ncg     rms          ort
 gam= 0.000 g(H,U,f)=  0.123E+00 0.108E-01 0.245E-23 ort(H,U,f) = 0.000E+00 0.000E+00 0.000E+00
SDA:   1    -0.202700517959E+04    0.50140E-01    0.00000E+00  1304   0.134E+00 0.000E+00
 gam= 0.000 trial= 0.560  step= 0.583 mean= 0.560
 gam= 0.265 g(H,U,f)=  0.333E-01 0.209E-02 0.356E-22 ort(H,U,f) = 0.181E-02-0.180E-02-0.458E-22
CGA:   2    -0.202704418484E+04   -0.39005E-01   -0.39005E-01  1304   0.354E-01 0.764E-05
 gam= 0.265 trial= 0.561  step= 0.582 mean= 0.561
 gam= 0.159 g(H,U,f)=  0.546E-02 0.170E-03 0.251E-23 ort(H,U,f) =-0.167E-03 0.165E-03 0.189E-23
CGA:   3    -0.202705447899E+04   -0.10294E-01   -0.10294E-01  1304   0.563E-02-0.187E-05
 gam= 0.159 trial= 0.562  step= 0.503 mean= 0.562
 gam= 0.213 g(H,U,f)=  0.111E-02 0.897E-04 0.449E-24 ort(H,U,f) =-0.595E-04 0.600E-04-0.699E-24
CGA:   4    -0.202705589487E+04   -0.14159E-02   -0.14159E-02  1304   0.120E-02 0.473E-06
 gam= 0.213 trial= 0.559  step= 0.553 mean= 0.559
 gam= 0.224 g(H,U,f)=  0.238E-03 0.310E-04 0.751E-27 ort(H,U,f) =-0.463E-04 0.483E-04 0.152E-25
CGA:   5    -0.202705622641E+04   -0.33154E-03   -0.33155E-03  1304   0.269E-03 0.203E-05
 gam= 0.224 trial= 0.559  step= 0.693 mean= 0.559
 gam= 0.361 g(H,U,f)=  0.871E-04 0.998E-05 0.223E-25 ort(H,U,f) =-0.213E-04 0.218E-04 0.233E-25
CGA:   6    -0.202705631967E+04   -0.93256E-04   -0.93225E-04  1304   0.970E-04 0.460E-06
 gam= 0.361 trial= 0.565  step= 0.693 mean= 0.565
 gam= 0.474 g(H,U,f)=  0.432E-04 0.276E-05 0.136E-25 ort(H,U,f) =-0.860E-05 0.785E-05 0.254E-25
CGA:   7    -0.202705635332E+04   -0.33656E-04   -0.33705E-04  1304   0.460E-04-0.757E-06
 gam= 0.474 trial= 0.572  step= 0.490 mean= 0.572
 gam= 0.336 g(H,U,f)=  0.149E-04 0.536E-06 0.343E-26 ort(H,U,f) =-0.689E-06 0.228E-05 0.137E-25
CGA:   8    -0.202705636443E+04   -0.11109E-04   -0.11174E-04  1304   0.155E-04 0.159E-05
 gam= 0.336 trial= 0.568  step= 0.601 mean= 0.568
 gam= 0.265 g(H,U,f)=  0.404E-05 0.599E-07 0.148E-26 ort(H,U,f) =-0.106E-05 0.208E-06 0.550E-26
CGA:   9    -0.202705636922E+04   -0.47919E-05   -0.48060E-05  1304   0.410E-05-0.854E-06
 gam= 0.265 trial= 0.569  step= 0.567 mean= 0.569
 gam= 0.249 g(H,U,f)=  0.992E-06 0.279E-07 0.606E-31 ort(H,U,f) = 0.371E-06-0.234E-07 0.185E-28
CGA:  10    -0.202705637032E+04   -0.10969E-05   -0.10973E-05  1304   0.102E-05 0.348E-06
 gam= 0.249 trial= 0.569  step= 0.824 mean= 0.569
 gam= 0.858 g(H,U,f)=  0.848E-06 0.275E-07 0.373E-27 ort(H,U,f) =-0.337E-06-0.134E-07 0.379E-27
CGA:  11    -0.202705637073E+04   -0.41132E-06   -0.45582E-06  1304   0.875E-06-0.351E-06
 gam= 0.858 trial= 0.582  step= 0.296 mean= 0.582
 gam= 0.427 g(H,U,f)=  0.362E-06 0.122E-07 0.638E-28 ort(H,U,f) = 0.147E-06 0.456E-08 0.290E-27
CGA:  12    -0.202705637080E+04   -0.63323E-07   -0.85125E-07  1304   0.374E-06 0.152E-06
 gam= 0.427 trial= 0.568  step= 0.287 mean= 0.568
 final diagonalization
 184 F= -.20485161E+04 E0= -.20485161E+04  d E =-.481012E-03
 trial-energy change:   -0.000481  1 .order   -0.000490   -0.000716   -0.000264
 step:   0.6706(harm=  0.6117)  dis= 0.00301  next Energy= -2048.516185 (dE=-0.575E-03)
 bond charge predicted
       N       E                     dE             d eps       ncg     rms          ort
 gam= 0.000 g(H,U,f)=  0.667E-01 0.588E-02 0.231E-23 ort(H,U,f) = 0.000E+00 0.000E+00 0.000E+00
SDA:   1    -0.202702904945E+04    0.27321E-01    0.00000E+00  1304   0.726E-01 0.000E+00
 gam= 0.000 trial= 0.554  step= 0.584 mean= 0.554
 gam= 0.265 g(H,U,f)=  0.181E-01 0.113E-02 0.147E-22 ort(H,U,f) = 0.988E-03-0.981E-03-0.189E-22
CGA:   2    -0.202705023719E+04   -0.21188E-01   -0.21188E-01  1304   0.192E-01 0.705E-05
 gam= 0.265 trial= 0.555  step= 0.582 mean= 0.555
 gam= 0.159 g(H,U,f)=  0.296E-02 0.917E-04 0.188E-23 ort(H,U,f) =-0.908E-04 0.893E-04 0.144E-23
CGA:   3    -0.202705582867E+04   -0.55915E-02   -0.55915E-02  1304   0.306E-02-0.150E-05
 gam= 0.159 trial= 0.556  step= 0.503 mean= 0.556
 gam= 0.213 g(H,U,f)=  0.602E-03 0.486E-04 0.454E-24 ort(H,U,f) =-0.322E-04 0.324E-04-0.700E-24
CGA:   4    -0.202705659713E+04   -0.76846E-03   -0.76847E-03  1304   0.651E-03 0.211E-06
 gam= 0.213 trial= 0.554  step= 0.553 mean= 0.554
 gam= 0.223 g(H,U,f)=  0.128E-03 0.167E-04 0.776E-27 ort(H,U,f) =-0.246E-04 0.261E-04 0.148E-25
CGA:   5    -0.202705677713E+04   -0.18000E-03   -0.18000E-03  1304   0.145E-03 0.152E-05
 gam= 0.223 trial= 0.554  step= 0.697 mean= 0.554
 gam= 0.355 g(H,U,f)=  0.461E-04 0.536E-05 0.213E-25 ort(H,U,f) =-0.114E-04 0.117E-04 0.218E-25
CGA:   6    -0.202705682779E+04   -0.50657E-04   -0.50637E-04  1304   0.515E-04 0.271E-06
 gam= 0.355 trial= 0.561  step= 0.716 mean= 0.561
 gam= 0.456 g(H,U,f)=  0.221E-04 0.138E-05 0.105E-25 ort(H,U,f) =-0.458E-05 0.407E-05 0.213E-25
CGA:   7    -0.202705684622E+04   -0.18436E-04   -0.18476E-04  1304   0.235E-04-0.507E-06
 gam= 0.456 trial= 0.569  step= 0.495 mean= 0.569
 gam= 0.344 g(H,U,f)=  0.779E-05 0.277E-06 0.311E-26 ort(H,U,f) = 0.170E-07 0.114E-05 0.115E-25
CGA:   8    -0.202705685194E+04   -0.57129E-05   -0.57557E-05  1304   0.807E-05 0.116E-05
 gam= 0.344 trial= 0.565  step= 0.602 mean= 0.565
 gam= 0.295 g(H,U,f)=  0.234E-05 0.336E-07 0.115E-26 ort(H,U,f) =-0.788E-06 0.990E-07 0.443E-26
CGA:   9    -0.202705685447E+04   -0.25362E-05   -0.25491E-05  1304   0.238E-05-0.689E-06
 gam= 0.295 trial= 0.567  step= 0.523 mean= 0.567
 gam= 0.239 g(H,U,f)=  0.555E-06 0.127E-07 0.794E-30 ort(H,U,f) = 0.288E-06-0.132E-07 0.651E-28
CGA:  10    -0.202705685503E+04   -0.56237E-06   -0.56829E-06  1304   0.567E-06 0.275E-06
 gam= 0.239 trial= 0.565  step= 0.828 mean= 0.565
 gam= 0.735 g(H,U,f)=  0.404E-06 0.130E-07 0.229E-27 ort(H,U,f) =-0.187E-06-0.571E-08 0.279E-27
CGA:  11    -0.202705685527E+04   -0.23658E-06   -0.26200E-06  1304   0.417E-06-0.193E-06
 gam= 0.735 trial= 0.578  step= 0.328 mean= 0.578
 gam= 0.470 g(H,U,f)=  0.190E-06 0.547E-08 0.289E-28 ort(H,U,f) = 0.851E-07 0.308E-08 0.155E-27
CGA:  12    -0.202705685530E+04   -0.34153E-07   -0.45169E-07  1304   0.196E-06 0.882E-07
 gam= 0.470 trial= 0.565  step= 0.344 mean= 0.565
 final diagonalization
 185 F= -.20485162E+04 E0= -.20485162E+04  d E =-.545803E-03
 curvature:  -4.80 expect dE=-0.121E-01 dE for cont linesearch -0.515E-05
 trial: gam= 1.31758 g(F)=  0.251E-02 g(S)=  0.117E-04 ort =-0.183E-03 (trialstep = 0.246E+00)
 search vector abs. value=  0.562E-01
 bond charge predicted
       N       E                     dE             d eps       ncg     rms          ort
 gam= 0.000 g(H,U,f)=  0.928E-01 0.822E-02 0.449E-23 ort(H,U,f) = 0.000E+00 0.000E+00 0.000E+00
SDA:   1    -0.202701881132E+04    0.38044E-01    0.00000E+00  1304   0.101E+00 0.000E+00
 gam= 0.000 trial= 0.554  step= 0.582 mean= 0.554
 gam= 0.264 g(H,U,f)=  0.251E-01 0.159E-02 0.698E-22 ort(H,U,f) = 0.143E-02-0.142E-02-0.739E-22
CGA:   2    -0.202704818624E+04   -0.29375E-01   -0.29375E-01  1304   0.267E-01 0.464E-05
 gam= 0.264 trial= 0.556  step= 0.585 mean= 0.556
 gam= 0.156 g(H,U,f)=  0.404E-02 0.116E-03 0.827E-23 ort(H,U,f) =-0.131E-03 0.127E-03 0.587E-23
CGA:   3    -0.202705598594E+04   -0.77997E-02   -0.77997E-02  1304   0.415E-02-0.310E-05
 gam= 0.156 trial= 0.557  step= 0.504 mean= 0.557
 gam= 0.214 g(H,U,f)=  0.824E-03 0.651E-04 0.636E-24 ort(H,U,f) =-0.431E-04 0.456E-04-0.146E-23
CGA:   4    -0.202705703316E+04   -0.10472E-02   -0.10473E-02  1304   0.889E-03 0.250E-05
 gam= 0.214 trial= 0.554  step= 0.550 mean= 0.554
 gam= 0.227 g(H,U,f)=  0.179E-03 0.228E-04 0.426E-25 ort(H,U,f) =-0.354E-04 0.355E-04-0.982E-25
CGA:   5    -0.202705727776E+04   -0.24459E-03   -0.24459E-03  1304   0.201E-03 0.938E-07
 gam= 0.227 trial= 0.554  step= 0.676 mean= 0.554
 gam= 0.367 g(H,U,f)=  0.662E-04 0.769E-05 0.126E-25 ort(H,U,f) =-0.153E-04 0.164E-04-0.105E-25
CGA:   6    -0.202705734597E+04   -0.68213E-04   -0.68146E-04  1304   0.738E-04 0.109E-05
 gam= 0.367 trial= 0.560  step= 0.673 mean= 0.560
 gam= 0.512 g(H,U,f)=  0.356E-04 0.223E-05 0.967E-26 ort(H,U,f) =-0.790E-05 0.610E-05 0.777E-26
CGA:   7    -0.202705737086E+04   -0.24894E-04   -0.24995E-04  1304   0.378E-04-0.180E-05
 gam= 0.512 trial= 0.566  step= 0.466 mean= 0.566
 gam= 0.296 g(H,U,f)=  0.108E-04 0.416E-06 0.126E-26 ort(H,U,f) = 0.541E-07 0.200E-05 0.511E-26
CGA:   8    -0.202705737937E+04   -0.85077E-05   -0.86102E-05  1304   0.112E-04 0.206E-05
 gam= 0.296 trial= 0.561  step= 0.653 mean= 0.561
 gam= 0.266 g(H,U,f)=  0.293E-05 0.481E-07 0.217E-26 ort(H,U,f) =-0.921E-06 0.177E-06 0.375E-26
CGA:   9    -0.202705738320E+04   -0.38269E-05   -0.38611E-05  1304   0.298E-05-0.744E-06
 gam= 0.266 trial= 0.566  step= 0.624 mean= 0.566
 gam= 0.224 g(H,U,f)=  0.645E-06 0.243E-07 0.164E-27 ort(H,U,f) = 0.216E-06-0.232E-07-0.886E-27
CGA:  10    -0.202705738407E+04   -0.87423E-06   -0.86833E-06  1304   0.669E-06 0.193E-06
 gam= 0.224 trial= 0.568  step= 0.803 mean= 0.568
 gam= 0.479 g(H,U,f)=  0.303E-06 0.174E-07 0.907E-27 ort(H,U,f) =-0.808E-07-0.980E-08 0.826E-28
CGA:  11    -0.202705738435E+04   -0.27537E-06   -0.28587E-06  1304   0.321E-06-0.906E-07
 gam= 0.479 trial= 0.580  step= 0.551 mean= 0.580
 gam= 0.330 g(H,U,f)=  0.101E-06 0.429E-08 0.514E-28 ort(H,U,f) = 0.469E-07 0.755E-09-0.228E-27
CGA:  12    -0.202705738442E+04   -0.75372E-07   -0.76310E-07  1304   0.106E-06 0.477E-07
 gam= 0.330 trial= 0.579  step= 1.303 mean= 0.579
 final diagonalization
 186 F= -.20485166E+04 E0= -.20485166E+04  d E =-.453206E-03
 trial-energy change:   -0.000453  1 .order   -0.000457   -0.000561   -0.000354
 step:   0.6664(harm=  0.6664)  dis= 0.00396  next Energy= -2048.516916 (dE=-0.760E-03)
 bond charge predicted
       N       E                     dE             d eps       ncg     rms          ort
 gam= 0.000 g(H,U,f)=  0.271E+00 0.240E-01 0.137E-22 ort(H,U,f) = 0.000E+00 0.000E+00 0.000E+00
SDA:   1    -0.202694504848E+04    0.11234E+00    0.00000E+00  1304   0.295E+00 0.000E+00
 gam= 0.000 trial= 0.615  step= 0.582 mean= 0.615
 gam= 0.264 g(H,U,f)=  0.734E-01 0.465E-02 0.150E-20 ort(H,U,f) = 0.416E-02-0.416E-02-0.161E-20
CGA:   2    -0.202703093277E+04   -0.85884E-01   -0.85884E-01  1304   0.780E-01 0.857E-06
 gam= 0.264 trial= 0.613  step= 0.584 mean= 0.613
 gam= 0.156 g(H,U,f)=  0.118E-01 0.340E-03 0.416E-22 ort(H,U,f) =-0.381E-03 0.376E-03 0.295E-22
CGA:   3    -0.202705373430E+04   -0.22802E-01   -0.22801E-01  1304   0.122E-01-0.463E-05
 gam= 0.156 trial= 0.612  step= 0.504 mean= 0.612
 gam= 0.214 g(H,U,f)=  0.242E-02 0.191E-03 0.144E-23 ort(H,U,f) =-0.130E-03 0.135E-03-0.334E-23
CGA:   4    -0.202705680056E+04   -0.30663E-02   -0.30665E-02  1304   0.261E-02 0.483E-05
 gam= 0.214 trial= 0.606  step= 0.549 mean= 0.606
 gam= 0.228 g(H,U,f)=  0.528E-03 0.669E-04 0.123E-24 ort(H,U,f) =-0.105E-03 0.105E-03-0.276E-24
CGA:   5    -0.202705751615E+04   -0.71559E-03   -0.71558E-03  1304   0.595E-03-0.170E-06
 gam= 0.228 trial= 0.604  step= 0.669 mean= 0.604
 gam= 0.377 g(H,U,f)=  0.202E-03 0.229E-04 0.268E-25 ort(H,U,f) =-0.466E-04 0.488E-04-0.258E-25
CGA:   6    -0.202705771535E+04   -0.19921E-03   -0.19913E-03  1304   0.225E-03 0.224E-05
 gam= 0.377 trial= 0.607  step= 0.639 mean= 0.607
 gam= 0.509 g(H,U,f)=  0.107E-03 0.719E-05 0.322E-25 ort(H,U,f) =-0.223E-04 0.192E-04 0.191E-25
CGA:   7    -0.202705778727E+04   -0.71915E-04   -0.71965E-04  1304   0.114E-03-0.315E-05
 gam= 0.509 trial= 0.608  step= 0.486 mean= 0.608
 gam= 0.297 g(H,U,f)=  0.326E-04 0.129E-05 0.244E-26 ort(H,U,f) =-0.269E-05 0.614E-05 0.123E-25
CGA:   8    -0.202705781444E+04   -0.27167E-04   -0.27378E-04  1304   0.339E-04 0.345E-05
 gam= 0.297 trial= 0.602  step= 0.643 mean= 0.602
 gam= 0.246 g(H,U,f)=  0.821E-05 0.142E-06 0.662E-26 ort(H,U,f) =-0.182E-05 0.584E-06 0.105E-25
CGA:   9    -0.202705782564E+04   -0.11205E-04   -0.11231E-04  1304   0.835E-05-0.124E-05
 gam= 0.246 trial= 0.604  step= 0.630 mean= 0.604
 gam= 0.252 g(H,U,f)=  0.203E-05 0.747E-07 0.409E-27 ort(H,U,f) = 0.472E-06-0.495E-07-0.236E-26
CGA:  10    -0.202705782818E+04   -0.25378E-05   -0.25325E-05  1304   0.211E-05 0.422E-06
 gam= 0.252 trial= 0.606  step= 0.760 mean= 0.606
 gam= 0.654 g(H,U,f)=  0.133E-05 0.505E-07 0.212E-26 ort(H,U,f) =-0.367E-06-0.298E-07 0.427E-27
CGA:  11    -0.202705782899E+04   -0.81034E-06   -0.84079E-06  1304   0.138E-05-0.397E-06
 gam= 0.654 trial= 0.613  step= 0.375 mean= 0.613
 gam= 0.325 g(H,U,f)=  0.431E-06 0.175E-07 0.152E-27 ort(H,U,f) = 0.211E-06 0.508E-08 0.650E-27
CGA:  12    -0.202705782917E+04   -0.18386E-06   -0.20963E-06  1304   0.448E-06 0.216E-06
 gam= 0.325 trial= 0.601  step= 0.502 mean= 0.601
 gam= 0.489 g(H,U,f)=  0.204E-06 0.147E-07 0.733E-27 ort(H,U,f) = 0.365E-07 0.133E-08-0.805E-27
CGA:  13    -0.202705782930E+04   -0.12809E-06   -0.13013E-06  1304   0.219E-06 0.379E-07
 gam= 0.489 trial= 0.596  step= 1.082 mean= 0.596
 gam= 0.000 g(H,U,f)=  0.877E-06 0.152E-07 0.150E-27 ort(H,U,f) =-0.358E-06-0.140E-08-0.152E-27
CGA:  14    -0.202705782934E+04   -0.40891E-07   -0.12850E-06  1304   0.893E-06-0.360E-06
 gam= 0.000 trial= 0.621  step= 0.218 mean= 0.621
 final diagonalization
 187 F= -.20485169E+04 E0= -.20485169E+04  d E =-.771550E-03
 curvature:  -8.22 expect dE=-0.175E-01 dE for cont linesearch -0.672E-06
 trial: gam= 0.63918 g(F)=  0.212E-02 g(S)=  0.169E-04 ort = 0.678E-04 (trialstep = 0.330E+00)
 search vector abs. value=  0.252E-01
 bond charge predicted
       N       E                     dE             d eps       ncg     rms          ort
 gam= 0.000 g(H,U,f)=  0.792E-01 0.681E-02 0.120E-22 ort(H,U,f) = 0.000E+00 0.000E+00 0.000E+00
SDA:   1    -0.202702522656E+04    0.32603E-01    0.00000E+00  1304   0.860E-01 0.000E+00
 gam= 0.000 trial= 0.601  step= 0.585 mean= 0.601
 gam= 0.266 g(H,U,f)=  0.215E-01 0.138E-02 0.185E-21 ort(H,U,f) = 0.122E-02-0.122E-02-0.278E-21
CGA:   2    -0.202705040386E+04   -0.25177E-01   -0.25177E-01  1304   0.229E-01 0.456E-05
 gam= 0.266 trial= 0.600  step= 0.581 mean= 0.600
 gam= 0.159 g(H,U,f)=  0.353E-02 0.106E-03 0.774E-23 ort(H,U,f) =-0.959E-04 0.892E-04 0.774E-23
CGA:   3    -0.202705705210E+04   -0.66482E-02   -0.66482E-02  1304   0.363E-02-0.672E-05
 gam= 0.159 trial= 0.599  step= 0.494 mean= 0.599
 gam= 0.215 g(H,U,f)=  0.728E-03 0.544E-04 0.789E-24 ort(H,U,f) =-0.317E-04 0.357E-04-0.197E-23
CGA:   4    -0.202705794955E+04   -0.89745E-03   -0.89766E-03  1304   0.783E-03 0.396E-05
 gam= 0.215 trial= 0.594  step= 0.539 mean= 0.594
 gam= 0.239 g(H,U,f)=  0.167E-03 0.196E-04 0.137E-25 ort(H,U,f) =-0.339E-04 0.304E-04-0.526E-25
CGA:   5    -0.202705816060E+04   -0.21105E-03   -0.21095E-03  1304   0.187E-03-0.346E-05
 gam= 0.239 trial= 0.591  step= 0.596 mean= 0.591
 gam= 0.407 g(H,U,f)=  0.686E-04 0.760E-05 0.783E-29 ort(H,U,f) =-0.116E-04 0.154E-04-0.205E-28
CGA:   6    -0.202705821612E+04   -0.55524E-04   -0.55514E-04  1304   0.762E-04 0.385E-05
 gam= 0.407 trial= 0.591  step= 0.582 mean= 0.591
 gam= 0.500 g(H,U,f)=  0.353E-04 0.285E-05 0.326E-25 ort(H,U,f) =-0.102E-04 0.671E-05-0.199E-27
CGA:   7    -0.202705823876E+04   -0.22641E-04   -0.22625E-04  1304   0.381E-04-0.346E-05
 gam= 0.500 trial= 0.591  step= 0.529 mean= 0.591
 gam= 0.245 g(H,U,f)=  0.896E-05 0.384E-06 0.283E-26 ort(H,U,f) = 0.143E-06 0.217E-05 0.983E-26
CGA:   8    -0.202705824831E+04   -0.95477E-05   -0.96195E-05  1304   0.935E-05 0.231E-05
 gam= 0.245 trial= 0.588  step= 0.710 mean= 0.588
 gam= 0.276 g(H,U,f)=  0.252E-05 0.518E-07 0.142E-26 ort(H,U,f) =-0.559E-06 0.199E-06 0.378E-26
CGA:   9    -0.202705825181E+04   -0.34973E-05   -0.35194E-05  1304   0.258E-05-0.360E-06
 gam= 0.276 trial= 0.594  step= 0.626 mean= 0.594
 gam= 0.307 g(H,U,f)=  0.762E-06 0.301E-07 0.316E-32 ort(H,U,f) = 0.596E-07-0.148E-07-0.109E-29
CGA:  10    -0.202705825258E+04   -0.77556E-06   -0.77494E-06  1304   0.792E-06 0.448E-07
 gam= 0.307 trial= 0.595  step= 0.518 mean= 0.595
 gam= 0.380 g(H,U,f)=  0.291E-06 0.103E-07 0.247E-27 ort(H,U,f) = 0.329E-07-0.385E-08 0.318E-27
CGA:  11    -0.202705825279E+04   -0.20742E-06   -0.20855E-06  1304   0.301E-06 0.291E-07
 gam= 0.380 trial= 0.591  step= 0.654 mean= 0.591
 gam= 0.494 g(H,U,f)=  0.142E-06 0.635E-08 0.192E-28 ort(H,U,f) =-0.283E-07-0.247E-08 0.103E-27
CGA:  12    -0.202705825289E+04   -0.10127E-06   -0.10213E-06  1304   0.149E-06-0.308E-07
 gam= 0.494 trial= 0.595  step= 0.680 mean= 0.595
 gam= 0.495 g(H,U,f)=  0.698E-07 0.381E-08 0.129E-27 ort(H,U,f) =-0.284E-07-0.299E-09-0.182E-27
CGA:  13    -0.202705825294E+04   -0.44231E-07   -0.45426E-07  1304   0.736E-07-0.287E-07
 gam= 0.495 trial= 0.599  step= 0.505 mean= 0.599
 final diagonalization
 188 F= -.20485174E+04 E0= -.20485174E+04  d E =-.470270E-03
 trial-energy change:   -0.000470  1 .order   -0.000469   -0.000719   -0.000219
 step:   0.4717(harm=  0.4749)  dis= 0.00174  next Energy= -2048.517445 (dE=-0.517E-03)
 bond charge predicted
       N       E                     dE             d eps       ncg     rms          ort
 gam= 0.000 g(H,U,f)=  0.146E-01 0.125E-02 0.549E-23 ort(H,U,f) = 0.000E+00 0.000E+00 0.000E+00
SDA:   1    -0.202705219558E+04    0.60573E-02    0.00000E+00  1304   0.158E-01 0.000E+00
 gam= 0.000 trial= 0.594  step= 0.585 mean= 0.594
 gam= 0.266 g(H,U,f)=  0.396E-02 0.254E-03 0.108E-22 ort(H,U,f) = 0.227E-03-0.225E-03-0.166E-22
CGA:   2    -0.202705683372E+04   -0.46381E-02   -0.46382E-02  1304   0.422E-02 0.242E-05
 gam= 0.266 trial= 0.594  step= 0.581 mean= 0.594
 gam= 0.159 g(H,U,f)=  0.649E-03 0.195E-04 0.155E-23 ort(H,U,f) =-0.192E-04 0.163E-04 0.153E-23
CGA:   3    -0.202705805914E+04   -0.12254E-02   -0.12254E-02  1304   0.669E-03-0.290E-05
 gam= 0.159 trial= 0.593  step= 0.494 mean= 0.593
 gam= 0.215 g(H,U,f)=  0.134E-03 0.998E-05 0.245E-24 ort(H,U,f) =-0.493E-05 0.654E-05-0.608E-24
CGA:   4    -0.202705822412E+04   -0.16498E-03   -0.16506E-03  1304   0.144E-03 0.162E-05
 gam= 0.215 trial= 0.588  step= 0.543 mean= 0.588
 gam= 0.241 g(H,U,f)=  0.311E-04 0.360E-05 0.431E-26 ort(H,U,f) =-0.705E-05 0.554E-05-0.158E-25
CGA:   5    -0.202705826327E+04   -0.39148E-04   -0.39114E-04  1304   0.347E-04-0.151E-05
 gam= 0.241 trial= 0.586  step= 0.580 mean= 0.586
 gam= 0.383 g(H,U,f)=  0.119E-04 0.141E-05 0.201E-28 ort(H,U,f) =-0.126E-05 0.287E-05-0.327E-28
CGA:   6    -0.202705827321E+04   -0.99439E-05   -0.99485E-05  1304   0.133E-04 0.162E-05
 gam= 0.383 trial= 0.586  step= 0.639 mean= 0.586
 gam= 0.610 g(H,U,f)=  0.758E-05 0.529E-06 0.117E-25 ort(H,U,f) =-0.271E-05 0.113E-05 0.173E-27
CGA:   7    -0.202705827761E+04   -0.43966E-05   -0.44385E-05  1304   0.811E-05-0.158E-05
 gam= 0.610 trial= 0.588  step= 0.450 mean= 0.588
 gam= 0.232 g(H,U,f)=  0.181E-05 0.684E-07 0.169E-26 ort(H,U,f) = 0.521E-06 0.449E-06 0.454E-26
CGA:   8    -0.202705827915E+04   -0.15396E-05   -0.16068E-05  1304   0.188E-05 0.970E-06
 gam= 0.232 trial= 0.581  step= 0.558 mean= 0.581
 gam= 0.354 g(H,U,f)=  0.643E-06 0.225E-07 0.514E-28 ort(H,U,f) = 0.144E-06 0.518E-07 0.483E-27
CGA:   9    -0.202705827973E+04   -0.58482E-06   -0.58724E-06  1304   0.666E-06 0.195E-06
 gam= 0.354 trial= 0.580  step= 0.880 mean= 0.580
 gam= 0.000 g(H,U,f)=  0.139E-05 0.356E-07 0.375E-27 ort(H,U,f) =-0.636E-06-0.210E-07 0.603E-27
CGA:  10    -0.202705827996E+04   -0.22485E-06   -0.32337E-06  1304   0.142E-05-0.657E-06
 gam= 0.000 trial= 0.595  step= 0.201 mean= 0.595
 gam= 0.121 g(H,U,f)=  0.168E-06 0.417E-08 0.503E-28 ort(H,U,f) = 0.373E-06 0.100E-07 0.137E-27
CGA:  11    -0.202705828002E+04   -0.67615E-07   -0.14320E-06  1304   0.172E-06 0.383E-06
 gam= 0.121 trial= 0.575  step= 0.190 mean= 0.575
 final diagonalization
 189 F= -.20485174E+04 E0= -.20485174E+04  d E =-.517469E-03
 curvature:  -2.75 expect dE=-0.383E-02 dE for cont linesearch -0.226E-07
 trial: gam= 0.71800 g(F)=  0.139E-02 g(S)=  0.672E-05 ort = 0.144E-04 (trialstep = 0.358E+00)
 search vector abs. value=  0.144E-01
 bond charge predicted
       N       E                     dE             d eps       ncg     rms          ort
 gam= 0.000 g(H,U,f)=  0.539E-01 0.454E-02 0.171E-22 ort(H,U,f) = 0.000E+00 0.000E+00 0.000E+00
SDA:   1    -0.202703642688E+04    0.21853E-01    0.00000E+00  1304   0.585E-01 0.000E+00
 gam= 0.000 trial= 0.556  step= 0.589 mean= 0.556
 gam= 0.269 g(H,U,f)=  0.148E-01 0.946E-03 0.299E-22 ort(H,U,f) = 0.858E-03-0.855E-03-0.672E-22
CGA:   2    -0.202705364821E+04   -0.17221E-01   -0.17221E-01  1304   0.157E-01 0.286E-05
 gam= 0.269 trial= 0.558  step= 0.578 mean= 0.558
 gam= 0.157 g(H,U,f)=  0.239E-02 0.724E-04 0.165E-22 ort(H,U,f) =-0.577E-04 0.571E-04 0.430E-23
CGA:   3    -0.202705819366E+04   -0.45454E-02   -0.45455E-02  1304   0.247E-02-0.520E-06
 gam= 0.157 trial= 0.559  step= 0.496 mean= 0.559
 gam= 0.210 g(H,U,f)=  0.480E-03 0.379E-04 0.196E-23 ort(H,U,f) =-0.219E-04 0.224E-04-0.416E-23
CGA:   4    -0.202705880510E+04   -0.61144E-03   -0.61145E-03  1304   0.518E-03 0.501E-06
 gam= 0.210 trial= 0.556  step= 0.551 mean= 0.556
 gam= 0.221 g(H,U,f)=  0.102E-03 0.126E-04 0.287E-25 ort(H,U,f) =-0.196E-04 0.193E-04-0.143E-24
CGA:   5    -0.202705894792E+04   -0.14283E-03   -0.14283E-03  1304   0.115E-03-0.304E-06
 gam= 0.221 trial= 0.555  step= 0.677 mean= 0.555
 gam= 0.352 g(H,U,f)=  0.361E-04 0.438E-05 0.165E-25 ort(H,U,f) =-0.733E-05 0.917E-05 0.231E-26
CGA:   6    -0.202705898685E+04   -0.38920E-04   -0.38808E-04  1304   0.404E-04 0.184E-05
 gam= 0.352 trial= 0.562  step= 0.719 mean= 0.562
 gam= 0.545 g(H,U,f)=  0.209E-04 0.120E-05 0.140E-25 ort(H,U,f) =-0.532E-05 0.323E-05 0.159E-25
CGA:   7    -0.202705900145E+04   -0.14600E-04   -0.14765E-04  1304   0.221E-04-0.210E-05
 gam= 0.545 trial= 0.569  step= 0.443 mean= 0.569
 gam= 0.279 g(H,U,f)=  0.594E-05 0.204E-06 0.224E-26 ort(H,U,f) = 0.922E-06 0.109E-05 0.918E-26
CGA:   8    -0.202705900595E+04   -0.45018E-05   -0.46293E-05  1304   0.614E-05 0.201E-05
 gam= 0.279 trial= 0.563  step= 0.659 mean= 0.563
 gam= 0.283 g(H,U,f)=  0.171E-05 0.253E-07 0.863E-27 ort(H,U,f) =-0.521E-06 0.103E-06 0.300E-26
CGA:   9    -0.202705900814E+04   -0.21899E-05   -0.22100E-05  1304   0.174E-05-0.419E-06
 gam= 0.283 trial= 0.568  step= 0.738 mean= 0.568
 gam= 0.395 g(H,U,f)=  0.659E-06 0.266E-07 0.980E-27 ort(H,U,f) =-0.196E-06-0.279E-07-0.182E-26
CGA:  10    -0.202705900872E+04   -0.57909E-06   -0.59804E-06  1304   0.686E-06-0.224E-06
 gam= 0.395 trial= 0.576  step= 0.303 mean= 0.576
 gam= 0.340 g(H,U,f)=  0.223E-06 0.102E-07 0.370E-28 ort(H,U,f) = 0.208E-06 0.175E-08 0.504E-28
CGA:  11    -0.202705900878E+04   -0.61940E-07   -0.90510E-07  1304   0.233E-06 0.209E-06
 gam= 0.340 trial= 0.563  step= 0.379 mean= 0.563
 final diagonalization
 190 F= -.20485178E+04 E0= -.20485178E+04  d E =-.374579E-03
 trial-energy change:   -0.000375  1 .order   -0.000378   -0.000503   -0.000253
 step:   0.8177(harm=  0.7217)  dis= 0.00222  next Energy= -2048.517974 (dE=-0.529E-03)
 bond charge predicted
       N       E                     dE             d eps       ncg     rms          ort
 gam= 0.000 g(H,U,f)=  0.886E-01 0.746E-02 0.377E-22 ort(H,U,f) = 0.000E+00 0.000E+00 0.000E+00
SDA:   1    -0.202702247411E+04    0.36535E-01    0.00000E+00  1304   0.961E-01 0.000E+00
 gam= 0.000 trial= 0.554  step= 0.589 mean= 0.554
 gam= 0.269 g(H,U,f)=  0.243E-01 0.155E-02 0.122E-21 ort(H,U,f) = 0.141E-02-0.141E-02-0.272E-21
CGA:   2    -0.202705076348E+04   -0.28289E-01   -0.28289E-01  1304   0.259E-01 0.304E-05
 gam= 0.269 trial= 0.555  step= 0.578 mean= 0.555
 gam= 0.156 g(H,U,f)=  0.393E-02 0.119E-03 0.453E-22 ort(H,U,f) =-0.932E-04 0.928E-04 0.120E-22
CGA:   3    -0.202705823205E+04   -0.74686E-02   -0.74686E-02  1304   0.405E-02-0.427E-06
 gam= 0.156 trial= 0.556  step= 0.496 mean= 0.556
 gam= 0.210 g(H,U,f)=  0.789E-03 0.622E-04 0.440E-23 ort(H,U,f) =-0.359E-04 0.364E-04-0.937E-23
CGA:   4    -0.202705923555E+04   -0.10035E-02   -0.10035E-02  1304   0.851E-03 0.503E-06
 gam= 0.210 trial= 0.553  step= 0.551 mean= 0.553
 gam= 0.220 g(H,U,f)=  0.167E-03 0.207E-04 0.683E-25 ort(H,U,f) =-0.318E-04 0.317E-04-0.338E-24
CGA:   5    -0.202705947017E+04   -0.23462E-03   -0.23462E-03  1304   0.187E-03-0.166E-06
 gam= 0.220 trial= 0.553  step= 0.683 mean= 0.553
 gam= 0.352 g(H,U,f)=  0.588E-04 0.709E-05 0.408E-25 ort(H,U,f) =-0.127E-04 0.149E-04 0.482E-26
CGA:   6    -0.202705953436E+04   -0.64194E-04   -0.64052E-04  1304   0.659E-04 0.219E-05
 gam= 0.352 trial= 0.560  step= 0.720 mean= 0.560
 gam= 0.518 g(H,U,f)=  0.323E-04 0.188E-05 0.273E-25 ort(H,U,f) =-0.770E-05 0.524E-05 0.346E-25
CGA:   7    -0.202705955817E+04   -0.23807E-04   -0.24003E-04  1304   0.341E-04-0.246E-05
 gam= 0.518 trial= 0.568  step= 0.461 mean= 0.568
 gam= 0.297 g(H,U,f)=  0.981E-05 0.338E-06 0.486E-26 ort(H,U,f) = 0.908E-06 0.167E-05 0.193E-25
CGA:   8    -0.202705956560E+04   -0.74313E-05   -0.75694E-05  1304   0.102E-04 0.258E-05
 gam= 0.297 trial= 0.562  step= 0.654 mean= 0.562
 gam= 0.277 g(H,U,f)=  0.277E-05 0.373E-07 0.243E-26 ort(H,U,f) =-0.967E-06 0.155E-06 0.758E-26
CGA:   9    -0.202705956913E+04   -0.35310E-05   -0.35680E-05  1304   0.281E-05-0.812E-06
 gam= 0.277 trial= 0.567  step= 0.645 mean= 0.567
 gam= 0.229 g(H,U,f)=  0.620E-06 0.240E-07 0.178E-26 ort(H,U,f) = 0.143E-06-0.276E-07-0.388E-26
CGA:  10    -0.202705956997E+04   -0.83823E-06   -0.83359E-06  1304   0.644E-06 0.116E-06
 gam= 0.229 trial= 0.571  step= 0.615 mean= 0.571
 gam= 0.339 g(H,U,f)=  0.205E-06 0.126E-07 0.138E-26 ort(H,U,f) = 0.755E-07-0.367E-08-0.778E-27
CGA:  11    -0.202705957018E+04   -0.20775E-06   -0.20620E-06  1304   0.218E-06 0.719E-07
 gam= 0.339 trial= 0.573  step= 1.815 mean= 0.573
 gam= 0.000 g(H,U,f)=  0.106E-05 0.420E-07 0.888E-26 ort(H,U,f) =-0.356E-06-0.135E-07-0.284E-26
CGA:  12    -0.202705957017E+04    0.93933E-08   -0.21989E-06  1304   0.110E-05-0.370E-06
 gam= 0.000 trial= 0.635  step= 0.272 mean= 0.635
 gam= 0.154 g(H,U,f)=  0.166E-06 0.292E-08 0.443E-27 ort(H,U,f) = 0.263E-06 0.700E-08 0.197E-26
CGA:  13    -0.202705957027E+04   -0.10036E-06   -0.14932E-06  1304   0.169E-06 0.270E-06
 gam= 0.154 trial= 0.617  step= 0.429 mean= 0.617
 gam= 0.289 g(H,U,f)=  0.464E-07 0.258E-08 0.281E-27 ort(H,U,f) = 0.277E-07-0.109E-08-0.593E-27
CGA:  14    -0.202705957031E+04   -0.42688E-07   -0.45255E-07  1304   0.490E-07 0.266E-07
 gam= 0.289 trial= 0.608  step=-1.401 mean= 0.608
 BOPT < 0, no correction made
 final diagonalization
 191 F= -.20485179E+04 E0= -.20485179E+04  d E =-.482951E-03
 curvature:  -3.44 expect dE=-0.595E-02 dE for cont linesearch -0.105E-04
 trial: gam= 1.37415 g(F)=  0.173E-02 g(S)=  0.291E-05 ort =-0.209E-03 (trialstep = 0.229E+00)
 search vector abs. value=  0.283E-01
 bond charge predicted
       N       E                     dE             d eps       ncg     rms          ort
 gam= 0.000 g(H,U,f)=  0.426E-01 0.368E-02 0.225E-22 ort(H,U,f) = 0.000E+00 0.000E+00 0.000E+00
SDA:   1    -0.202704254553E+04    0.17025E-01    0.00000E+00  1304   0.463E-01 0.000E+00
 gam= 0.000 trial= 0.608  step= 0.583 mean= 0.608
 gam= 0.265 g(H,U,f)=  0.116E-01 0.723E-03 0.235E-22 ort(H,U,f) = 0.643E-03-0.642E-03-0.670E-22
CGA:   2    -0.202705605385E+04   -0.13508E-01   -0.13508E-01  1304   0.123E-01 0.148E-05
 gam= 0.265 trial= 0.606  step= 0.580 mean= 0.606
 gam= 0.159 g(H,U,f)=  0.189E-02 0.575E-04 0.218E-22 ort(H,U,f) =-0.471E-04 0.510E-04 0.305E-23
CGA:   3    -0.202705961434E+04   -0.35605E-02   -0.35605E-02  1304   0.195E-02 0.393E-05
 gam= 0.159 trial= 0.605  step= 0.497 mean= 0.605
 gam= 0.209 g(H,U,f)=  0.378E-03 0.298E-04 0.575E-23 ort(H,U,f) =-0.190E-04 0.178E-04-0.875E-23
CGA:   4    -0.202706009822E+04   -0.48387E-03   -0.48381E-03  1304   0.408E-03-0.119E-05
 gam= 0.209 trial= 0.600  step= 0.549 mean= 0.600
 gam= 0.216 g(H,U,f)=  0.781E-04 0.983E-05 0.147E-25 ort(H,U,f) =-0.127E-04 0.152E-04 0.225E-24
CGA:   5    -0.202706021007E+04   -0.11185E-03   -0.11192E-03  1304   0.879E-04 0.254E-05
 gam= 0.216 trial= 0.597  step= 0.713 mean= 0.597
 gam= 0.354 g(H,U,f)=  0.279E-04 0.322E-05 0.189E-24 ort(H,U,f) =-0.813E-05 0.690E-05 0.233E-24
CGA:   6    -0.202706024151E+04   -0.31442E-04   -0.31513E-04  1304   0.311E-04-0.123E-05
 gam= 0.354 trial= 0.603  step= 0.700 mean= 0.603
 gam= 0.362 g(H,U,f)=  0.105E-04 0.807E-06 0.758E-25 ort(H,U,f) =-0.946E-06 0.253E-05 0.178E-24
CGA:   7    -0.202706025233E+04   -0.10819E-04   -0.10743E-04  1304   0.113E-04 0.158E-05
 gam= 0.362 trial= 0.608  step= 0.681 mean= 0.608
 gam= 0.534 g(H,U,f)=  0.585E-05 0.180E-06 0.367E-25 ort(H,U,f) =-0.167E-05 0.410E-06 0.101E-24
CGA:   8    -0.202706025633E+04   -0.39921E-05   -0.40385E-05  1304   0.603E-05-0.126E-05
 gam= 0.534 trial= 0.611  step= 0.390 mean= 0.611
 gam= 0.217 g(H,U,f)=  0.129E-05 0.155E-07 0.749E-26 ort(H,U,f) = 0.660E-06 0.845E-07 0.418E-25
CGA:   9    -0.202706025729E+04   -0.96086E-06   -0.10433E-05  1304   0.131E-05 0.745E-06
 gam= 0.217 trial= 0.600  step= 0.523 mean= 0.600
 gam= 0.376 g(H,U,f)=  0.472E-06 0.192E-07 0.330E-27 ort(H,U,f) = 0.108E-06-0.880E-08 0.350E-26
CGA:  10    -0.202706025767E+04   -0.38015E-06   -0.38376E-06  1304   0.492E-06 0.988E-07
 gam= 0.376 trial= 0.597  step= 1.042 mean= 0.597
 gam= 0.000 g(H,U,f)=  0.175E-05 0.411E-07 0.406E-27 ort(H,U,f) =-0.669E-06-0.212E-07 0.184E-26
CGA:  11    -0.202706025779E+04   -0.12176E-06   -0.27549E-06  1304   0.179E-05-0.690E-06
 gam= 0.000 trial= 0.619  step= 0.212 mean= 0.619
 gam= 0.107 g(H,U,f)=  0.186E-06 0.529E-08 0.209E-29 ort(H,U,f) = 0.416E-06 0.107E-07 0.290E-28
CGA:  12    -0.202706025789E+04   -0.10277E-06   -0.18946E-06  1304   0.192E-06 0.426E-06
 gam= 0.107 trial= 0.598  step= 0.222 mean= 0.598
 gam= 0.000 g(H,U,f)=  0.757E-07 0.309E-08 0.213E-28 ort(H,U,f) = 0.941E-07 0.341E-08-0.167E-28
CGA:  13    -0.202706025790E+04   -0.79453E-08   -0.26344E-07  1304   0.788E-07 0.975E-07
 gam= 0.000 trial= 0.580  step=-1.160 mean= 0.580
 BOPT < 0, no correction made
 final diagonalization
 192 F= -.20485182E+04 E0= -.20485182E+04  d E =-.259654E-03
 trial-energy change:   -0.000260  1 .order   -0.000260   -0.000330   -0.000189
 step:   0.5373(harm=  0.5373)  dis= 0.00207  next Energy= -2048.518315 (dE=-0.388E-03)
 bond charge predicted
       N       E                     dE             d eps       ncg     rms          ort
 gam= 0.000 g(H,U,f)=  0.776E-01 0.671E-02 0.116E-21 ort(H,U,f) = 0.000E+00 0.000E+00 0.000E+00
SDA:   1    -0.202702871581E+04    0.31542E-01    0.00000E+00  1304   0.843E-01 0.000E+00
 gam= 0.000 trial= 0.580  step= 0.584 mean= 0.580
 gam= 0.265 g(H,U,f)=  0.211E-01 0.132E-02 0.250E-21 ort(H,U,f) = 0.117E-02-0.117E-02-0.701E-21
CGA:   2    -0.202705330689E+04   -0.24591E-01   -0.24591E-01  1304   0.224E-01 0.157E-05
 gam= 0.265 trial= 0.580  step= 0.579 mean= 0.580
 gam= 0.159 g(H,U,f)=  0.344E-02 0.105E-03 0.158E-21 ort(H,U,f) =-0.866E-04 0.923E-04 0.232E-22
CGA:   3    -0.202705978869E+04   -0.64818E-02   -0.64818E-02  1304   0.355E-02 0.570E-05
 gam= 0.159 trial= 0.580  step= 0.496 mean= 0.580
 gam= 0.209 g(H,U,f)=  0.688E-03 0.541E-04 0.351E-22 ort(H,U,f) =-0.339E-04 0.322E-04-0.533E-22
CGA:   4    -0.202706066940E+04   -0.88070E-03   -0.88063E-03  1304   0.742E-03-0.171E-05
 gam= 0.209 trial= 0.576  step= 0.550 mean= 0.576
 gam= 0.216 g(H,U,f)=  0.142E-03 0.179E-04 0.990E-25 ort(H,U,f) =-0.239E-04 0.276E-04 0.150E-23
CGA:   5    -0.202706087334E+04   -0.20394E-03   -0.20399E-03  1304   0.160E-03 0.370E-05
 gam= 0.216 trial= 0.574  step= 0.710 mean= 0.574
 gam= 0.353 g(H,U,f)=  0.507E-04 0.587E-05 0.131E-23 ort(H,U,f) =-0.144E-04 0.125E-04 0.160E-23
CGA:   6    -0.202706093039E+04   -0.57053E-04   -0.57176E-04  1304   0.566E-04-0.182E-05
 gam= 0.353 trial= 0.581  step= 0.705 mean= 0.581
 gam= 0.376 g(H,U,f)=  0.198E-04 0.147E-05 0.530E-24 ort(H,U,f) =-0.219E-05 0.456E-05 0.125E-23
CGA:   7    -0.202706095024E+04   -0.19850E-04   -0.19703E-04  1304   0.213E-04 0.238E-05
 gam= 0.376 trial= 0.587  step= 0.650 mean= 0.587
 gam= 0.503 g(H,U,f)=  0.104E-04 0.323E-06 0.266E-24 ort(H,U,f) =-0.265E-05 0.812E-06 0.743E-24
CGA:   8    -0.202706095738E+04   -0.71407E-05   -0.71983E-05  1304   0.107E-04-0.184E-05
 gam= 0.503 trial= 0.590  step= 0.414 mean= 0.590
 gam= 0.210 g(H,U,f)=  0.222E-05 0.274E-07 0.554E-25 ort(H,U,f) = 0.926E-06 0.155E-06 0.299E-24
CGA:   9    -0.202706095931E+04   -0.19257E-05   -0.20212E-05  1304   0.224E-05 0.108E-05
 gam= 0.210 trial= 0.582  step= 0.601 mean= 0.582
 gam= 0.347 g(H,U,f)=  0.743E-06 0.360E-07 0.837E-27 ort(H,U,f) = 0.339E-07-0.165E-07 0.147E-25
CGA:  10    -0.202706096005E+04   -0.74286E-06   -0.74285E-06  1304   0.779E-06 0.174E-07
 gam= 0.347 trial= 0.583  step= 0.955 mean= 0.583
 gam= 0.000 g(H,U,f)=  0.167E-05 0.552E-07 0.764E-26 ort(H,U,f) =-0.650E-06-0.339E-07 0.181E-25
CGA:  11    -0.202706096030E+04   -0.24744E-06   -0.37461E-06  1304   0.173E-05-0.684E-06
 gam= 0.000 trial= 0.601  step= 0.213 mean= 0.601
 gam= 0.113 g(H,U,f)=  0.188E-06 0.829E-08 0.521E-27 ort(H,U,f) = 0.408E-06 0.166E-07 0.200E-26
CGA:  12    -0.202706096040E+04   -0.10144E-06   -0.18389E-06  1304   0.196E-06 0.424E-06
 gam= 0.113 trial= 0.582  step= 0.227 mean= 0.582
 gam= 0.000 g(H,U,f)=  0.844E-07 0.447E-08 0.628E-29 ort(H,U,f) = 0.955E-07 0.509E-08-0.810E-28
CGA:  13    -0.202706096041E+04   -0.99462E-08   -0.27723E-07  1304   0.888E-07 0.101E-06
 gam= 0.000 trial= 0.564  step=-0.988 mean= 0.564
 BOPT < 0, no correction made
 final diagonalization
 193 F= -.20485183E+04 E0= -.20485183E+04  d E =-.384900E-03
 curvature:  -5.28 expect dE=-0.746E-02 dE for cont linesearch -0.836E-08
 trial: gam= 0.50117 g(F)=  0.141E-02 g(S)=  0.158E-05 ort =-0.670E-05 (trialstep = 0.290E+00)
 search vector abs. value=  0.853E-02
 bond charge predicted
       N       E                     dE             d eps       ncg     rms          ort
 gam= 0.000 g(H,U,f)=  0.208E-01 0.174E-02 0.392E-23 ort(H,U,f) = 0.000E+00 0.000E+00 0.000E+00
SDA:   1    -0.202705256220E+04    0.83982E-02    0.00000E+00  1304   0.226E-01 0.000E+00
 gam= 0.000 trial= 0.564  step= 0.584 mean= 0.564
 gam= 0.262 g(H,U,f)=  0.560E-02 0.327E-03 0.459E-23 ort(H,U,f) = 0.288E-03-0.285E-03-0.782E-23
CGA:   2    -0.202705915213E+04   -0.65899E-02   -0.65899E-02  1304   0.593E-02 0.317E-05
 gam= 0.262 trial= 0.565  step= 0.582 mean= 0.565
 gam= 0.160 g(H,U,f)=  0.918E-03 0.277E-04 0.180E-21 ort(H,U,f) =-0.253E-04 0.263E-04 0.107E-22
CGA:   3    -0.202706087835E+04   -0.17262E-02   -0.17262E-02  1304   0.946E-03 0.988E-06
 gam= 0.160 trial= 0.566  step= 0.498 mean= 0.566
 gam= 0.205 g(H,U,f)=  0.180E-03 0.140E-04 0.258E-22 ort(H,U,f) =-0.801E-05 0.902E-05-0.519E-22
CGA:   4    -0.202706111391E+04   -0.23556E-03   -0.23560E-03  1304   0.194E-03 0.102E-05
 gam= 0.205 trial= 0.563  step= 0.549 mean= 0.563
 gam= 0.217 g(H,U,f)=  0.373E-04 0.474E-05 0.184E-23 ort(H,U,f) =-0.599E-05 0.713E-05-0.451E-23
CGA:   5    -0.202706116710E+04   -0.53185E-04   -0.53193E-04  1304   0.420E-04 0.114E-05
 gam= 0.217 trial= 0.562  step= 0.718 mean= 0.562
 gam= 0.350 g(H,U,f)=  0.132E-04 0.156E-05 0.465E-24 ort(H,U,f) =-0.415E-05 0.322E-05-0.421E-24
CGA:   6    -0.202706118219E+04   -0.15095E-04   -0.15167E-04  1304   0.147E-04-0.927E-06
 gam= 0.350 trial= 0.570  step= 0.727 mean= 0.570
 gam= 0.318 g(H,U,f)=  0.435E-05 0.329E-06 0.190E-25 ort(H,U,f) =-0.325E-06 0.112E-05 0.652E-25
CGA:   7    -0.202706118749E+04   -0.52930E-05   -0.52305E-05  1304   0.468E-05 0.796E-06
 gam= 0.318 trial= 0.577  step= 0.793 mean= 0.577
 gam= 0.394 g(H,U,f)=  0.179E-05 0.524E-07 0.640E-25 ort(H,U,f) =-0.518E-06 0.144E-06 0.744E-25
CGA:   8    -0.202706118940E+04   -0.19179E-05   -0.19585E-05  1304   0.184E-05-0.374E-06
 gam= 0.394 trial= 0.588  step= 0.456 mean= 0.588
 gam= 0.254 g(H,U,f)=  0.464E-06 0.553E-08 0.733E-26 ort(H,U,f) = 0.305E-06 0.135E-07 0.319E-25
CGA:   9    -0.202706118977E+04   -0.36590E-06   -0.38686E-06  1304   0.469E-06 0.318E-06
 gam= 0.254 trial= 0.582  step= 0.787 mean= 0.582
 gam= 0.698 g(H,U,f)=  0.316E-06 0.114E-07 0.204E-26 ort(H,U,f) =-0.202E-06-0.872E-08-0.822E-26
CGA:  10    -0.202706118996E+04   -0.19485E-06   -0.21653E-06  1304   0.328E-06-0.211E-06
 gam= 0.698 trial= 0.592  step= 0.393 mean= 0.592
 gam= 0.521 g(H,U,f)=  0.166E-06 0.484E-08 0.210E-27 ort(H,U,f) = 0.397E-07-0.985E-09-0.119E-26
CGA:  11    -0.202706119000E+04   -0.31519E-07   -0.35479E-07  1304   0.171E-06 0.387E-07
 gam= 0.521 trial= 0.582  step= 0.311 mean= 0.582
 final diagonalization
 194 F= -.20485186E+04 E0= -.20485186E+04  d E =-.308057E-03
 trial-energy change:   -0.000308  1 .order   -0.000311   -0.000409   -0.000214
 step:   0.7122(harm=  0.6075)  dis= 0.00143  next Energy= -2048.518766 (dE=-0.453E-03)
 bond charge predicted
       N       E                     dE             d eps       ncg     rms          ort
 gam= 0.000 g(H,U,f)=  0.440E-01 0.366E-02 0.102E-22 ort(H,U,f) = 0.000E+00 0.000E+00 0.000E+00
SDA:   1    -0.202704298182E+04    0.18208E-01    0.00000E+00  1304   0.476E-01 0.000E+00
 gam= 0.000 trial= 0.568  step= 0.584 mean= 0.568
 gam= 0.263 g(H,U,f)=  0.118E-01 0.691E-03 0.206E-22 ort(H,U,f) = 0.604E-03-0.600E-03-0.351E-22
CGA:   2    -0.202705688009E+04   -0.13898E-01   -0.13898E-01  1304   0.125E-01 0.373E-05
 gam= 0.263 trial= 0.569  step= 0.582 mean= 0.569
 gam= 0.160 g(H,U,f)=  0.194E-02 0.585E-04 0.488E-21 ort(H,U,f) =-0.537E-04 0.556E-04 0.314E-22
CGA:   3    -0.202706052063E+04   -0.36405E-02   -0.36405E-02  1304   0.200E-02 0.196E-05
 gam= 0.160 trial= 0.570  step= 0.498 mean= 0.570
 gam= 0.205 g(H,U,f)=  0.380E-03 0.295E-04 0.540E-22 ort(H,U,f) =-0.181E-04 0.191E-04-0.109E-21
CGA:   4    -0.202706101775E+04   -0.49712E-03   -0.49716E-03  1304   0.409E-03 0.102E-05
 gam= 0.205 trial= 0.566  step= 0.548 mean= 0.566
 gam= 0.217 g(H,U,f)=  0.789E-04 0.100E-04 0.429E-23 ort(H,U,f) =-0.130E-04 0.151E-04-0.104E-22
CGA:   5    -0.202706113002E+04   -0.11227E-03   -0.11229E-03  1304   0.889E-04 0.211E-05
 gam= 0.217 trial= 0.565  step= 0.713 mean= 0.565
 gam= 0.353 g(H,U,f)=  0.280E-04 0.331E-05 0.952E-24 ort(H,U,f) =-0.863E-05 0.684E-05-0.926E-24
CGA:   6    -0.202706116175E+04   -0.31723E-04   -0.31855E-04  1304   0.314E-04-0.179E-05
 gam= 0.353 trial= 0.573  step= 0.710 mean= 0.573
 gam= 0.344 g(H,U,f)=  0.100E-04 0.759E-06 0.667E-25 ort(H,U,f) =-0.761E-06 0.246E-05 0.169E-24
CGA:   7    -0.202706117277E+04   -0.11020E-04   -0.10903E-04  1304   0.108E-04 0.170E-05
 gam= 0.344 trial= 0.580  step= 0.726 mean= 0.580
 gam= 0.522 g(H,U,f)=  0.547E-05 0.158E-06 0.838E-25 ort(H,U,f) =-0.154E-05 0.374E-06 0.144E-24
CGA:   8    -0.202706117681E+04   -0.40443E-05   -0.41300E-05  1304   0.563E-05-0.117E-05
 gam= 0.522 trial= 0.587  step= 0.387 mean= 0.587
 gam= 0.235 g(H,U,f)=  0.131E-05 0.136E-07 0.367E-25 ort(H,U,f) = 0.684E-06 0.619E-07 0.106E-24
CGA:   9    -0.202706117771E+04   -0.89600E-06   -0.97062E-06  1304   0.132E-05 0.746E-06
 gam= 0.235 trial= 0.577  step= 0.546 mean= 0.577
 gam= 0.361 g(H,U,f)=  0.458E-06 0.182E-07 0.146E-27 ort(H,U,f) = 0.506E-07-0.136E-07 0.392E-26
CGA:  10    -0.202706117811E+04   -0.40772E-06   -0.40802E-06  1304   0.476E-06 0.370E-07
 gam= 0.361 trial= 0.575  step= 1.301 mean= 0.575
 gam= 0.000 g(H,U,f)=  0.271E-05 0.733E-07 0.724E-27 ort(H,U,f) =-0.843E-06-0.278E-07 0.353E-26
CGA:  11    -0.202706117812E+04   -0.27503E-08   -0.31849E-06  1304   0.278E-05-0.871E-06
 gam= 0.000 trial= 0.612  step= 0.220 mean= 0.612
 gam= 0.091 g(H,U,f)=  0.245E-06 0.756E-08 0.719E-27 ort(H,U,f) = 0.552E-06 0.168E-07-0.724E-27
CGA:  12    -0.202706117831E+04   -0.19478E-06   -0.30599E-06  1304   0.253E-06 0.569E-06
 gam= 0.091 trial= 0.592  step= 0.252 mean= 0.592
 gam= 0.407 g(H,U,f)=  0.988E-07 0.416E-08 0.162E-26 ort(H,U,f) = 0.112E-06 0.410E-08 0.981E-27
CGA:  13    -0.202706117833E+04   -0.18561E-07   -0.38414E-07  1304   0.103E-06 0.116E-06
 gam= 0.407 trial= 0.575  step= 0.545 mean= 0.575
 final diagonalization
 195 F= -.20485187E+04 E0= -.20485187E+04  d E =-.410389E-03
 curvature:  -1.64 expect dE=-0.266E-02 dE for cont linesearch -0.111E-04
 ZBRENT: interpolating
 opt :   0.6084  next Energy= -2048.518736 (dE=-0.423E-03)
 bond charge predicted
       N       E                     dE             d eps       ncg     rms          ort
 gam= 0.000 g(H,U,f)=  0.266E-02 0.222E-03 0.828E-24 ort(H,U,f) = 0.000E+00 0.000E+00 0.000E+00
SDA:   1    -0.202706011727E+04    0.10610E-02    0.00000E+00  1304   0.288E-02 0.000E+00
 gam= 0.000 trial= 0.574  step= 0.584 mean= 0.574
 gam= 0.263 g(H,U,f)=  0.716E-03 0.423E-04 0.152E-24 ort(H,U,f) = 0.351E-04-0.363E-04-0.285E-24
CGA:   2    -0.202706095856E+04   -0.84129E-03   -0.84129E-03  1304   0.758E-03-0.120E-05
 gam= 0.263 trial= 0.574  step= 0.582 mean= 0.574
 gam= 0.160 g(H,U,f)=  0.117E-03 0.365E-05 0.171E-22 ort(H,U,f) =-0.380E-05 0.348E-05 0.953E-24
CGA:   3    -0.202706117905E+04   -0.22049E-03   -0.22049E-03  1304   0.121E-03-0.326E-06
 gam= 0.160 trial= 0.574  step= 0.500 mean= 0.574
 gam= 0.208 g(H,U,f)=  0.233E-04 0.185E-05 0.545E-23 ort(H,U,f) =-0.153E-05 0.119E-05-0.108E-22
CGA:   4    -0.202706120928E+04   -0.30231E-04   -0.30218E-04  1304   0.251E-04-0.339E-06
 gam= 0.208 trial= 0.571  step= 0.559 mean= 0.571
 gam= 0.224 g(H,U,f)=  0.501E-05 0.622E-06 0.320E-24 ort(H,U,f) =-0.130E-05 0.927E-06-0.750E-24
CGA:   5    -0.202706121628E+04   -0.70017E-05   -0.69996E-05  1304   0.563E-05-0.375E-06
 gam= 0.224 trial= 0.570  step= 0.657 mean= 0.570
 gam= 0.296 g(H,U,f)=  0.145E-05 0.214E-06 0.573E-25 ort(H,U,f) =-0.161E-06 0.452E-06-0.652E-25
CGA:   6    -0.202706121811E+04   -0.18319E-05   -0.18196E-05  1304   0.166E-05 0.291E-06
 gam= 0.296 trial= 0.574  step= 0.938 mean= 0.574
 gam= 0.527 g(H,U,f)=  0.841E-06 0.353E-07 0.446E-26 ort(H,U,f) =-0.370E-06 0.111E-06 0.106E-25
CGA:   7    -0.202706121888E+04   -0.77337E-06   -0.82038E-06  1304   0.876E-06-0.259E-06
 gam= 0.527 trial= 0.593  step= 0.551 mean= 0.593
 gam= 0.241 g(H,U,f)=  0.208E-06 0.302E-08 0.702E-26 ort(H,U,f) = 0.842E-07 0.166E-07 0.125E-25
CGA:   8    -0.202706121909E+04   -0.20163E-06   -0.20371E-06  1304   0.211E-06 0.101E-06
 gam= 0.241 trial= 0.591  step= 0.697 mean= 0.591
 gam= 0.416 g(H,U,f)=  0.865E-07 0.151E-08 0.471E-27 ort(H,U,f) =-0.364E-07-0.247E-08 0.259E-26
CGA:   9    -0.202706121917E+04   -0.79963E-07   -0.82199E-07  1304   0.880E-07-0.388E-07
 gam= 0.416 trial= 0.596  step= 0.362 mean= 0.596
 final diagonalization
 196 F= -.20485187E+04 E0= -.20485187E+04  d E =-.423253E-03
 curvature:  -1.84 expect dE=-0.209E-02 dE for cont linesearch -0.602E-09
 trial: gam= 0.85294 g(F)=  0.113E-02 g(S)=  0.638E-05 ort = 0.167E-05 (trialstep = 0.354E+00)
 search vector abs. value=  0.734E-02
 bond charge predicted
       N       E                     dE             d eps       ncg     rms          ort
 gam= 0.000 g(H,U,f)=  0.264E-01 0.201E-02 0.787E-22 ort(H,U,f) = 0.000E+00 0.000E+00 0.000E+00
SDA:   1    -0.202705036475E+04    0.10854E-01    0.00000E+00  1304   0.284E-01 0.000E+00
 gam= 0.000 trial= 0.584  step= 0.594 mean= 0.584
 gam= 0.268 g(H,U,f)=  0.719E-02 0.401E-03 0.383E-21 ort(H,U,f) = 0.343E-03-0.335E-03-0.271E-21
CGA:   2    -0.202705879831E+04   -0.84336E-02   -0.84335E-02  1304   0.760E-02 0.851E-05
 gam= 0.268 trial= 0.585  step= 0.577 mean= 0.585
 gam= 0.155 g(H,U,f)=  0.115E-02 0.307E-04 0.126E-22 ort(H,U,f) =-0.396E-04 0.341E-04 0.317E-22
CGA:   3    -0.202706099049E+04   -0.21922E-02   -0.21922E-02  1304   0.118E-02-0.550E-05
 gam= 0.155 trial= 0.584  step= 0.494 mean= 0.584
 gam= 0.213 g(H,U,f)=  0.233E-03 0.169E-04 0.494E-23 ort(H,U,f) =-0.875E-05 0.127E-04-0.937E-23
CGA:   4    -0.202706128071E+04   -0.29022E-03   -0.29040E-03  1304   0.250E-03 0.393E-05
 gam= 0.213 trial= 0.580  step= 0.531 mean= 0.580
 gam= 0.251 g(H,U,f)=  0.565E-04 0.625E-05 0.417E-24 ort(H,U,f) =-0.123E-04 0.990E-05 0.889E-24
CGA:   5    -0.202706134738E+04   -0.66676E-04   -0.66618E-04  1304   0.628E-04-0.240E-05
 gam= 0.251 trial= 0.577  step= 0.558 mean= 0.577
 gam= 0.395 g(H,U,f)=  0.222E-04 0.258E-05 0.280E-24 ort(H,U,f) =-0.293E-05 0.522E-05 0.533E-24
CGA:   6    -0.202706136472E+04   -0.17339E-04   -0.17361E-04  1304   0.248E-04 0.229E-05
 gam= 0.395 trial= 0.576  step= 0.596 mean= 0.576
 gam= 0.519 g(H,U,f)=  0.119E-04 0.100E-05 0.506E-24 ort(H,U,f) =-0.403E-05 0.226E-05 0.669E-24
CGA:   7    -0.202706137236E+04   -0.76400E-05   -0.76575E-05  1304   0.129E-04-0.177E-05
 gam= 0.519 trial= 0.577  step= 0.510 mean= 0.577
 gam= 0.242 g(H,U,f)=  0.296E-05 0.145E-06 0.131E-24 ort(H,U,f) = 0.426E-06 0.797E-06 0.447E-24
CGA:   8    -0.202706137536E+04   -0.30025E-05   -0.30439E-05  1304   0.311E-05 0.122E-05
 gam= 0.242 trial= 0.574  step= 0.687 mean= 0.574
 gam= 0.302 g(H,U,f)=  0.912E-06 0.242E-07 0.567E-25 ort(H,U,f) =-0.180E-06 0.750E-07 0.160E-24
CGA:   9    -0.202706137653E+04   -0.11621E-05   -0.11682E-05  1304   0.936E-06-0.105E-06
 gam= 0.302 trial= 0.580  step= 0.725 mean= 0.580
 gam= 0.395 g(H,U,f)=  0.351E-06 0.189E-07 0.203E-26 ort(H,U,f) =-0.124E-06-0.120E-07 0.201E-25
CGA:  10    -0.202706137684E+04   -0.31803E-06   -0.32796E-06  1304   0.370E-06-0.136E-06
 gam= 0.395 trial= 0.587  step= 0.314 mean= 0.587
 gam= 0.336 g(H,U,f)=  0.119E-06 0.570E-08 0.231E-26 ort(H,U,f) = 0.115E-06 0.275E-08 0.106E-25
CGA:  11    -0.202706137688E+04   -0.33659E-07   -0.49601E-07  1304   0.124E-06 0.118E-06
 gam= 0.336 trial= 0.573  step= 0.363 mean= 0.573
 final diagonalization
 197 F= -.20485190E+04 E0= -.20485190E+04  d E =-.275677E-03
 trial-energy change:   -0.000276  1 .order   -0.000279   -0.000401   -0.000156
 step:   0.6149(harm=  0.5804)  dis= 0.00125  next Energy= -2048.519068 (dE=-0.332E-03)
 bond charge predicted
       N       E                     dE             d eps       ncg     rms          ort
 gam= 0.000 g(H,U,f)=  0.143E-01 0.109E-02 0.312E-22 ort(H,U,f) = 0.000E+00 0.000E+00 0.000E+00
SDA:   1    -0.202705535550E+04    0.60213E-02    0.00000E+00  1304   0.154E-01 0.000E+00
 gam= 0.000 trial= 0.563  step= 0.594 mean= 0.563
 gam= 0.268 g(H,U,f)=  0.391E-02 0.217E-03 0.118E-21 ort(H,U,f) = 0.189E-03-0.182E-03-0.843E-22
CGA:   2    -0.202705993381E+04   -0.45783E-02   -0.45782E-02  1304   0.412E-02 0.651E-05
 gam= 0.268 trial= 0.564  step= 0.577 mean= 0.564
 gam= 0.155 g(H,U,f)=  0.623E-03 0.166E-04 0.503E-23 ort(H,U,f) =-0.220E-04 0.180E-04 0.128E-22
CGA:   3    -0.202706112407E+04   -0.11903E-02   -0.11903E-02  1304   0.639E-03-0.407E-05
 gam= 0.155 trial= 0.565  step= 0.494 mean= 0.565
 gam= 0.211 g(H,U,f)=  0.126E-03 0.910E-05 0.221E-23 ort(H,U,f) =-0.388E-05 0.669E-05-0.414E-23
CGA:   4    -0.202706128156E+04   -0.15749E-03   -0.15759E-03  1304   0.135E-03 0.281E-05
 gam= 0.211 trial= 0.561  step= 0.534 mean= 0.561
 gam= 0.252 g(H,U,f)=  0.306E-04 0.335E-05 0.188E-24 ort(H,U,f) =-0.695E-05 0.525E-05 0.400E-24
CGA:   5    -0.202706131774E+04   -0.36186E-04   -0.36163E-04  1304   0.340E-04-0.170E-05
 gam= 0.252 trial= 0.560  step= 0.554 mean= 0.560
 gam= 0.386 g(H,U,f)=  0.117E-04 0.138E-05 0.132E-24 ort(H,U,f) =-0.117E-05 0.280E-05 0.245E-24
CGA:   6    -0.202706132703E+04   -0.92862E-05   -0.92912E-05  1304   0.131E-04 0.163E-05
 gam= 0.386 trial= 0.560  step= 0.618 mean= 0.560
 gam= 0.568 g(H,U,f)=  0.690E-05 0.541E-06 0.228E-24 ort(H,U,f) =-0.248E-05 0.117E-05 0.301E-24
CGA:   7    -0.202706133124E+04   -0.42102E-05   -0.42488E-05  1304   0.744E-05-0.132E-05
 gam= 0.568 trial= 0.563  step= 0.476 mean= 0.563
 gam= 0.239 g(H,U,f)=  0.170E-05 0.770E-07 0.629E-25 ort(H,U,f) = 0.440E-06 0.450E-06 0.214E-24
CGA:   8    -0.202706133279E+04   -0.15538E-05   -0.15926E-05  1304   0.178E-05 0.890E-06
 gam= 0.239 trial= 0.558  step= 0.619 mean= 0.558
 gam= 0.320 g(H,U,f)=  0.551E-06 0.183E-07 0.216E-25 ort(H,U,f) = 0.196E-07 0.463E-07 0.678E-25
CGA:   9    -0.202706133341E+04   -0.61822E-06   -0.61631E-06  1304   0.570E-06 0.659E-07
 gam= 0.320 trial= 0.561  step= 0.976 mean= 0.561
 gam= 0.000 g(H,U,f)=  0.974E-06 0.397E-07 0.144E-26 ort(H,U,f) =-0.445E-06-0.222E-07 0.113E-25
CGA:  10    -0.202706133360E+04   -0.19139E-06   -0.28831E-06  1304   0.101E-05-0.467E-06
 gam= 0.000 trial= 0.582  step= 0.207 mean= 0.582
 gam= 0.141 g(H,U,f)=  0.137E-06 0.589E-08 0.840E-27 ort(H,U,f) = 0.285E-06 0.132E-07 0.110E-26
CGA:  11    -0.202706133365E+04   -0.49091E-07   -0.10491E-06  1304   0.143E-06 0.298E-06
 gam= 0.141 trial= 0.563  step= 0.202 mean= 0.563
 final diagonalization
 198 F= -.20485191E+04 E0= -.20485191E+04  d E =-.319343E-03
 curvature:  -1.84 expect dE=-0.145E-02 dE for cont linesearch -0.131E-05
 trial: gam= 0.76371 g(F)=  0.785E-03 g(S)=  0.483E-05 ort =-0.724E-04 (trialstep = 0.406E+00)
 search vector abs. value=  0.496E-02
 bond charge predicted
       N       E                     dE             d eps       ncg     rms          ort
 gam= 0.000 g(H,U,f)=  0.237E-01 0.190E-02 0.108E-21 ort(H,U,f) = 0.000E+00 0.000E+00 0.000E+00
SDA:   1    -0.202705151096E+04    0.98226E-02    0.00000E+00  1304   0.256E-01 0.000E+00
 gam= 0.000 trial= 0.545  step= 0.592 mean= 0.545
 gam= 0.270 g(H,U,f)=  0.652E-02 0.412E-03 0.163E-22 ort(H,U,f) = 0.339E-03-0.331E-03-0.386E-22
CGA:   2    -0.202705910166E+04   -0.75907E-02   -0.75905E-02  1304   0.693E-02 0.814E-05
 gam= 0.270 trial= 0.548  step= 0.576 mean= 0.548
 gam= 0.159 g(H,U,f)=  0.106E-02 0.362E-04 0.597E-22 ort(H,U,f) =-0.324E-04 0.242E-04-0.928E-23
CGA:   3    -0.202706109941E+04   -0.19978E-02   -0.19979E-02  1304   0.110E-02-0.823E-05
 gam= 0.159 trial= 0.549  step= 0.495 mean= 0.549
 gam= 0.216 g(H,U,f)=  0.220E-03 0.174E-04 0.102E-22 ort(H,U,f) =-0.871E-05 0.109E-04-0.179E-22
CGA:   4    -0.202706137102E+04   -0.27161E-03   -0.27167E-03  1304   0.237E-03 0.214E-05
 gam= 0.216 trial= 0.546  step= 0.540 mean= 0.546
 gam= 0.247 g(H,U,f)=  0.524E-04 0.619E-05 0.262E-24 ort(H,U,f) =-0.117E-04 0.958E-05-0.117E-23
CGA:   5    -0.202706143523E+04   -0.64215E-04   -0.64208E-04  1304   0.586E-04-0.215E-05
 gam= 0.247 trial= 0.546  step= 0.576 mean= 0.546
 gam= 0.394 g(H,U,f)=  0.206E-04 0.242E-05 0.134E-25 ort(H,U,f) =-0.240E-05 0.496E-05-0.590E-26
CGA:   6    -0.202706145199E+04   -0.16753E-04   -0.16715E-04  1304   0.231E-04 0.257E-05
 gam= 0.394 trial= 0.548  step= 0.625 mean= 0.548
 gam= 0.570 g(H,U,f)=  0.122E-04 0.928E-06 0.357E-24 ort(H,U,f) =-0.424E-05 0.200E-05-0.567E-25
CGA:   7    -0.202706145943E+04   -0.74398E-05   -0.75266E-05  1304   0.132E-04-0.224E-05
 gam= 0.570 trial= 0.551  step= 0.484 mean= 0.551
 gam= 0.231 g(H,U,f)=  0.292E-05 0.110E-06 0.519E-27 ort(H,U,f) = 0.693E-06 0.698E-06 0.127E-25
CGA:   8    -0.202706146226E+04   -0.28300E-05   -0.28766E-05  1304   0.303E-05 0.139E-05
 gam= 0.231 trial= 0.548  step= 0.635 mean= 0.548
 gam= 0.307 g(H,U,f)=  0.902E-06 0.292E-07 0.130E-25 ort(H,U,f) = 0.642E-07 0.551E-07-0.176E-25
CGA:   9    -0.202706146333E+04   -0.10698E-05   -0.10647E-05  1304   0.932E-06 0.119E-06
 gam= 0.307 trial= 0.552  step= 0.876 mean= 0.552
 gam= 0.000 g(H,U,f)=  0.115E-05 0.498E-07 0.151E-25 ort(H,U,f) =-0.535E-06-0.320E-07-0.815E-26
CGA:  10    -0.202706146366E+04   -0.33218E-06   -0.42402E-06  1304   0.120E-05-0.567E-06
 gam= 0.000 trial= 0.569  step= 0.213 mean= 0.569
 gam= 0.148 g(H,U,f)=  0.170E-06 0.731E-08 0.290E-27 ort(H,U,f) = 0.342E-06 0.161E-07 0.210E-26
CGA:  11    -0.202706146372E+04   -0.63723E-07   -0.12750E-06  1304   0.177E-06 0.358E-06
 gam= 0.148 trial= 0.551  step= 0.211 mean= 0.551
 final diagonalization
 199 F= -.20485192E+04 E0= -.20485192E+04  d E =-.174156E-03
 trial-energy change:   -0.000174  1 .order   -0.000177   -0.000298   -0.000056
 step:   0.5112(harm=  0.5009)  dis= 0.00088  next Energy= -2048.519237 (dE=-0.181E-03)
 bond charge predicted
       N       E                     dE             d eps       ncg     rms          ort
 gam= 0.000 g(H,U,f)=  0.159E-02 0.127E-03 0.330E-23 ort(H,U,f) = 0.000E+00 0.000E+00 0.000E+00
SDA:   1    -0.202706079286E+04    0.67080E-03    0.00000E+00  1304   0.171E-02 0.000E+00
 gam= 0.000 trial= 0.534  step= 0.591 mean= 0.534
 gam= 0.269 g(H,U,f)=  0.434E-03 0.272E-04 0.530E-24 ort(H,U,f) = 0.242E-04-0.221E-04-0.130E-23
CGA:   2    -0.202706129958E+04   -0.50672E-03   -0.50666E-03  1304   0.462E-03 0.210E-05
 gam= 0.269 trial= 0.537  step= 0.579 mean= 0.537
 gam= 0.160 g(H,U,f)=  0.714E-04 0.239E-05 0.292E-23 ort(H,U,f) =-0.349E-05 0.145E-05-0.404E-24
CGA:   3    -0.202706143340E+04   -0.13382E-03   -0.13386E-03  1304   0.738E-04-0.204E-05
 gam= 0.160 trial= 0.539  step= 0.494 mean= 0.539
 gam= 0.210 g(H,U,f)=  0.144E-04 0.114E-05 0.728E-24 ort(H,U,f) =-0.277E-06 0.687E-06-0.132E-23
CGA:   4    -0.202706145151E+04   -0.18114E-04   -0.18124E-04  1304   0.155E-04 0.410E-06
 gam= 0.210 trial= 0.537  step= 0.558 mean= 0.537
 gam= 0.256 g(H,U,f)=  0.356E-05 0.406E-06 0.315E-25 ort(H,U,f) =-0.106E-05 0.597E-06-0.973E-25
CGA:   5    -0.202706145586E+04   -0.43447E-05   -0.43498E-05  1304   0.397E-05-0.463E-06
 gam= 0.256 trial= 0.538  step= 0.527 mean= 0.538
 gam= 0.326 g(H,U,f)=  0.113E-05 0.162E-06 0.373E-27 ort(H,U,f) = 0.204E-06 0.339E-06 0.715E-27
CGA:   6    -0.202706145687E+04   -0.10102E-05   -0.10133E-05  1304   0.129E-05 0.542E-06
 gam= 0.326 trial= 0.537  step= 0.923 mean= 0.537
 gam= 0.000 g(H,U,f)=  0.170E-05 0.731E-07 0.504E-25 ort(H,U,f) =-0.725E-06 0.738E-07-0.704E-26
CGA:   7    -0.202706145742E+04   -0.55323E-06   -0.67915E-06  1304   0.177E-05-0.651E-06
 gam= 0.000 trial= 0.556  step= 0.238 mean= 0.556
 gam= 0.143 g(H,U,f)=  0.235E-06 0.187E-07 0.240E-26 ort(H,U,f) = 0.414E-06 0.277E-07 0.111E-25
CGA:   8    -0.202706145756E+04   -0.14153E-06   -0.21148E-06  1304   0.254E-06 0.441E-06
 gam= 0.143 trial= 0.540  step= 0.324 mean= 0.540
 gam= 0.429 g(H,U,f)=  0.967E-07 0.122E-07 0.804E-27 ort(H,U,f) = 0.800E-07 0.133E-07-0.231E-26
CGA:   9    -0.202706145760E+04   -0.41153E-07   -0.51289E-07  1304   0.109E-06 0.933E-07
 gam= 0.429 trial= 0.530  step= 1.685 mean= 0.530
 gam= 0.000 g(H,U,f)=  0.107E-05 0.146E-07 0.245E-28 ort(H,U,f) =-0.340E-06-0.396E-08-0.334E-28
CGA:  10    -0.202706145753E+04    0.73574E-07   -0.12543E-06  1304   0.109E-05-0.344E-06
 gam= 0.000 trial= 0.587  step= 0.262 mean= 0.587
 gam= 0.168 g(H,U,f)=  0.181E-06 0.798E-09 0.177E-27 ort(H,U,f) = 0.297E-06 0.134E-08 0.658E-28
CGA:  11    -0.202706145762E+04   -0.93634E-07   -0.14229E-06  1304   0.182E-06 0.299E-06
 gam= 0.168 trial= 0.571  step= 0.395 mean= 0.571
 final diagonalization
 200 F= -.20485192E+04 E0= -.20485192E+04  d E =-.179353E-03
 curvature:  -1.67 expect dE=-0.127E-02 dE for cont linesearch -0.105E-06
 trial: gam= 0.87144 g(F)=  0.755E-03 g(S)=  0.650E-05 ort =-0.176E-04 (trialstep = 0.427E+00)
 search vector abs. value=  0.450E-02
 bond charge predicted
       N       E                     dE             d eps       ncg     rms          ort
 gam= 0.000 g(H,U,f)=  0.237E-01 0.204E-02 0.252E-22 ort(H,U,f) = 0.000E+00 0.000E+00 0.000E+00
SDA:   1    -0.202705176533E+04    0.96922E-02    0.00000E+00  1304   0.257E-01 0.000E+00
 gam= 0.000 trial= 0.562  step= 0.583 mean= 0.562
 gam= 0.269 g(H,U,f)=  0.648E-02 0.422E-03 0.845E-22 ort(H,U,f) = 0.390E-03-0.383E-03-0.751E-22
CGA:   2    -0.202705925905E+04   -0.74937E-02   -0.74936E-02  1304   0.690E-02 0.709E-05
 gam= 0.269 trial= 0.563  step= 0.586 mean= 0.563
 gam= 0.153 g(H,U,f)=  0.102E-02 0.314E-04 0.250E-24 ort(H,U,f) =-0.331E-04 0.279E-04-0.207E-23
CGA:   3    -0.202706128315E+04   -0.20241E-02   -0.20242E-02  1304   0.105E-02-0.519E-05
 gam= 0.153 trial= 0.564  step= 0.503 mean= 0.564
 gam= 0.211 g(H,U,f)=  0.206E-03 0.163E-04 0.124E-23 ort(H,U,f) =-0.890E-05 0.109E-04-0.134E-24
CGA:   4    -0.202706154778E+04   -0.26463E-03   -0.26469E-03  1304   0.223E-03 0.195E-05
 gam= 0.211 trial= 0.561  step= 0.549 mean= 0.561
 gam= 0.230 g(H,U,f)=  0.455E-04 0.575E-05 0.977E-24 ort(H,U,f) =-0.949E-05 0.883E-05 0.116E-23
CGA:   5    -0.202706160897E+04   -0.61191E-04   -0.61187E-04  1304   0.513E-04-0.655E-06
 gam= 0.230 trial= 0.561  step= 0.661 mean= 0.561
 gam= 0.354 g(H,U,f)=  0.161E-04 0.199E-05 0.119E-24 ort(H,U,f) =-0.317E-05 0.422E-05 0.471E-24
CGA:   6    -0.202706162591E+04   -0.16943E-04   -0.16890E-04  1304   0.181E-04 0.105E-05
 gam= 0.354 trial= 0.566  step= 0.722 mean= 0.566
 gam= 0.606 g(H,U,f)=  0.104E-04 0.558E-06 0.214E-24 ort(H,U,f) =-0.306E-05 0.145E-05 0.400E-24
CGA:   7    -0.202706163247E+04   -0.65549E-05   -0.66809E-05  1304   0.110E-04-0.161E-05
 gam= 0.606 trial= 0.574  step= 0.410 mean= 0.574
 gam= 0.254 g(H,U,f)=  0.271E-05 0.866E-07 0.914E-25 ort(H,U,f) = 0.777E-06 0.530E-06 0.310E-24
CGA:   8    -0.202706163442E+04   -0.19472E-05   -0.20541E-05  1304   0.279E-05 0.131E-05
 gam= 0.254 trial= 0.565  step= 0.594 mean= 0.565
 gam= 0.336 g(H,U,f)=  0.921E-06 0.173E-07 0.520E-27 ort(H,U,f) = 0.294E-07 0.553E-07 0.132E-25
CGA:   9    -0.202706163535E+04   -0.92868E-06   -0.92756E-06  1304   0.938E-06 0.847E-07
 gam= 0.336 trial= 0.567  step= 0.822 mean= 0.567
 gam= 0.000 g(H,U,f)=  0.167E-05 0.380E-07 0.187E-26 ort(H,U,f) =-0.710E-06-0.251E-07 0.956E-26
CGA:  10    -0.202706163565E+04   -0.30360E-06   -0.39726E-06  1304   0.170E-05-0.735E-06
 gam= 0.000 trial= 0.580  step= 0.198 mean= 0.580
 gam= 0.111 g(H,U,f)=  0.185E-06 0.538E-08 0.449E-27 ort(H,U,f) = 0.431E-06 0.112E-07 0.918E-27
CGA:  11    -0.202706163573E+04   -0.84205E-07   -0.16867E-06  1304   0.190E-06 0.442E-06
 gam= 0.111 trial= 0.561  step= 0.182 mean= 0.561
 final diagonalization
 201 F= -.20485195E+04 E0= -.20485195E+04  d E =-.238083E-03
 trial-energy change:   -0.000238  1 .order   -0.000239   -0.000319   -0.000159
 step:   0.8762(harm=  0.8517)  dis= 0.00123  next Energy= -2048.519555 (dE=-0.321E-03)
 bond charge predicted
       N       E                     dE             d eps       ncg     rms          ort
 gam= 0.000 g(H,U,f)=  0.261E-01 0.225E-02 0.438E-22 ort(H,U,f) = 0.000E+00 0.000E+00 0.000E+00
SDA:   1    -0.202705074633E+04    0.10889E-01    0.00000E+00  1304   0.284E-01 0.000E+00
 gam= 0.000 trial= 0.542  step= 0.583 mean= 0.542
 gam= 0.268 g(H,U,f)=  0.715E-02 0.465E-03 0.151E-21 ort(H,U,f) = 0.431E-03-0.423E-03-0.135E-21
CGA:   2    -0.202705902280E+04   -0.82765E-02   -0.82763E-02  1304   0.762E-02 0.781E-05
 gam= 0.268 trial= 0.544  step= 0.586 mean= 0.544
 gam= 0.153 g(H,U,f)=  0.113E-02 0.345E-04 0.456E-24 ort(H,U,f) =-0.363E-04 0.305E-04-0.365E-23
CGA:   3    -0.202706125660E+04   -0.22338E-02   -0.22339E-02  1304   0.116E-02-0.582E-05
 gam= 0.153 trial= 0.546  step= 0.503 mean= 0.546
 gam= 0.211 g(H,U,f)=  0.228E-03 0.179E-04 0.213E-23 ort(H,U,f) =-0.958E-05 0.119E-04-0.197E-24
CGA:   4    -0.202706154896E+04   -0.29236E-03   -0.29241E-03  1304   0.246E-03 0.230E-05
 gam= 0.211 trial= 0.544  step= 0.548 mean= 0.544
 gam= 0.232 g(H,U,f)=  0.507E-04 0.633E-05 0.172E-23 ort(H,U,f) =-0.106E-04 0.970E-05 0.204E-23
CGA:   5    -0.202706161649E+04   -0.67525E-04   -0.67527E-04  1304   0.571E-04-0.863E-06
 gam= 0.232 trial= 0.544  step= 0.654 mean= 0.544
 gam= 0.359 g(H,U,f)=  0.183E-04 0.222E-05 0.219E-24 ort(H,U,f) =-0.340E-05 0.469E-05 0.852E-24
CGA:   6    -0.202706163515E+04   -0.18658E-04   -0.18588E-04  1304   0.205E-04 0.129E-05
 gam= 0.359 trial= 0.549  step= 0.706 mean= 0.549
 gam= 0.618 g(H,U,f)=  0.120E-04 0.656E-06 0.368E-24 ort(H,U,f) =-0.351E-05 0.165E-05 0.713E-24
CGA:   7    -0.202706164240E+04   -0.72522E-05   -0.73977E-05  1304   0.127E-04-0.186E-05
 gam= 0.618 trial= 0.557  step= 0.415 mean= 0.557
 gam= 0.248 g(H,U,f)=  0.305E-05 0.965E-07 0.167E-24 ort(H,U,f) = 0.826E-06 0.606E-06 0.566E-24
CGA:   8    -0.202706164468E+04   -0.22843E-05   -0.23863E-05  1304   0.314E-05 0.143E-05
 gam= 0.248 trial= 0.550  step= 0.593 mean= 0.550
 gam= 0.341 g(H,U,f)=  0.105E-05 0.203E-07 0.155E-26 ort(H,U,f) = 0.710E-07 0.613E-07 0.306E-25
CGA:   9    -0.202706164572E+04   -0.10395E-05   -0.10369E-05  1304   0.107E-05 0.132E-06
 gam= 0.341 trial= 0.552  step= 0.788 mean= 0.552
 gam= 0.000 g(H,U,f)=  0.177E-05 0.401E-07 0.247E-26 ort(H,U,f) =-0.771E-06-0.265E-07 0.153E-25
CGA:  10    -0.202706164607E+04   -0.34596E-06   -0.43954E-06  1304   0.181E-05-0.797E-06
 gam= 0.000 trial= 0.564  step= 0.199 mean= 0.564
 gam= 0.113 g(H,U,f)=  0.199E-06 0.555E-08 0.777E-27 ort(H,U,f) = 0.457E-06 0.116E-07 0.139E-26
CGA:  11    -0.202706164616E+04   -0.93933E-07   -0.17969E-06  1304   0.205E-06 0.468E-06
 gam= 0.113 trial= 0.546  step= 0.186 mean= 0.546
 final diagonalization
 202 F= -.20485195E+04 E0= -.20485195E+04  d E =-.311673E-03
 curvature:  -2.56 expect dE=-0.278E-02 dE for cont linesearch -0.320E-06
 trial: gam= 1.51291 g(F)=  0.109E-02 g(S)=  0.265E-06 ort =-0.237E-04 (trialstep = 0.206E+00)
 search vector abs. value=  0.113E-01
 bond charge predicted
       N       E                     dE             d eps       ncg     rms          ort
 gam= 0.000 g(H,U,f)=  0.134E-01 0.116E-02 0.390E-25 ort(H,U,f) = 0.000E+00 0.000E+00 0.000E+00
SDA:   1    -0.202705619739E+04    0.54487E-02    0.00000E+00  1304   0.146E-01 0.000E+00
 gam= 0.000 trial= 0.528  step= 0.580 mean= 0.528
 gam= 0.268 g(H,U,f)=  0.367E-02 0.249E-03 0.465E-23 ort(H,U,f) = 0.224E-03-0.218E-03-0.720E-24
CGA:   2    -0.202706043313E+04   -0.42357E-02   -0.42356E-02  1304   0.392E-02 0.597E-05
 gam= 0.268 trial= 0.530  step= 0.583 mean= 0.530
 gam= 0.158 g(H,U,f)=  0.601E-03 0.191E-04 0.179E-22 ort(H,U,f) =-0.177E-04 0.151E-04 0.637E-23
CGA:   3    -0.202706157439E+04   -0.11413E-02   -0.11413E-02  1304   0.620E-03-0.261E-05
 gam= 0.158 trial= 0.533  step= 0.497 mean= 0.533
 gam= 0.208 g(H,U,f)=  0.119E-03 0.982E-05 0.506E-23 ort(H,U,f) =-0.358E-05 0.540E-05-0.849E-23
CGA:   4    -0.202706172827E+04   -0.15388E-03   -0.15391E-03  1304   0.129E-03 0.182E-05
 gam= 0.208 trial= 0.531  step= 0.555 mean= 0.531
 gam= 0.225 g(H,U,f)=  0.258E-04 0.322E-05 0.445E-26 ort(H,U,f) =-0.527E-05 0.489E-05-0.104E-24
CGA:   5    -0.202706176414E+04   -0.35869E-04   -0.35873E-04  1304   0.290E-04-0.380E-06
 gam= 0.225 trial= 0.532  step= 0.673 mean= 0.532
 gam= 0.350 g(H,U,f)=  0.904E-05 0.110E-05 0.455E-25 ort(H,U,f) =-0.170E-05 0.231E-05 0.617E-25
CGA:   6    -0.202706177391E+04   -0.97713E-05   -0.97284E-05  1304   0.101E-04 0.609E-06
 gam= 0.350 trial= 0.539  step= 0.749 mean= 0.539
 gam= 0.614 g(H,U,f)=  0.593E-05 0.301E-06 0.366E-25 ort(H,U,f) =-0.180E-05 0.755E-06 0.607E-25
CGA:   7    -0.202706177768E+04   -0.37668E-05   -0.38766E-05  1304   0.623E-05-0.105E-05
 gam= 0.614 trial= 0.550  step= 0.391 mean= 0.550
 gam= 0.255 g(H,U,f)=  0.154E-05 0.462E-07 0.558E-26 ort(H,U,f) = 0.650E-06 0.285E-06 0.292E-25
CGA:   8    -0.202706177870E+04   -0.10188E-05   -0.10929E-05  1304   0.159E-05 0.935E-06
 gam= 0.255 trial= 0.542  step= 0.558 mean= 0.542
 gam= 0.385 g(H,U,f)=  0.598E-06 0.138E-07 0.624E-29 ort(H,U,f) = 0.350E-07 0.314E-07 0.421E-27
CGA:   9    -0.202706177921E+04   -0.51133E-06   -0.51089E-06  1304   0.612E-06 0.664E-07
 gam= 0.385 trial= 0.543  step= 0.984 mean= 0.543
 gam= 0.000 g(H,U,f)=  0.190E-05 0.440E-07 0.266E-26 ort(H,U,f) =-0.768E-06-0.285E-07-0.363E-26
CGA:  10    -0.202706177935E+04   -0.13757E-06   -0.31377E-06  1304   0.195E-05-0.797E-06
 gam= 0.000 trial= 0.565  step= 0.203 mean= 0.565
 gam= 0.104 g(H,U,f)=  0.196E-06 0.538E-08 0.101E-26 ort(H,U,f) = 0.467E-06 0.116E-07 0.164E-26
CGA:  11    -0.202706177946E+04   -0.11164E-06   -0.19815E-06  1304   0.202E-06 0.479E-06
 gam= 0.104 trial= 0.547  step= 0.188 mean= 0.547
 gam= 0.000 g(H,U,f)=  0.806E-07 0.306E-08 0.423E-27 ort(H,U,f) = 0.109E-06 0.357E-08 0.762E-27
CGA:  12    -0.202706177946E+04   -0.34561E-08   -0.23662E-07  1304   0.836E-07 0.113E-06
 gam= 0.000 trial= 0.529  step=-7.424 mean= 0.529
 BOPT < 0, no correction made
 gam= 0.279 g(H,U,f)=  0.215E-07 0.185E-08 0.756E-28 ort(H,U,f) = 0.205E-07 0.203E-08 0.179E-27
CGA:  13    -0.202706177951E+04   -0.45788E-07    0.31042E-06  1304   0.234E-07 0.225E-07
 gam= 0.279 trial= 0.529  step= 0.172 mean= 0.529
 final diagonalization
 203 F= -.20485197E+04 E0= -.20485197E+04  d E =-.171888E-03
 trial-energy change:   -0.000172  1 .order   -0.000173   -0.000216   -0.000130
 step:   0.6201(harm=  0.5150)  dis= 0.00138  next Energy= -2048.519839 (dE=-0.293E-03)
 bond charge predicted
       N       E                     dE             d eps       ncg     rms          ort
 gam= 0.000 g(H,U,f)=  0.546E-01 0.473E-02 0.140E-24 ort(H,U,f) = 0.000E+00 0.000E+00 0.000E+00
SDA:   1    -0.202703907808E+04    0.22701E-01    0.00000E+00  1304   0.593E-01 0.000E+00
 gam= 0.000 trial= 0.511  step= 0.581 mean= 0.511
 gam= 0.269 g(H,U,f)=  0.149E-01 0.101E-02 0.259E-22 ort(H,U,f) = 0.901E-03-0.889E-03-0.507E-23
CGA:   2    -0.202705630643E+04   -0.17228E-01   -0.17228E-01  1304   0.159E-01 0.116E-04
 gam= 0.269 trial= 0.515  step= 0.582 mean= 0.515
 gam= 0.158 g(H,U,f)=  0.244E-02 0.781E-04 0.483E-22 ort(H,U,f) =-0.678E-04 0.622E-04 0.177E-22
CGA:   3    -0.202706094746E+04   -0.46410E-02   -0.46412E-02  1304   0.252E-02-0.559E-05
 gam= 0.158 trial= 0.518  step= 0.497 mean= 0.518
 gam= 0.209 g(H,U,f)=  0.487E-03 0.401E-04 0.942E-23 ort(H,U,f) =-0.180E-04 0.221E-04-0.160E-22
CGA:   4    -0.202706157331E+04   -0.62585E-03   -0.62590E-03  1304   0.527E-03 0.415E-05
 gam= 0.209 trial= 0.517  step= 0.554 mean= 0.517
 gam= 0.224 g(H,U,f)=  0.105E-03 0.132E-04 0.915E-26 ort(H,U,f) =-0.211E-04 0.201E-04-0.216E-24
CGA:   5    -0.202706171936E+04   -0.14605E-03   -0.14607E-03  1304   0.118E-03-0.983E-06
 gam= 0.224 trial= 0.519  step= 0.675 mean= 0.519
 gam= 0.359 g(H,U,f)=  0.379E-04 0.449E-05 0.794E-25 ort(H,U,f) =-0.792E-05 0.943E-05 0.118E-24
CGA:   6    -0.202706175924E+04   -0.39881E-04   -0.39763E-04  1304   0.424E-04 0.151E-05
 gam= 0.359 trial= 0.527  step= 0.695 mean= 0.527
 gam= 0.554 g(H,U,f)=  0.222E-04 0.133E-05 0.870E-25 ort(H,U,f) =-0.568E-05 0.340E-05 0.129E-24
CGA:   7    -0.202706177397E+04   -0.14734E-04   -0.14927E-04  1304   0.235E-04-0.228E-05
 gam= 0.554 trial= 0.535  step= 0.444 mean= 0.535
 gam= 0.262 g(H,U,f)=  0.595E-05 0.213E-06 0.815E-26 ort(H,U,f) = 0.100E-05 0.115E-05 0.497E-25
CGA:   8    -0.202706177881E+04   -0.48404E-05   -0.49382E-05  1304   0.616E-05 0.215E-05
 gam= 0.262 trial= 0.530  step= 0.678 mean= 0.530
 gam= 0.302 g(H,U,f)=  0.183E-05 0.310E-07 0.107E-28 ort(H,U,f) =-0.525E-06 0.935E-07-0.752E-27
CGA:   9    -0.202706178106E+04   -0.22472E-05   -0.22791E-05  1304   0.186E-05-0.431E-06
 gam= 0.302 trial= 0.538  step= 0.737 mean= 0.538
 gam= 0.478 g(H,U,f)=  0.855E-06 0.326E-07 0.387E-26 ort(H,U,f) =-0.299E-06-0.343E-07-0.429E-26
CGA:  10    -0.202706178166E+04   -0.60318E-06   -0.63640E-06  1304   0.888E-06-0.333E-06
 gam= 0.478 trial= 0.548  step= 0.280 mean= 0.548
 gam= 0.336 g(H,U,f)=  0.284E-06 0.142E-07 0.800E-27 ort(H,U,f) = 0.249E-06 0.264E-09 0.825E-27
CGA:  11    -0.202706178173E+04   -0.68685E-07   -0.10203E-06  1304   0.299E-06 0.249E-06
 gam= 0.336 trial= 0.534  step= 0.301 mean= 0.534
 final diagonalization
 204 F= -.20485198E+04 E0= -.20485198E+04  d E =-.252068E-03
 curvature:  -2.45 expect dE=-0.274E-02 dE for cont linesearch -0.107E-04
 ZBRENT: interpolating
 opt :   0.5124  next Energy= -2048.519810 (dE=-0.264E-03)
 bond charge predicted
       N       E                     dE             d eps       ncg     rms          ort
 gam= 0.000 g(H,U,f)=  0.369E-02 0.320E-03 0.383E-26 ort(H,U,f) = 0.000E+00 0.000E+00 0.000E+00
SDA:   1    -0.202706027952E+04    0.15021E-02    0.00000E+00  1304   0.401E-02 0.000E+00
 gam= 0.000 trial= 0.523  step= 0.581 mean= 0.523
 gam= 0.269 g(H,U,f)=  0.101E-02 0.695E-04 0.224E-24 ort(H,U,f) = 0.564E-04-0.599E-04-0.199E-25
CGA:   2    -0.202706144525E+04   -0.11657E-02   -0.11658E-02  1304   0.108E-02-0.356E-05
 gam= 0.269 trial= 0.526  step= 0.580 mean= 0.526
 gam= 0.158 g(H,U,f)=  0.165E-03 0.538E-05 0.262E-23 ort(H,U,f) =-0.292E-05 0.475E-05 0.884E-24
CGA:   3    -0.202706175824E+04   -0.31299E-03   -0.31294E-03  1304   0.170E-03 0.183E-05
 gam= 0.158 trial= 0.528  step= 0.502 mean= 0.528
 gam= 0.217 g(H,U,f)=  0.342E-04 0.281E-05 0.132E-23 ort(H,U,f) =-0.302E-05 0.162E-05-0.215E-23
CGA:   4    -0.202706180108E+04   -0.42838E-04   -0.42819E-04  1304   0.370E-04-0.139E-05
 gam= 0.217 trial= 0.527  step= 0.534 mean= 0.527
 gam= 0.220 g(H,U,f)=  0.721E-05 0.923E-06 0.577E-27 ort(H,U,f) =-0.856E-06 0.148E-05 0.172E-25
CGA:   5    -0.202706181088E+04   -0.97929E-05   -0.97905E-05  1304   0.813E-05 0.626E-06
 gam= 0.220 trial= 0.527  step= 0.716 mean= 0.527
 gam= 0.500 g(H,U,f)=  0.375E-05 0.315E-06 0.163E-26 ort(H,U,f) =-0.140E-05 0.641E-06 0.729E-26
CGA:   6    -0.202706181377E+04   -0.28903E-05   -0.29621E-05  1304   0.406E-05-0.759E-06
 gam= 0.500 trial= 0.537  step= 0.433 mean= 0.537
 gam= 0.324 g(H,U,f)=  0.120E-05 0.119E-06 0.745E-26 ort(H,U,f) = 0.298E-06 0.361E-06 0.113E-25
CGA:   7    -0.202706181453E+04   -0.76230E-06   -0.79676E-06  1304   0.132E-05 0.659E-06
 gam= 0.324 trial= 0.532  step= 0.747 mean= 0.532
 gam= 0.526 g(H,U,f)=  0.670E-06 0.233E-07 0.173E-27 ort(H,U,f) =-0.382E-06 0.596E-07 0.168E-26
CGA:   8    -0.202706181506E+04   -0.53684E-06   -0.57177E-06  1304   0.693E-06-0.322E-06
 gam= 0.526 trial= 0.542  step= 0.673 mean= 0.542
 gam= 0.384 g(H,U,f)=  0.263E-06 0.330E-08 0.632E-27 ort(H,U,f) =-0.787E-07-0.110E-07 0.202E-26
CGA:   9    -0.202706181524E+04   -0.17034E-06   -0.17621E-06  1304   0.266E-06-0.897E-07
 gam= 0.384 trial= 0.549  step= 0.230 mean= 0.549
 gam= 0.393 g(H,U,f)=  0.102E-06 0.254E-08 0.557E-29 ort(H,U,f) = 0.108E-06-0.502E-08 0.132E-27
CGA:  10    -0.202706181525E+04   -0.10456E-07   -0.26662E-07  1304   0.105E-06 0.103E-06
 gam= 0.393 trial= 0.533  step= 0.217 mean= 0.533
 final diagonalization
 205 F= -.20485198E+04 E0= -.20485198E+04  d E =-.265274E-03
 curvature:  -2.74 expect dE=-0.205E-02 dE for cont linesearch -0.160E-07
 trial: gam= 0.64292 g(F)=  0.742E-03 g(S)=  0.399E-05 ort =-0.812E-05 (trialstep = 0.267E+00)
 search vector abs. value=  0.541E-02
 bond charge predicted
       N       E                     dE             d eps       ncg     rms          ort
 gam= 0.000 g(H,U,f)=  0.103E-01 0.917E-03 0.119E-22 ort(H,U,f) = 0.000E+00 0.000E+00 0.000E+00
SDA:   1    -0.202705756901E+04    0.42462E-02    0.00000E+00  1304   0.112E-01 0.000E+00
 gam= 0.000 trial= 0.517  step= 0.583 mean= 0.517
 gam= 0.269 g(H,U,f)=  0.283E-02 0.193E-03 0.953E-23 ort(H,U,f) = 0.176E-03-0.167E-03-0.155E-22
CGA:   2    -0.202706084504E+04   -0.32760E-02   -0.32757E-02  1304   0.302E-02 0.879E-05
 gam= 0.269 trial= 0.520  step= 0.579 mean= 0.520
 gam= 0.163 g(H,U,f)=  0.477E-03 0.156E-04 0.476E-24 ort(H,U,f) =-0.162E-04 0.122E-04 0.913E-24
CGA:   3    -0.202706171966E+04   -0.87462E-03   -0.87474E-03  1304   0.493E-03-0.402E-05
 gam= 0.163 trial= 0.523  step= 0.486 mean= 0.523
 gam= 0.212 g(H,U,f)=  0.967E-04 0.786E-05 0.145E-23 ort(H,U,f) =-0.144E-05 0.500E-05-0.103E-23
CGA:   4    -0.202706183927E+04   -0.11962E-03   -0.11968E-03  1304   0.105E-03 0.355E-05
 gam= 0.212 trial= 0.522  step= 0.550 mean= 0.522
 gam= 0.259 g(H,U,f)=  0.244E-04 0.268E-05 0.290E-24 ort(H,U,f) =-0.643E-05 0.426E-05 0.578E-24
CGA:   5    -0.202706186818E+04   -0.28907E-04   -0.28937E-04  1304   0.270E-04-0.216E-05
 gam= 0.259 trial= 0.523  step= 0.539 mean= 0.523
 gam= 0.374 g(H,U,f)=  0.903E-05 0.108E-05 0.606E-25 ort(H,U,f) =-0.444E-06 0.223E-05 0.207E-24
CGA:   6    -0.202706187533E+04   -0.71476E-05   -0.71334E-05  1304   0.101E-04 0.178E-05
 gam= 0.374 trial= 0.524  step= 0.652 mean= 0.524
 gam= 0.596 g(H,U,f)=  0.558E-05 0.446E-06 0.832E-25 ort(H,U,f) =-0.225E-05 0.862E-06 0.165E-24
CGA:   7    -0.202706187875E+04   -0.34243E-05   -0.35129E-05  1304   0.603E-05-0.139E-05
 gam= 0.596 trial= 0.530  step= 0.452 mean= 0.530
 gam= 0.240 g(H,U,f)=  0.139E-05 0.569E-07 0.223E-25 ort(H,U,f) = 0.554E-06 0.349E-06 0.959E-25
CGA:   8    -0.202706187989E+04   -0.11408E-05   -0.11759E-05  1304   0.145E-05 0.903E-06
 gam= 0.240 trial= 0.526  step= 0.523 mean= 0.526
 gam= 0.359 g(H,U,f)=  0.498E-06 0.203E-07 0.217E-26 ort(H,U,f) = 0.135E-06 0.349E-07 0.143E-25
CGA:   9    -0.202706188033E+04   -0.43400E-06   -0.43439E-06  1304   0.519E-06 0.170E-06
 gam= 0.359 trial= 0.526  step= 1.131 mean= 0.526
 gam= 0.000 g(H,U,f)=  0.177E-05 0.503E-07 0.213E-27 ort(H,U,f) =-0.737E-06-0.259E-07 0.231E-26
CGA:  10    -0.202706188042E+04   -0.96756E-07   -0.32775E-06  1304   0.182E-05-0.763E-06
 gam= 0.000 trial= 0.556  step= 0.215 mean= 0.556
 gam= 0.127 g(H,U,f)=  0.226E-06 0.577E-08 0.896E-29 ort(H,U,f) = 0.466E-06 0.131E-07-0.434E-28
CGA:  11    -0.202706188054E+04   -0.11348E-06   -0.19545E-06  1304   0.232E-06 0.479E-06
 gam= 0.127 trial= 0.539  step= 0.226 mean= 0.539
 gam= 0.000 g(H,U,f)=  0.900E-07 0.284E-08 0.134E-28 ort(H,U,f) = 0.117E-06 0.255E-08 0.409E-29
CGA:  12    -0.202706188055E+04   -0.14465E-07   -0.33054E-07  1304   0.929E-07 0.120E-06
 gam= 0.000 trial= 0.524  step=-1.042 mean= 0.524
 BOPT < 0, no correction made
 final diagonalization
 206 F= -.20485200E+04 E0= -.20485200E+04  d E =-.158249E-03
 trial-energy change:   -0.000158  1 .order   -0.000160   -0.000198   -0.000122
 step:   0.6995(harm=  0.6995)  dis= 0.00114  next Energy= -2048.520071 (dE=-0.259E-03)
 bond charge predicted
       N       E                     dE             d eps       ncg     rms          ort
 gam= 0.000 g(H,U,f)=  0.271E-01 0.241E-02 0.451E-22 ort(H,U,f) = 0.000E+00 0.000E+00 0.000E+00
SDA:   1    -0.202705050320E+04    0.11377E-01    0.00000E+00  1304   0.295E-01 0.000E+00
 gam= 0.000 trial= 0.524  step= 0.583 mean= 0.524
 gam= 0.269 g(H,U,f)=  0.743E-02 0.504E-03 0.576E-22 ort(H,U,f) = 0.454E-03-0.440E-03-0.922E-22
CGA:   2    -0.202705910473E+04   -0.86015E-02   -0.86011E-02  1304   0.793E-02 0.140E-04
 gam= 0.269 trial= 0.527  step= 0.579 mean= 0.527
 gam= 0.163 g(H,U,f)=  0.126E-02 0.407E-04 0.196E-23 ort(H,U,f) =-0.380E-04 0.311E-04 0.389E-23
CGA:   3    -0.202706140085E+04   -0.22961E-02   -0.22963E-02  1304   0.130E-02-0.686E-05
 gam= 0.163 trial= 0.529  step= 0.486 mean= 0.529
 gam= 0.214 g(H,U,f)=  0.256E-03 0.204E-04 0.558E-23 ort(H,U,f) =-0.653E-05 0.127E-04-0.400E-23
CGA:   4    -0.202706171524E+04   -0.31438E-03   -0.31452E-03  1304   0.277E-03 0.616E-05
 gam= 0.214 trial= 0.527  step= 0.540 mean= 0.527
 gam= 0.257 g(H,U,f)=  0.643E-04 0.699E-05 0.129E-23 ort(H,U,f) =-0.149E-04 0.112E-04 0.245E-23
CGA:   5    -0.202706179027E+04   -0.75031E-04   -0.75055E-04  1304   0.713E-04-0.376E-05
 gam= 0.257 trial= 0.528  step= 0.544 mean= 0.528
 gam= 0.395 g(H,U,f)=  0.253E-04 0.284E-05 0.237E-24 ort(H,U,f) =-0.268E-05 0.574E-05 0.866E-24
CGA:   6    -0.202706180940E+04   -0.19136E-04   -0.19111E-04  1304   0.281E-04 0.306E-05
 gam= 0.395 trial= 0.528  step= 0.609 mean= 0.528
 gam= 0.498 g(H,U,f)=  0.128E-04 0.115E-05 0.344E-24 ort(H,U,f) =-0.461E-05 0.242E-05 0.719E-24
CGA:   7    -0.202706181824E+04   -0.88344E-05   -0.89223E-05  1304   0.140E-04-0.219E-05
 gam= 0.498 trial= 0.532  step= 0.524 mean= 0.532
 gam= 0.234 g(H,U,f)=  0.314E-05 0.140E-06 0.925E-25 ort(H,U,f) = 0.708E-06 0.801E-06 0.376E-24
CGA:   8    -0.202706182161E+04   -0.33771E-05   -0.33832E-05  1304   0.328E-05 0.151E-05
 gam= 0.234 trial= 0.532  step= 0.706 mean= 0.532
 gam= 0.334 g(H,U,f)=  0.106E-05 0.333E-07 0.668E-26 ort(H,U,f) =-0.256E-06 0.567E-07 0.496E-25
CGA:   9    -0.202706182288E+04   -0.12648E-05   -0.12822E-05  1304   0.109E-05-0.199E-06
 gam= 0.334 trial= 0.541  step= 0.640 mean= 0.541
 gam= 0.329 g(H,U,f)=  0.343E-06 0.170E-07 0.103E-26 ort(H,U,f) =-0.491E-07-0.120E-07 0.921E-26
CGA:  10    -0.202706182321E+04   -0.32621E-06   -0.32925E-06  1304   0.360E-06-0.611E-07
 gam= 0.329 trial= 0.546  step= 0.421 mean= 0.546
 gam= 0.293 g(H,U,f)=  0.101E-06 0.515E-08 0.120E-26 ort(H,U,f) = 0.814E-07 0.374E-09 0.439E-26
CGA:  11    -0.202706182327E+04   -0.66713E-07   -0.71675E-07  1304   0.106E-06 0.818E-07
 gam= 0.293 trial= 0.540  step= 0.770 mean= 0.540
 final diagonalization
 207 F= -.20485201E+04 E0= -.20485201E+04  d E =-.251695E-03
 curvature:  -2.55 expect dE=-0.199E-02 dE for cont linesearch -0.139E-08
 trial: gam= 1.07887 g(F)=  0.766E-03 g(S)=  0.125E-04 ort =-0.172E-05 (trialstep = 0.270E+00)
 search vector abs. value=  0.707E-02
 bond charge predicted
       N       E                     dE             d eps       ncg     rms          ort
 gam= 0.000 g(H,U,f)=  0.134E-01 0.121E-02 0.235E-22 ort(H,U,f) = 0.000E+00 0.000E+00 0.000E+00
SDA:   1    -0.202705629474E+04    0.55285E-02    0.00000E+00  1304   0.146E-01 0.000E+00
 gam= 0.000 trial= 0.551  step= 0.584 mean= 0.551
 gam= 0.269 g(H,U,f)=  0.368E-02 0.250E-03 0.426E-22 ort(H,U,f) = 0.229E-03-0.220E-03-0.451E-22
CGA:   2    -0.202706056101E+04   -0.42663E-02   -0.42661E-02  1304   0.393E-02 0.903E-05
 gam= 0.269 trial= 0.553  step= 0.577 mean= 0.553
 gam= 0.164 g(H,U,f)=  0.626E-03 0.199E-04 0.135E-22 ort(H,U,f) =-0.254E-04 0.193E-04 0.122E-22
CGA:   3    -0.202706169659E+04   -0.11356E-02   -0.11357E-02  1304   0.645E-03-0.602E-05
 gam= 0.164 trial= 0.554  step= 0.482 mean= 0.554
 gam= 0.219 g(H,U,f)=  0.131E-03 0.105E-04 0.300E-23 ort(H,U,f) =-0.207E-05 0.613E-05-0.645E-23
CGA:   4    -0.202706185185E+04   -0.15526E-03   -0.15540E-03  1304   0.141E-03 0.406E-05
 gam= 0.219 trial= 0.550  step= 0.536 mean= 0.550
 gam= 0.264 g(H,U,f)=  0.336E-04 0.366E-05 0.618E-26 ort(H,U,f) =-0.890E-05 0.594E-05-0.747E-25
CGA:   5    -0.202706189003E+04   -0.38184E-04   -0.38163E-04  1304   0.373E-04-0.295E-05
 gam= 0.264 trial= 0.550  step= 0.516 mean= 0.550
 gam= 0.373 g(H,U,f)=  0.124E-04 0.151E-05 0.601E-26 ort(H,U,f) =-0.824E-06 0.308E-05-0.134E-25
CGA:   6    -0.202706189940E+04   -0.93744E-05   -0.94130E-05  1304   0.139E-04 0.226E-05
 gam= 0.373 trial= 0.548  step= 0.642 mean= 0.548
 gam= 0.519 g(H,U,f)=  0.661E-05 0.622E-06 0.179E-24 ort(H,U,f) =-0.271E-05 0.121E-05-0.536E-26
CGA:   7    -0.202706190407E+04   -0.46672E-05   -0.47381E-05  1304   0.723E-05-0.150E-05
 gam= 0.519 trial= 0.553  step= 0.506 mean= 0.553
 gam= 0.236 g(H,U,f)=  0.163E-05 0.750E-07 0.534E-26 ort(H,U,f) = 0.560E-06 0.441E-06 0.308E-25
CGA:   8    -0.202706190568E+04   -0.16081E-05   -0.16314E-05  1304   0.171E-05 0.100E-05
 gam= 0.236 trial= 0.550  step= 0.637 mean= 0.550
 gam= 0.331 g(H,U,f)=  0.542E-06 0.229E-07 0.888E-28 ort(H,U,f) =-0.292E-07 0.380E-07-0.163E-26
CGA:   9    -0.202706190630E+04   -0.61916E-06   -0.61886E-06  1304   0.565E-06 0.873E-08
 gam= 0.331 trial= 0.555  step= 0.794 mean= 0.555
 gam= 0.650 g(H,U,f)=  0.344E-06 0.229E-07 0.333E-26 ort(H,U,f) =-0.188E-06-0.128E-07 0.279E-26
CGA:  10    -0.202706190650E+04   -0.20132E-06   -0.22554E-06  1304   0.367E-06-0.201E-06
 gam= 0.650 trial= 0.567  step= 0.237 mean= 0.567
 gam= 0.479 g(H,U,f)=  0.165E-06 0.110E-07 0.723E-27 ort(H,U,f) = 0.993E-07 0.470E-08 0.240E-26
CGA:  11    -0.202706190651E+04   -0.11009E-07   -0.28061E-07  1304   0.176E-06 0.104E-06
 gam= 0.479 trial= 0.550  step= 0.205 mean= 0.550
 final diagonalization
 208 F= -.20485202E+04 E0= -.20485202E+04  d E =-.159506E-03
 trial-energy change:   -0.000160  1 .order   -0.000164   -0.000210   -0.000118
 step:   0.6143(harm=  0.6143)  dis= 0.00120  next Energy= -2048.520302 (dE=-0.238E-03)
 bond charge predicted
       N       E                     dE             d eps       ncg     rms          ort
 gam= 0.000 g(H,U,f)=  0.217E-01 0.196E-02 0.331E-22 ort(H,U,f) = 0.000E+00 0.000E+00 0.000E+00
SDA:   1    -0.202705280168E+04    0.91048E-02    0.00000E+00  1304   0.236E-01 0.000E+00
 gam= 0.000 trial= 0.533  step= 0.584 mean= 0.533
 gam= 0.269 g(H,U,f)=  0.595E-02 0.404E-03 0.730E-22 ort(H,U,f) = 0.368E-03-0.356E-03-0.772E-22
CGA:   2    -0.202705970754E+04   -0.69059E-02   -0.69056E-02  1304   0.636E-02 0.116E-04
 gam= 0.269 trial= 0.535  step= 0.578 mean= 0.535
 gam= 0.163 g(H,U,f)=  0.101E-02 0.317E-04 0.191E-22 ort(H,U,f) =-0.393E-04 0.316E-04 0.174E-22
CGA:   3    -0.202706154465E+04   -0.18371E-02   -0.18373E-02  1304   0.104E-02-0.775E-05
 gam= 0.163 trial= 0.538  step= 0.485 mean= 0.538
 gam= 0.219 g(H,U,f)=  0.211E-03 0.170E-04 0.403E-23 ort(H,U,f) =-0.473E-05 0.996E-05-0.858E-23
CGA:   4    -0.202706179607E+04   -0.25142E-03   -0.25156E-03  1304   0.228E-03 0.523E-05
 gam= 0.219 trial= 0.535  step= 0.534 mean= 0.535
 gam= 0.261 g(H,U,f)=  0.535E-04 0.589E-05 0.137E-25 ort(H,U,f) =-0.133E-04 0.956E-05-0.131E-24
CGA:   5    -0.202706185708E+04   -0.61007E-04   -0.61004E-04  1304   0.593E-04-0.379E-05
 gam= 0.261 trial= 0.535  step= 0.527 mean= 0.535
 gam= 0.384 g(H,U,f)=  0.204E-04 0.242E-05 0.846E-26 ort(H,U,f) =-0.197E-05 0.492E-05-0.162E-25
CGA:   6    -0.202706187243E+04   -0.15352E-04   -0.15364E-04  1304   0.228E-04 0.295E-05
 gam= 0.384 trial= 0.534  step= 0.623 mean= 0.534
 gam= 0.494 g(H,U,f)=  0.103E-04 0.985E-06 0.216E-24 ort(H,U,f) =-0.399E-05 0.200E-05-0.110E-25
CGA:   7    -0.202706187979E+04   -0.73599E-05   -0.74477E-05  1304   0.113E-04-0.198E-05
 gam= 0.494 trial= 0.539  step= 0.526 mean= 0.539
 gam= 0.234 g(H,U,f)=  0.251E-05 0.119E-06 0.431E-26 ort(H,U,f) = 0.667E-06 0.681E-06 0.302E-25
CGA:   8    -0.202706188249E+04   -0.26954E-05   -0.27042E-05  1304   0.263E-05 0.135E-05
 gam= 0.234 trial= 0.538  step= 0.695 mean= 0.538
 gam= 0.335 g(H,U,f)=  0.850E-06 0.290E-07 0.166E-27 ort(H,U,f) =-0.183E-06 0.538E-07 0.224E-26
CGA:   9    -0.202706188350E+04   -0.10127E-05   -0.10228E-05  1304   0.879E-06-0.129E-06
 gam= 0.335 trial= 0.546  step= 0.614 mean= 0.546
 gam= 0.299 g(H,U,f)=  0.250E-06 0.129E-07 0.482E-27 ort(H,U,f) =-0.107E-08-0.601E-08 0.156E-26
CGA:  10    -0.202706188376E+04   -0.25640E-06   -0.25669E-06  1304   0.263E-06-0.708E-08
 gam= 0.299 trial= 0.550  step= 0.460 mean= 0.550
 gam= 0.291 g(H,U,f)=  0.731E-07 0.361E-08 0.112E-29 ort(H,U,f) = 0.609E-07 0.361E-09 0.452E-28
CGA:  11    -0.202706188381E+04   -0.57480E-07   -0.60099E-07  1304   0.767E-07 0.612E-07
 gam= 0.291 trial= 0.545  step= 0.928 mean= 0.545
 final diagonalization
 209 F= -.20485203E+04 E0= -.20485203E+04  d E =-.233835E-03
 curvature:  -2.80 expect dE=-0.232E-02 dE for cont linesearch -0.424E-06
 trial: gam= 1.01157 g(F)=  0.822E-03 g(S)=  0.758E-05 ort = 0.327E-04 (trialstep = 0.295E+00)
 search vector abs. value=  0.813E-02
 bond charge predicted
       N       E                     dE             d eps       ncg     rms          ort
 gam= 0.000 g(H,U,f)=  0.186E-01 0.167E-02 0.442E-22 ort(H,U,f) = 0.000E+00 0.000E+00 0.000E+00
SDA:   1    -0.202705419876E+04    0.76850E-02    0.00000E+00  1304   0.202E-01 0.000E+00
 gam= 0.000 trial= 0.564  step= 0.588 mean= 0.564
 gam= 0.271 g(H,U,f)=  0.513E-02 0.351E-03 0.134E-21 ort(H,U,f) = 0.323E-03-0.316E-03-0.116E-21
CGA:   2    -0.202706014933E+04   -0.59506E-02   -0.59505E-02  1304   0.548E-02 0.623E-05
 gam= 0.271 trial= 0.565  step= 0.576 mean= 0.565
 gam= 0.161 g(H,U,f)=  0.852E-03 0.285E-04 0.173E-22 ort(H,U,f) =-0.302E-04 0.255E-04 0.231E-22
CGA:   3    -0.202706172950E+04   -0.15802E-02   -0.15802E-02  1304   0.881E-03-0.465E-05
 gam= 0.161 trial= 0.566  step= 0.494 mean= 0.566
 gam= 0.213 g(H,U,f)=  0.173E-03 0.148E-04 0.284E-23 ort(H,U,f) =-0.587E-05 0.812E-05-0.699E-23
CGA:   4    -0.202706194667E+04   -0.21718E-03   -0.21726E-03  1304   0.187E-03 0.225E-05
 gam= 0.213 trial= 0.562  step= 0.552 mean= 0.562
 gam= 0.233 g(H,U,f)=  0.388E-04 0.489E-05 0.169E-24 ort(H,U,f) =-0.894E-05 0.779E-05-0.344E-24
CGA:   5    -0.202706199854E+04   -0.51869E-04   -0.51863E-04  1304   0.437E-04-0.115E-05
 gam= 0.233 trial= 0.562  step= 0.624 mean= 0.562
 gam= 0.377 g(H,U,f)=  0.147E-04 0.174E-05 0.468E-25 ort(H,U,f) =-0.224E-05 0.371E-05-0.457E-25
CGA:   6    -0.202706201215E+04   -0.13613E-04   -0.13567E-04  1304   0.165E-04 0.148E-05
 gam= 0.377 trial= 0.565  step= 0.659 mean= 0.565
 gam= 0.633 g(H,U,f)=  0.978E-05 0.645E-06 0.784E-25 ort(H,U,f) =-0.327E-05 0.141E-05 0.384E-25
CGA:   7    -0.202706201768E+04   -0.55252E-05   -0.56127E-05  1304   0.104E-04-0.186E-05
 gam= 0.633 trial= 0.570  step= 0.431 mean= 0.570
 gam= 0.226 g(H,U,f)=  0.228E-05 0.826E-07 0.796E-26 ort(H,U,f) = 0.666E-06 0.550E-06 0.331E-25
CGA:   8    -0.202706201959E+04   -0.19113E-05   -0.19954E-05  1304   0.236E-05 0.122E-05
 gam= 0.226 trial= 0.563  step= 0.551 mean= 0.563
 gam= 0.379 g(H,U,f)=  0.871E-06 0.242E-07 0.506E-26 ort(H,U,f) = 0.190E-06 0.517E-07 0.124E-25
CGA:   9    -0.202706202032E+04   -0.72546E-06   -0.72687E-06  1304   0.895E-06 0.241E-06
 gam= 0.379 trial= 0.562  step= 0.763 mean= 0.562
 gam= 0.000 g(H,U,f)=  0.141E-05 0.317E-07 0.762E-27 ort(H,U,f) =-0.705E-06-0.197E-07 0.382E-26
CGA:  10    -0.202706202062E+04   -0.30379E-06   -0.37637E-06  1304   0.144E-05-0.725E-06
 gam= 0.000 trial= 0.572  step= 0.201 mean= 0.572
 gam= 0.127 g(H,U,f)=  0.180E-06 0.367E-08 0.215E-27 ort(H,U,f) = 0.389E-06 0.839E-08 0.405E-27
CGA:  11    -0.202706202069E+04   -0.71639E-07   -0.14527E-06  1304   0.184E-06 0.397E-06
 gam= 0.127 trial= 0.554  step= 0.195 mean= 0.554
 final diagonalization
 210 F= -.20485205E+04 E0= -.20485205E+04  d E =-.195928E-03
 trial-energy change:   -0.000196  1 .order   -0.000200   -0.000254   -0.000146
 step:   0.6887(harm=  0.6887)  dis= 0.00150  next Energy= -2048.520594 (dE=-0.297E-03)
 bond charge predicted
       N       E                     dE             d eps       ncg     rms          ort
 gam= 0.000 g(H,U,f)=  0.331E-01 0.298E-02 0.529E-22 ort(H,U,f) = 0.000E+00 0.000E+00 0.000E+00
SDA:   1    -0.202704809271E+04    0.13928E-01    0.00000E+00  1304   0.361E-01 0.000E+00
 gam= 0.000 trial= 0.536  step= 0.588 mean= 0.536
 gam= 0.270 g(H,U,f)=  0.914E-02 0.624E-03 0.210E-21 ort(H,U,f) = 0.572E-03-0.564E-03-0.182E-21
CGA:   2    -0.202705870512E+04   -0.10612E-01   -0.10612E-01  1304   0.976E-02 0.823E-05
 gam= 0.270 trial= 0.538  step= 0.577 mean= 0.538
srun: Job step aborted: Waiting up to 32 seconds for job step to finish.
slurmstepd: error: *** JOB 415012 ON fcn4 CANCELLED AT 2022-02-03T11:14:41 DUE TO TIME LIMIT ***
slurmstepd: error: *** STEP 415012.0 ON fcn4 CANCELLED AT 2022-02-03T11:14:41 DUE TO TIME LIMIT ***

JOB STATISTICS
==============
Job ID: 415012
Cluster: snellius
User/Group: srinidhi/srinidhi
State: TIMEOUT (exit code 0)
Nodes: 1
Cores per node: 128
CPU Utilized: 00:00:01
CPU Efficiency: 0.000f 128-00:53:20 core-walltime
Job Wall-clock time: 1-00:00:25
Memory Utilized: 8.02 MB
Memory Efficiency: 0.000f 937.50 GB
