unknown system                          
           1
     0.000000    0.000000  -11.517270
    -9.534875  -16.514888   -0.000000
    -9.534875   16.514888    0.000000
   Zn   H    C    N    O 
   6  96 144  24  24
Direct configuration=     1
   0.80994900  0.67037700  0.03514400
   0.80994900  0.36476700  0.32962300
   0.80994900  0.96485600  0.63523300
   0.69159500  0.30392400  0.00158000
   0.69159500  0.69765700  0.69607600
   0.69159500  0.99842000  0.30234300
   0.09766900  0.51708100  0.33102800
   0.09766900  0.81394700  0.48291900
   0.09766900  0.66897200  0.18605300
   0.01303600  0.35322200  0.08193400
   0.01303600  0.72871200  0.64677800
   0.01303700  0.91806600  0.27128800
   0.16604000  0.41640300  0.03866800
   0.16604000  0.62226400  0.58359700
   0.16604000  0.96133200  0.37773600
   0.24999000  0.58020900  0.28938000
   0.24999000  0.70917100  0.41979100
   0.24999000  0.71062000  0.29082900
   0.42895500  0.55748600  0.23022700
   0.42895500  0.67274100  0.44251400
   0.42895500  0.76977300  0.32725900
   0.21221200  0.53108200  0.03447400
   0.21221200  0.50339100  0.46891800
   0.21221200  0.96552600  0.49660900
   0.37618400  0.57852100  0.98251600
   0.37618400  0.40399500  0.42147900
   0.37618400  0.01748400  0.59600600
   0.58864400  0.60890800  0.18014000
   0.58864400  0.57123200  0.39109200
   0.58864400  0.81986000  0.42876800
   0.83657500  0.85048000  0.06782300
   0.83657500  0.21734300  0.14952000
   0.83657500  0.93217700  0.78265700
   0.63817700  0.65422100  0.89570500
   0.63817700  0.24148400  0.34577900
   0.63817700  0.10429500  0.75851600
   0.60241700  0.78623700  0.87207500
   0.60241700  0.08583800  0.21376300
   0.60241700  0.12792500  0.91416200
   0.72203900  0.97636700  0.11751100
   0.72203900  0.14114400  0.02363300
   0.72203900  0.88248900  0.85885600
   0.75008600  0.51424500  0.85564900
   0.75008600  0.34140400  0.48575500
   0.75008600  0.14435100  0.65859600
   0.04983500  0.57665300  0.00045400
   0.04983500  0.42380100  0.42334700
   0.04983500  0.99954600  0.57619900
   0.09546400  0.43494100  0.85243100
   0.09546400  0.41749000  0.56505900
   0.09546400  0.14756900  0.58251000
   0.91023500  0.29554700  0.77517600
   0.91023500  0.47962900  0.70445300
   0.91023500  0.22482400  0.52037100
   0.01303000  0.23530200  0.38940600
   0.01303000  0.15410500  0.76469800
   0.01303000  0.61059400  0.84589500
   0.97072000  0.01364400  0.16449500
   0.97072000  0.15085000  0.98635600
   0.97072000  0.83550600  0.84915000
   0.12404900  0.05627400  0.10155400
   0.12404900  0.04528000  0.94372600
   0.12404900  0.89844600  0.95472000
   0.16353700  0.28052500  0.32674100
   0.16353700  0.04621600  0.71947500
   0.16353700  0.67325900  0.95378400
   0.18419800  0.32454000  0.23893200
   0.18419800  0.91439300  0.67546000
   0.18419800  0.76106800  0.08560700
   0.32470600  0.08338400  0.10081500
   0.32470600  0.01743100  0.91661600
   0.32470600  0.89918500  0.98256900
   0.47790300  0.13573500  0.04660500
   0.47790300  0.91087000  0.86426500
   0.47790300  0.95339500  0.08913000
   0.33906600  0.37599400  0.18576500
   0.33906600  0.80977200  0.62400600
   0.33906600  0.81423500  0.19022800
   0.68847700  0.45027900  0.18956400
   0.68847700  0.73928600  0.54972100
   0.68847700  0.81043600  0.26071400
   0.86045500  0.42486200  0.98288300
   0.86045500  0.55802100  0.57513800
   0.86045500  0.01711700  0.44197900
   0.91199700  0.57793700  0.11452700
   0.91199700  0.53658900  0.42206300
   0.91199700  0.88547400  0.46341100
   0.80298100  0.52693500  0.31317500
   0.80298100  0.78624000  0.47306500
   0.80298100  0.68682500  0.21376000
   0.47817700  0.40900700  0.00608500
   0.47817700  0.59707900  0.59099300
   0.47817700  0.99391500  0.40292200
   0.42935100  0.43728700  0.87867500
   0.42935100  0.44138700  0.56271300
   0.42935100  0.12132500  0.55861300
   0.69946000  0.26282600  0.81118000
   0.69946000  0.54835300  0.73717400
   0.69946000  0.18882000  0.45164700
   0.56198100  0.20752200  0.67640400
   0.56198100  0.46888200  0.79247800
   0.56198100  0.32359600  0.53111800
   0.95423800  0.39172500  0.23228800
   0.95423800  0.84056300  0.60827500
   0.95423800  0.76771200  0.15943700
   0.04561300  0.43145300  0.20867400
   0.04561300  0.77722200  0.56854700
   0.04561300  0.79132600  0.22277800
   0.11272100  0.49543700  0.26701900
   0.11272100  0.77158200  0.50456300
   0.11272100  0.73298100  0.22841800
   0.06497200  0.40373000  0.12640400
   0.06497200  0.72267400  0.59627000
   0.06497200  0.87359600  0.27732600
   0.14953300  0.43972800  0.10290900
   0.14953300  0.66318100  0.56027200
   0.14953300  0.89709100  0.33681900
   0.19806000  0.53081900  0.24332800
   0.19806000  0.71250900  0.46918100
   0.19806000  0.75667200  0.28749100
   0.21761500  0.50381000  0.16087000
   0.21761500  0.65706000  0.49619000
   0.21761500  0.83913000  0.34294000
   0.30974000  0.53948300  0.13501400
   0.30974000  0.59553100  0.46051700
   0.30974000  0.86498600  0.40446900
   0.41553900  0.56413400  0.17720700
   0.41553900  0.61307300  0.43586600
   0.41553900  0.82279300  0.38692700
   0.29560800  0.54701900  0.06574000
   0.29560800  0.51872200  0.45298100
   0.29560800  0.93426000  0.48127800
   0.38624100  0.57351100  0.03672900
   0.38624100  0.46321800  0.42648900
   0.38624100  0.96327100  0.53678200
   0.50564100  0.59163300  0.14869400
   0.50564100  0.55706100  0.40836700
   0.50564100  0.85130600  0.44293900
   0.49338900  0.59390600  0.07675800
   0.49338900  0.48285200  0.40609400
   0.49338900  0.92324200  0.51714800
   0.59595800  0.61146300  0.03994800
   0.59595800  0.42848500  0.38853700
   0.59595800  0.96005200  0.57151500
   0.77923700  0.81468000  0.01716700
   0.77923700  0.20248600  0.18531900
   0.77923700  0.98283300  0.79751400
   0.67621300  0.71406800  0.92554800
   0.67621300  0.21148100  0.28593200
   0.67621300  0.07445200  0.78851900
   0.65577100  0.77860400  0.91467600
   0.65577100  0.13607200  0.22139600
   0.65577100  0.08532400  0.86392800
   0.72560500  0.92187500  0.98676500
   0.72560500  0.06488900  0.07812500
   0.72560500  0.01323500  0.93511100
   0.72573500  0.98653200  0.06617400
   0.72573500  0.07964300  0.01346800
   0.72573500  0.93382600  0.92035700
   0.83830700  0.51315200  0.87470500
   0.83830700  0.36155400  0.48684800
   0.83830700  0.12529500  0.63844600
   0.99545500  0.54156800  0.94789900
   0.99545500  0.40633100  0.45843200
   0.99545500  0.05210100  0.59366900
   0.01888000  0.47259400  0.87597200
   0.01888100  0.40337800  0.52740600
   0.01888000  0.12402800  0.59662200
   0.90837300  0.39318100  0.74717800
   0.90837300  0.35399700  0.60681900
   0.90837300  0.25282200  0.64600300
   0.90813400  0.31229600  0.72789800
   0.90813400  0.41560200  0.68770400
   0.90813400  0.27210200  0.58439800
   0.88734300  0.09869100  0.31903700
   0.88734300  0.22034600  0.90130900
   0.88734300  0.68096300  0.77965400
   0.98213300  0.12218900  0.28090600
   0.98213300  0.15871700  0.87781100
   0.98213300  0.71909400  0.84128300
   0.03758300  0.19699800  0.32622100
   0.03758300  0.12922300  0.80300200
   0.03758300  0.67377900  0.87077700
   0.01428200  0.07180500  0.19970300
   0.01428200  0.12789800  0.92819500
   0.01428200  0.80029700  0.87210200
   0.10010000  0.09603200  0.16483500
   0.10010000  0.06880300  0.90396800
   0.10010000  0.83516500  0.93119700
   0.12122500  0.22193700  0.29095300
   0.12122500  0.06901600  0.77806300
   0.12122500  0.70904700  0.93098400
   0.15428400  0.17201900  0.20958200
   0.15428400  0.03756300  0.82798100
   0.15428400  0.79041800  0.96243700
   0.24378700  0.20042200  0.17422100
   0.24378700  0.97379900  0.79957800
   0.24378700  0.82577900  0.02620100
   0.24948900  0.28300700  0.19774200
   0.24948900  0.91473500  0.71699300
   0.24948900  0.80225800  0.08526500
   0.32640500  0.14742200  0.11854900
   0.32640500  0.97112800  0.85257800
   0.32640500  0.88145100  0.02887200
   0.41284500  0.17662700  0.08874200
   0.41284500  0.91211500  0.82337300
   0.41284500  0.91125800  0.08788500
   0.33524800  0.31209400  0.16780800
   0.33524800  0.85571400  0.68790600
   0.33524800  0.83219200  0.14428600
   0.41838700  0.25928700  0.11334300
   0.41838800  0.85405600  0.74071300
   0.41838800  0.88665700  0.14594400
   0.50994600  0.29304100  0.08302200
   0.50994600  0.78998200  0.70695900
   0.50994600  0.91697800  0.21001800
   0.74365600  0.46263400  0.15093500
   0.74365600  0.68830100  0.53736600
   0.74365600  0.84906500  0.31169900
   0.83247200  0.45371600  0.04546400
   0.83247200  0.59174800  0.54628400
   0.83247200  0.95453600  0.40825200
   0.85945400  0.52834400  0.10927900
   0.85945400  0.58093500  0.47165600
   0.85945400  0.89072100  0.41906500
   0.80406900  0.60051900  0.25566400
   0.80406900  0.65514500  0.39948100
   0.80406900  0.74433600  0.34485500
   0.80411400  0.58775100  0.32161400
   0.80411400  0.73386300  0.41224900
   0.80411400  0.67838600  0.26613700
   0.51443400  0.38237800  0.94561900
   0.51443400  0.56324100  0.61762200
   0.51443400  0.05438100  0.43675900
   0.48931000  0.39627700  0.88350000
   0.48931000  0.48722200  0.60372300
   0.48931000  0.11650000  0.51277800
   0.62851100  0.30301100  0.84511200
   0.62851100  0.54210100  0.69698900
   0.62851100  0.15488800  0.45789900
   0.56493200  0.33894500  0.74225300
   0.56493200  0.40330800  0.66105500
   0.56493200  0.25774700  0.59669200
   0.56489500  0.26260300  0.67240600
   0.56489500  0.40980300  0.73739700
   0.56489500  0.32759400  0.59019700
   0.75358600  0.73728500  0.98911300
   0.75358600  0.25182800  0.26271500
   0.75358600  0.01088700  0.74817200
   0.72150800  0.84184800  0.97321700
   0.72150800  0.13136900  0.15815200
   0.72150800  0.02678300  0.86863100
   0.88292400  0.56556300  0.94609300
   0.88292400  0.38053000  0.43443700
   0.88292400  0.05390700  0.61947000
   0.91831900  0.45533600  0.82995000
   0.91831900  0.37461400  0.54466400
   0.91831900  0.17005000  0.62538600
   0.76010900  0.41404500  0.07231100
   0.76010900  0.65826500  0.58595500
   0.76010900  0.92768900  0.34173500
   0.80319500  0.53310500  0.17596100
   0.80319500  0.64285700  0.46689500
   0.80319500  0.82403900  0.35714300
   0.60171800  0.32484800  0.92092300
   0.60171800  0.59607500  0.67515200
   0.60171800  0.07907700  0.40392500
   0.56143900  0.34518200  0.81954700
   0.56143800  0.47436600  0.65481900
   0.56143800  0.18045300  0.52563400
   0.67892800  0.65180000  0.09019000
   0.67892800  0.43838900  0.34820000
   0.67892800  0.90981000  0.56161100
   0.59888900  0.58514500  0.96493600
   0.59888900  0.37979100  0.41485500
   0.59888900  0.03506400  0.62020900
   0.94507000  0.41760700  0.30977500
   0.94507000  0.89216800  0.58239400
   0.94507000  0.69022500  0.10783200
   0.89052300  0.33793800  0.18010400
   0.89052300  0.84216600  0.66206200
   0.89052300  0.81989600  0.15783400
   0.50895800  0.36636900  0.10288200
   0.50895800  0.73651200  0.63363100
   0.50895800  0.89711800  0.26348800
   0.58911400  0.24244100  0.03541700
   0.58911400  0.79297600  0.75755900
   0.58911400  0.96458300  0.20702400
   0.82588200  0.03749800  0.26832000
   0.82588200  0.23082200  0.96250200
   0.82588200  0.73168000  0.76917800
   0.87142300  0.13839700  0.39455300
   0.87142300  0.25615600  0.86160300
   0.87142300  0.60544700  0.74384400
unknown system                          
           1
     0.000000    0.000000  -11.518007
    -9.534921  -16.514968   -0.000000
    -9.534921   16.514968   -0.000000
   Zn   H    C    N    O 
   6  96 144  24  24
Direct configuration=     2
   0.80997631  0.67038517  0.03514451
   0.80997631  0.36475934  0.32961483
   0.80997631  0.96485549  0.63524066
   0.69161709  0.30393702  0.00159127
   0.69161709  0.69765525  0.69606298
   0.69161709  0.99840873  0.30234475
   0.09767193  0.51706994  0.33101577
   0.09767193  0.81394583  0.48293006
   0.09767193  0.66898423  0.18605417
   0.01300028  0.35320548  0.08191650
   0.01300028  0.72871103  0.64679452
   0.01300128  0.91808350  0.27128897
   0.16603188  0.41639115  0.03867074
   0.16603188  0.62227859  0.58360885
   0.16603188  0.96132926  0.37772141
   0.24996358  0.58021543  0.28935666
   0.24996358  0.70914123  0.41978457
   0.24996358  0.71064334  0.29085877
   0.42896245  0.55747367  0.23020580
   0.42896245  0.67273213  0.44252633
   0.42896245  0.76979420  0.32726787
   0.21216011  0.53108340  0.03446143
   0.21216011  0.50337704  0.46891660
   0.21216011  0.96553857  0.49662296
   0.37618440  0.57849304  0.98249342
   0.37618440  0.40400039  0.42150696
   0.37618440  0.01750658  0.59600061
   0.58869266  0.60892008  0.18015792
   0.58869266  0.57123784  0.39107992
   0.58869266  0.81984208  0.42876216
   0.83656138  0.85047101  0.06779287
   0.83656138  0.21732186  0.14952899
   0.83656138  0.93220713  0.78267814
   0.63814983  0.65418951  0.89569493
   0.63814983  0.24150542  0.34581049
   0.63814983  0.10430507  0.75849458
   0.60238833  0.78621990  0.87206338
   0.60238833  0.08584348  0.21378010
   0.60238833  0.12793662  0.91415652
   0.72202553  0.97636318  0.11752563
   0.72202553  0.14116245  0.02363682
   0.72202553  0.88247437  0.85883755
   0.75013151  0.51426403  0.85564599
   0.75013151  0.34138196  0.48573597
   0.75013151  0.14435401  0.65861804
   0.04981927  0.57662913  0.00047962
   0.04981927  0.42385048  0.42337087
   0.04981927  0.99952038  0.57614952
   0.09542970  0.43492803  0.85246817
   0.09542970  0.41754014  0.56507197
   0.09542970  0.14753183  0.58245986
   0.91025869  0.29554176  0.77517355
   0.91025869  0.47963179  0.70445824
   0.91025869  0.22482645  0.52036821
   0.01302483  0.23530792  0.38943047
   0.01302483  0.15412356  0.76469208
   0.01302483  0.61056953  0.84587644
   0.97075022  0.01365804  0.16452841
   0.97075022  0.15086938  0.98634196
   0.97075022  0.83547259  0.84913062
   0.12404783  0.05631125  0.10159300
   0.12404783  0.04528175  0.94368875
   0.12404783  0.89840700  0.95471825
   0.16358131  0.28053008  0.32679049
   0.16358131  0.04626040  0.71946992
   0.16358131  0.67320951  0.95373960
   0.18422154  0.32457157  0.23896477
   0.18422154  0.91439420  0.67542843
   0.18422154  0.76103523  0.08560580
   0.32471549  0.08340152  0.10081598
   0.32471549  0.01741447  0.91659848
   0.32471549  0.89918402  0.98258553
   0.47794086  0.13573776  0.04661442
   0.47794086  0.91087666  0.86426224
   0.47794086  0.95338558  0.08912334
   0.33908421  0.37599647  0.18575212
   0.33908421  0.80975665  0.62400353
   0.33908421  0.81424788  0.19024335
   0.68849626  0.45027862  0.18955953
   0.68849626  0.73928191  0.54972138
   0.68849626  0.81044047  0.26071809
   0.86047634  0.42484041  0.98285333
   0.86047634  0.55801292  0.57515959
   0.86047634  0.01714667  0.44198708
   0.91199483  0.57792609  0.11451810
   0.91199483  0.53659101  0.42207391
   0.91199483  0.88548290  0.46340899
   0.80298735  0.52691919  0.31317826
   0.80298735  0.78625907  0.47308081
   0.80298735  0.68682174  0.21374093
   0.47817236  0.40900250  0.00610113
   0.47817236  0.59709963  0.59099750
   0.47817236  0.99389887  0.40290137
   0.42934796  0.43727889  0.87868923
   0.42934796  0.44140934  0.56272111
   0.42934796  0.12131077  0.55859066
   0.69944801  0.26284189  0.81118486
   0.69944801  0.54834196  0.73715811
   0.69944801  0.18881514  0.45165804
   0.56196394  0.20749512  0.67639274
   0.56196394  0.46889762  0.79250488
   0.56196394  0.32360726  0.53110238
   0.95421262  0.39170232  0.23226919
   0.95421262  0.84056688  0.60829768
   0.95421262  0.76773081  0.15943312
   0.04564386  0.43146003  0.20866509
   0.04564386  0.77720606  0.56853997
   0.04564386  0.79133491  0.22279394
   0.11274868  0.49543526  0.26699610
   0.11274868  0.77156084  0.50456474
   0.11274868  0.73300390  0.22843916
   0.06497808  0.40370844  0.12634958
   0.06497808  0.72264114  0.59629156
   0.06497808  0.87365042  0.27735886
   0.14954529  0.43969904  0.10287632
   0.14954529  0.66317729  0.56030096
   0.14954529  0.89712368  0.33682271
   0.19808328  0.53086061  0.24334151
   0.19808328  0.71248090  0.46913939
   0.19808328  0.75665849  0.28751910
   0.21758779  0.50382274  0.16089935
   0.21758779  0.65707660  0.49617726
   0.21758779  0.83910065  0.34292340
   0.30973429  0.53948935  0.13501587
   0.30973429  0.59552652  0.46051065
   0.30973429  0.86498413  0.40447348
   0.41552861  0.56410474  0.17719455
   0.41552861  0.61308982  0.43589526
   0.41552861  0.82280545  0.38691018
   0.29553000  0.54700670  0.06573259
   0.29553000  0.51872689  0.45299330
   0.29553000  0.93426741  0.48127311
   0.38620523  0.57350685  0.03673215
   0.38620523  0.46322530  0.42649315
   0.38620523  0.96326785  0.53677470
   0.50565613  0.59164576  0.14868784
   0.50565613  0.55704208  0.40835424
   0.50565613  0.85131216  0.44295792
   0.49335240  0.59390123  0.07678348
   0.49335240  0.48288225  0.40609877
   0.49335240  0.92321652  0.51711775
   0.59594700  0.61145562  0.03996755
   0.59594700  0.42851194  0.38854438
   0.59594700  0.96003245  0.57148806
   0.77924658  0.81468986  0.01717597
   0.77924658  0.20248511  0.18530914
   0.77924658  0.98282403  0.79751489
   0.67617623  0.71405686  0.92554197
   0.67617623  0.21148611  0.28594314
   0.67617623  0.07445803  0.78851389
   0.65578369  0.77864330  0.91469797
   0.65578369  0.13605467  0.22135670
   0.65578369  0.08530203  0.86394533
   0.72556858  0.92187928  0.98673501
   0.72556858  0.06485472  0.07812072
   0.72556858  0.01326499  0.93514528
   0.72571433  0.98650825  0.06616943
   0.72571433  0.07966219  0.01349175
   0.72571433  0.93383057  0.92033781
   0.83833841  0.51315913  0.87469336
   0.83833841  0.36153522  0.48684087
   0.83833841  0.12530664  0.63846478
   0.99542313  0.54153191  0.94787849
   0.99542313  0.40634658  0.45846809
   0.99542313  0.05212151  0.59365342
   0.01883308  0.47259360  0.87599490
   0.01883408  0.40340129  0.52740640
   0.01883308  0.12400510  0.59659871
   0.90843803  0.39315138  0.74718104
   0.90843803  0.35402966  0.60684862
   0.90843803  0.25281896  0.64597034
   0.90812401  0.31228018  0.72788190
   0.90812401  0.41560172  0.68771982
   0.90812401  0.27211810  0.58439828
   0.88735537  0.09870867  0.31904118
   0.88735537  0.22033250  0.90129133
   0.88735537  0.68095882  0.77966750
   0.98214543  0.12221372  0.28092991
   0.98214543  0.15871619  0.87778628
   0.98214543  0.71907009  0.84128381
   0.03765106  0.19698919  0.32620627
   0.03765106  0.12921708  0.80301081
   0.03765106  0.67379373  0.87078292
   0.01430810  0.07183685  0.19972280
   0.01430810  0.12788596  0.92816315
   0.01430810  0.80027720  0.87211404
   0.10011297  0.09604954  0.16484423
   0.10011297  0.06879469  0.90395046
   0.10011297  0.83515577  0.93120531
   0.12127533  0.22195427  0.29094605
   0.12127533  0.06899178  0.77804573
   0.12127533  0.70905395  0.93100822
   0.15428109  0.17201341  0.20961640
   0.15428109  0.03760299  0.82798659
   0.15428109  0.79038360  0.96239701
   0.24381105  0.20042182  0.17421345
   0.24381105  0.97379163  0.79957818
   0.24381105  0.82578655  0.02620837
   0.24944174  0.28302381  0.19780773
   0.24944174  0.91478392  0.71697619
   0.24944174  0.80219227  0.08521608
   0.32641209  0.14741094  0.11856699
   0.32641209  0.97115704  0.85258906
   0.32641209  0.88143301  0.02884296
   0.41285050  0.17661807  0.08875019
   0.41285050  0.91213212  0.82338193
   0.41285050  0.91124981  0.08786788
   0.33523125  0.31208521  0.16781605
   0.33523125  0.85573084  0.68791479
   0.33523125  0.83218395  0.14426916
   0.41834866  0.25928077  0.11334341
   0.41834966  0.85406264  0.74071923
   0.41834966  0.88665659  0.14593736
   0.51000217  0.29301909  0.08302295
   0.51000217  0.79000486  0.70698091
   0.51000217  0.91697705  0.20999514
   0.74361760  0.46262410  0.15093713
   0.74361760  0.68831303  0.53737590
   0.74361760  0.84906287  0.31168697
   0.83247885  0.45371414  0.04545019
   0.83247885  0.59173604  0.54628586
   0.83247885  0.95454981  0.40826396
   0.85945642  0.52837908  0.10932917
   0.85945642  0.58095009  0.47162092
   0.85945642  0.89067083  0.41904991
   0.80408555  0.60055710  0.25566708
   0.80408555  0.65510998  0.39944290
   0.80408555  0.74433292  0.34489002
   0.80408138  0.58774325  0.32158257
   0.80408138  0.73383933  0.41225675
   0.80408138  0.67841743  0.26616067
   0.51440763  0.38237782  0.94562127
   0.51440763  0.56324345  0.61762218
   0.51440763  0.05437873  0.43675655
   0.48933330  0.39624645  0.88345283
   0.48933330  0.48720538  0.60375355
   0.48933330  0.11654717  0.51279462
   0.62849967  0.30300621  0.84510569
   0.62849967  0.54209948  0.69699379
   0.62849967  0.15489431  0.45790052
   0.56488410  0.33899117  0.74227020
   0.56488410  0.40327903  0.66100883
   0.56488410  0.25772980  0.59672097
   0.56489072  0.26261129  0.67240987
   0.56489072  0.40979858  0.73738871
   0.56489072  0.32759013  0.59020142
   0.75359292  0.73728554  0.98912833
   0.75359292  0.25184279  0.26271446
   0.75359292  0.01087167  0.74815721
   0.72150046  0.84187801  0.97323762
   0.72150046  0.13135961  0.15812199
   0.72150046  0.02676238  0.86864039
   0.88293595  0.56554938  0.94608815
   0.88293595  0.38053877  0.43445062
   0.88293595  0.05391185  0.61946123
   0.91833432  0.45532186  0.82994076
   0.91833432  0.37461890  0.54467814
   0.91833432  0.17005924  0.62538110
   0.76010275  0.41401777  0.07231328
   0.76010275  0.65829451  0.58598223
   0.76010275  0.92768672  0.34170549
   0.80319162  0.53310008  0.17599222
   0.80319162  0.64289314  0.46689992
   0.80319162  0.82400778  0.35710686
   0.60172697  0.32484283  0.92092556
   0.60172697  0.59608274  0.67515717
   0.60172697  0.07907444  0.40391726
   0.56144001  0.34516438  0.81951238
   0.56143901  0.47434900  0.65483662
   0.56143901  0.18048762  0.52565100
   0.67889840  0.65180006  0.09016324
   0.67889840  0.43836218  0.34819994
   0.67889840  0.90983676  0.56163782
   0.59892109  0.58512990  0.96492713
   0.59892109  0.37979722  0.41487010
   0.59892109  0.03507287  0.62020278
   0.94503225  0.41758207  0.30974201
   0.94503225  0.89215995  0.58241893
   0.94503225  0.69025799  0.10784005
   0.89052783  0.33790517  0.18009807
   0.89052783  0.84219290  0.66209483
   0.89052783  0.81990193  0.15780710
   0.50899832  0.36639628  0.10288609
   0.50899832  0.73648881  0.63360372
   0.50899832  0.89711391  0.26351119
   0.58915809  0.24246405  0.03542749
   0.58915809  0.79296344  0.75753595
   0.58915809  0.96457251  0.20703656
   0.82585821  0.03754469  0.26837253
   0.82585821  0.23082785  0.96245531
   0.82585821  0.73162747  0.76917215
   0.87139823  0.13837125  0.39454503
   0.87139823  0.25617378  0.86162875
   0.87139823  0.60545497  0.74382622
unknown system                          
           1
     0.000000    0.000000  -11.517776
    -9.534907  -16.514943   -0.000000
    -9.534907   16.514943   -0.000000
   Zn   H    C    N    O 
   6  96 144  24  24
Direct configuration=     3
   0.80996776  0.67038261  0.03514435
   0.80996776  0.36476174  0.32961739
   0.80996776  0.96485565  0.63523826
   0.69161017  0.30393294  0.00158774
   0.69161017  0.69765580  0.69606706
   0.69161017  0.99841226  0.30234420
   0.09767101  0.51707340  0.33101960
   0.09767101  0.81394620  0.48292660
   0.09767101  0.66898040  0.18605380
   0.01301147  0.35321065  0.08192198
   0.01301147  0.72871133  0.64678935
   0.01301247  0.91807802  0.27128867
   0.16603443  0.41639486  0.03866988
   0.16603443  0.62227402  0.58360514
   0.16603443  0.96133012  0.37772598
   0.24997186  0.58021342  0.28936397
   0.24997186  0.70915055  0.41978658
   0.24997186  0.71063603  0.29084945
   0.42896011  0.55747753  0.23021244
   0.42896011  0.67273491  0.44252247
   0.42896011  0.76978756  0.32726509
   0.21217636  0.53108296  0.03446537
   0.21217636  0.50338141  0.46891704
   0.21217636  0.96553463  0.49661859
   0.37618427  0.57850180  0.98250050
   0.37618427  0.40399870  0.42149820
   0.37618427  0.01749950  0.59600230
   0.58867742  0.60891630  0.18015231
   0.58867742  0.57123601  0.39108370
   0.58867742  0.81984769  0.42876399
   0.83656565  0.85047383  0.06780231
   0.83656565  0.21732848  0.14952617
   0.83656565  0.93219769  0.78267152
   0.63815834  0.65419938  0.89569808
   0.63815834  0.24149871  0.34580062
   0.63815834  0.10430192  0.75850129
   0.60239731  0.78622526  0.87206702
   0.60239731  0.08584176  0.21377474
   0.60239731  0.12793298  0.91415824
   0.72202975  0.97636438  0.11752105
   0.72202975  0.14115667  0.02363562
   0.72202975  0.88247895  0.85884333
   0.75011725  0.51425807  0.85564693
   0.75011725  0.34138887  0.48574193
   0.75011725  0.14435307  0.65861113
   0.04982419  0.57663661  0.00047159
   0.04982419  0.42383498  0.42336339
   0.04982419  0.99952841  0.57616502
   0.09544044  0.43493209  0.85245652
   0.09544044  0.41752443  0.56506791
   0.09544044  0.14754348  0.58247557
   0.91025127  0.29554340  0.77517432
   0.91025127  0.47963092  0.70445660
   0.91025127  0.22482568  0.52036908
   0.01302645  0.23530606  0.38942280
   0.01302645  0.15411774  0.76469394
   0.01302645  0.61057720  0.84588226
   0.97074075  0.01365364  0.16451795
   0.97074075  0.15086331  0.98634636
   0.97074075  0.83548305  0.84913669
   0.12404819  0.05629958  0.10158078
   0.12404819  0.04528120  0.94370042
   0.12404819  0.89841922  0.95471880
   0.16356743  0.28052849  0.32677498
   0.16356743  0.04624649  0.71947151
   0.16356743  0.67322502  0.95375351
   0.18421417  0.32456168  0.23895450
   0.18421417  0.91439382  0.67543832
   0.18421417  0.76104550  0.08560618
   0.32471252  0.08339603  0.10081568
   0.32471252  0.01741965  0.91660397
   0.32471252  0.89918432  0.98258035
   0.47792900  0.13573690  0.04661147
   0.47792900  0.91087457  0.86426310
   0.47792900  0.95338853  0.08912543
   0.33907851  0.37599569  0.18575615
   0.33907851  0.80976146  0.62400431
   0.33907851  0.81424385  0.19023854
   0.68849023  0.45027874  0.18956093
   0.68849023  0.73928319  0.54972126
   0.68849023  0.81043907  0.26071681
   0.86046966  0.42484717  0.98286263
   0.86046966  0.55801545  0.57515283
   0.86046966  0.01713737  0.44198455
   0.91199551  0.57792951  0.11452089
   0.91199551  0.53659038  0.42207049
   0.91199551  0.88548011  0.46340962
   0.80298536  0.52692414  0.31317724
   0.80298536  0.78625309  0.47307586
   0.80298536  0.68682276  0.21374691
   0.47817382  0.40900391  0.00609608
   0.47817382  0.59709317  0.59099609
   0.47817382  0.99390392  0.40290783
   0.42934891  0.43728143  0.87868477
   0.42934891  0.44140234  0.56271857
   0.42934891  0.12131523  0.55859766
   0.69945176  0.26283691  0.81118334
   0.69945176  0.54834542  0.73716309
   0.69945176  0.18881666  0.45165458
   0.56196928  0.20750354  0.67639627
   0.56196928  0.46889273  0.79249646
   0.56196928  0.32360373  0.53110727
   0.95422057  0.39170942  0.23227509
   0.95422057  0.84056566  0.60829058
   0.95422057  0.76772491  0.15943434
   0.04563419  0.43145783  0.20866788
   0.04563419  0.77721105  0.56854217
   0.04563419  0.79133212  0.22278895
   0.11274001  0.49543581  0.26700328
   0.11274001  0.77156747  0.50456419
   0.11274001  0.73299672  0.22843253
   0.06497618  0.40371520  0.12636663
   0.06497618  0.72265144  0.59628480
   0.06497618  0.87363337  0.27734856
   0.14954144  0.43970811  0.10288656
   0.14954144  0.66317845  0.56029189
   0.14954144  0.89711344  0.33682155
   0.19807598  0.53084758  0.24333728
   0.19807598  0.71248970  0.46915242
   0.19807598  0.75666272  0.28751030
   0.21759631  0.50381875  0.16089015
   0.21759631  0.65707140  0.49618125
   0.21759631  0.83910985  0.34292860
   0.30973608  0.53948736  0.13501528
   0.30973608  0.59552792  0.46051264
   0.30973608  0.86498472  0.40447208
   0.41553186  0.56411390  0.17719845
   0.41553186  0.61308455  0.43588610
   0.41553186  0.82280155  0.38691545
   0.29555443  0.54701055  0.06573491
   0.29555443  0.51872536  0.45298945
   0.29555443  0.93426509  0.48127464
   0.38621644  0.57350815  0.03673116
   0.38621644  0.46322301  0.42649185
   0.38621644  0.96326884  0.53677699
   0.50565139  0.59164176  0.14868977
   0.50565139  0.55704801  0.40835824
   0.50565139  0.85131023  0.44295199
   0.49336386  0.59390273  0.07677550
   0.49336386  0.48287277  0.40609727
   0.49336386  0.92322450  0.51712723
   0.59595044  0.61145793  0.03996143
   0.59595044  0.42850350  0.38854207
   0.59595044  0.96003857  0.57149650
   0.77924358  0.81468677  0.01717316
   0.77924358  0.20248539  0.18531223
   0.77924358  0.98282684  0.79751461
   0.67618775  0.71406035  0.92554386
   0.67618775  0.21148451  0.28593965
   0.67618775  0.07445614  0.78851549
   0.65577971  0.77863099  0.91469109
   0.65577971  0.13606010  0.22136901
   0.65577971  0.08530891  0.86393990
   0.72557999  0.92187794  0.98674440
   0.72557999  0.06486546  0.07812206
   0.72557999  0.01325560  0.93513454
   0.72572080  0.98651569  0.06617086
   0.72572080  0.07965617  0.01348431
   0.72572080  0.93382914  0.92034383
   0.83832857  0.51315690  0.87469700
   0.83832857  0.36154110  0.48684310
   0.83832857  0.12530300  0.63845890
   0.99543311  0.54154322  0.94788492
   0.99543311  0.40634170  0.45845678
   0.99543311  0.05211508  0.59365830
   0.01884778  0.47259373  0.87598772
   0.01884878  0.40339400  0.52740627
   0.01884778  0.12401228  0.59660600
   0.90841766  0.39316066  0.74718009
   0.90841766  0.35401943  0.60683934
   0.90841766  0.25281991  0.64598057
   0.90812714  0.31228513  0.72788694
   0.90812714  0.41560181  0.68771487
   0.90812714  0.27211306  0.58439819
   0.88735149  0.09870314  0.31903987
   0.88735149  0.22033673  0.90129686
   0.88735149  0.68096013  0.77966327
   0.98214153  0.12220598  0.28092242
   0.98214153  0.15871644  0.87779402
   0.98214153  0.71907758  0.84128356
   0.03762974  0.19699195  0.32621088
   0.03762974  0.12921893  0.80300805
   0.03762974  0.67378912  0.87078107
   0.01429992  0.07182687  0.19971660
   0.01429992  0.12788973  0.92817313
   0.01429992  0.80028340  0.87211027
   0.10010890  0.09604404  0.16484134
   0.10010890  0.06879730  0.90395596
   0.10010890  0.83515866  0.93120270
   0.12125956  0.22194886  0.29094822
   0.12125956  0.06899937  0.77805114
   0.12125956  0.70905178  0.93100063
   0.15428200  0.17201516  0.20960562
   0.15428200  0.03759046  0.82798484
   0.15428200  0.79039438  0.96240954
   0.24380352  0.20042188  0.17421582
   0.24380352  0.97379394  0.79957812
   0.24380352  0.82578418  0.02620606
   0.24945655  0.28301854  0.19778714
   0.24945655  0.91476859  0.71698146
   0.24945655  0.80221286  0.08523141
   0.32640987  0.14741441  0.11856135
   0.32640987  0.97114794  0.85258559
   0.32640987  0.88143865  0.02885206
   0.41284878  0.17662087  0.08874763
   0.41284878  0.91212676  0.82337913
   0.41284878  0.91125237  0.08787324
   0.33523650  0.31208796  0.16781353
   0.33523650  0.85572556  0.68791204
   0.33523650  0.83218647  0.14427444
   0.41836067  0.25928272  0.11334328
   0.41836167  0.85406056  0.74071728
   0.41836167  0.88665672  0.14593944
   0.50998457  0.29302595  0.08302265
   0.50998457  0.78999770  0.70697405
   0.50998457  0.91697735  0.21000230
   0.74362963  0.46262720  0.15093646
   0.74362963  0.68830926  0.53737280
   0.74362963  0.84906354  0.31169074
   0.83247670  0.45371473  0.04545451
   0.83247670  0.59173979  0.54628527
   0.83247670  0.95454549  0.40826021
   0.85945566  0.52836809  0.10931345
   0.85945566  0.58094536  0.47163191
   0.85945566  0.89068655  0.41905464
   0.80408036  0.60054516  0.25566611
   0.80408036  0.65512095  0.39945484
   0.80408036  0.74433389  0.34487905
   0.80409160  0.58774568  0.32159242
   0.80409160  0.73384674  0.41225432
   0.80409160  0.67840758  0.26615326
   0.51441589  0.38237788  0.94562056
   0.51441589  0.56324268  0.61762212
   0.51441589  0.05437944  0.43675732
   0.48932600  0.39625602  0.88346761
   0.48932600  0.48721059  0.60374398
   0.48932600  0.11653239  0.51278941
   0.62850322  0.30300771  0.84510767
   0.62850322  0.54209996  0.69699229
   0.62850322  0.15489233  0.45790004
   0.56489911  0.33897671  0.74226481
   0.56489911  0.40328810  0.66102329
   0.56489911  0.25773519  0.59671190
   0.56489206  0.26260869  0.67240865
   0.56489206  0.40979996  0.73739131
   0.56489206  0.32759135  0.59020004
   0.75359075  0.73728537  0.98912353
   0.75359075  0.25183815  0.26271463
   0.75359075  0.01087647  0.74816185
   0.72150282  0.84186861  0.97323116
   0.72150282  0.13136255  0.15813139
   0.72150282  0.02676884  0.86863745
   0.88293220  0.56555365  0.94608967
   0.88293220  0.38053602  0.43444635
   0.88293220  0.05391033  0.61946398
   0.91832952  0.45532629  0.82994365
   0.91832952  0.37461736  0.54467371
   0.91832952  0.17005635  0.62538264
   0.76010470  0.41402630  0.07231257
   0.76010470  0.65828526  0.58597370
   0.76010470  0.92768743  0.34171474
   0.80319268  0.53310162  0.17598244
   0.80319268  0.64288181  0.46689838
   0.80319268  0.82401756  0.35711819
   0.60172416  0.32484445  0.92092476
   0.60172416  0.59608031  0.67515555
   0.60172416  0.07907524  0.40391969
   0.56143970  0.34516990  0.81952323
   0.56143870  0.47435432  0.65483110
   0.56143870  0.18047677  0.52564568
   0.67890767  0.65180004  0.09017163
   0.67890767  0.43837058  0.34819996
   0.67890767  0.90982837  0.56162942
   0.59891104  0.58513463  0.96492991
   0.59891104  0.37979527  0.41486537
   0.59891104  0.03507009  0.62020473
   0.94504408  0.41758988  0.30975235
   0.94504408  0.89216247  0.58241112
   0.94504408  0.69024765  0.10783753
   0.89052632  0.33791546  0.18009993
   0.89052632  0.84218447  0.66208454
   0.89052632  0.81990007  0.15781553
   0.50898569  0.36638773  0.10288481
   0.50898569  0.73649608  0.63361227
   0.50898569  0.89711519  0.26350392
   0.58914428  0.24245683  0.03542421
   0.58914428  0.79296738  0.75754317
   0.58914428  0.96457579  0.20703262
   0.82586566  0.03753006  0.26835607
   0.82586566  0.23082602  0.96246994
   0.82586566  0.73164393  0.76917398
   0.87140599  0.13837932  0.39454753
   0.87140599  0.25616821  0.86162068
   0.87140599  0.60545247  0.74383179
unknown system                          
           1
    -0.000000    0.000000  -11.518167
    -9.534857  -16.514856   -0.000000
    -9.534857   16.514856   -0.000000
   Zn   H    C    N    O 
   6  96 144  24  24
Direct configuration=     4
   0.80998301  0.67038620  0.03514303
   0.80998301  0.36475683  0.32961380
   0.80998301  0.96485697  0.63524317
   0.69162447  0.30394186  0.00159329
   0.69162447  0.69765243  0.69605814
   0.69162447  0.99840671  0.30234757
   0.09767454  0.51706402  0.33100619
   0.09767454  0.81394217  0.48293598
   0.09767454  0.66899381  0.18605783
   0.01298752  0.35319901  0.08190849
   0.01298752  0.72870948  0.64680099
   0.01298852  0.91809151  0.27129052
   0.16603486  0.41638383  0.03866102
   0.16603486  0.62227619  0.58361617
   0.16603486  0.96133898  0.37772381
   0.24996612  0.58023050  0.28935906
   0.24996612  0.70912856  0.41976950
   0.24996612  0.71064094  0.29087144
   0.42896520  0.55746696  0.23020165
   0.42896520  0.67273469  0.44253304
   0.42896520  0.76979835  0.32726531
   0.21213556  0.53108289  0.03445621
   0.21213556  0.50337231  0.46891711
   0.21213556  0.96554379  0.49662769
   0.37618570  0.57848240  0.98248822
   0.37618570  0.40400583  0.42151760
   0.37618570  0.01751178  0.59599517
   0.58869690  0.60892203  0.18015871
   0.58869690  0.57123667  0.39107797
   0.58869690  0.81984129  0.42876333
   0.83656752  0.85047459  0.06779115
   0.83656752  0.21731657  0.14952541
   0.83656752  0.93220885  0.78268343
   0.63814157  0.65418335  0.89569379
   0.63814157  0.24151043  0.34581665
   0.63814157  0.10430621  0.75848957
   0.60238312  0.78621584  0.87206408
   0.60238312  0.08584824  0.21378416
   0.60238312  0.12793592  0.91415176
   0.72202035  0.97635977  0.11752760
   0.72202035  0.14116783  0.02364023
   0.72202035  0.88247240  0.85883217
   0.75014654  0.51427135  0.85564354
   0.75014654  0.34137219  0.48572865
   0.75014654  0.14435646  0.65862781
   0.04980159  0.57661133  0.00047744
   0.04980159  0.42386611  0.42338867
   0.04980159  0.99952256  0.57613389
   0.09541035  0.43492604  0.85248508
   0.09541035  0.41755903  0.56507396
   0.09541035  0.14751492  0.58244097
   0.91026669  0.29553818  0.77516953
   0.91026669  0.47963135  0.70446182
   0.91026669  0.22483047  0.52036865
   0.01303200  0.23530222  0.38942518
   0.01303200  0.15412397  0.76469778
   0.01303200  0.61057482  0.84587603
   0.97076435  0.01366707  0.16454276
   0.97076435  0.15087469  0.98633293
   0.97076435  0.83545824  0.84912531
   0.12405146  0.05632035  0.10159916
   0.12405146  0.04527881  0.94367965
   0.12405146  0.89840084  0.95472119
   0.16360062  0.28053224  0.32680754
   0.16360062  0.04627530  0.71946776
   0.16360062  0.67319246  0.95372470
   0.18421764  0.32458917  0.23898575
   0.18421764  0.91439758  0.67541083
   0.18421764  0.76101425  0.08560242
   0.32471750  0.08339758  0.10081481
   0.32471750  0.01741723  0.91660242
   0.32471750  0.89918519  0.98258277
   0.47795133  0.13574078  0.04662080
   0.47795133  0.91088002  0.86425922
   0.47795133  0.95337920  0.08911998
   0.33909007  0.37599159  0.18574612
   0.33909007  0.80975552  0.62400841
   0.33909007  0.81425388  0.19024448
   0.68849290  0.45027567  0.18956409
   0.68849290  0.73928941  0.54972433
   0.68849290  0.81043591  0.26071059
   0.86048214  0.42483532  0.98284818
   0.86048214  0.55801286  0.57516468
   0.86048214  0.01715182  0.44198714
   0.91199855  0.57792903  0.11451896
   0.91199855  0.53658892  0.42207097
   0.91199855  0.88548204  0.46341108
   0.80298906  0.52691940  0.31317717
   0.80298906  0.78625777  0.47308060
   0.80298906  0.68682283  0.21374223
   0.47817057  0.40900014  0.00610412
   0.47817057  0.59710498  0.59099986
   0.47817057  0.99389588  0.40289602
   0.42934836  0.43727432  0.87869175
   0.42934836  0.44141643  0.56272568
   0.42934836  0.12130825  0.55858357
   0.69944716  0.26284557  0.81118481
   0.69944716  0.54833824  0.73715443
   0.69944716  0.18881519  0.45166176
   0.56195831  0.20749444  0.67639020
   0.56195831  0.46889576  0.79250556
   0.56195831  0.32360980  0.53110424
   0.95421988  0.39170008  0.23225971
   0.95421988  0.84055963  0.60829992
   0.95421988  0.76774029  0.15944037
   0.04564545  0.43145142  0.20864816
   0.04564545  0.77719775  0.56854858
   0.04564545  0.79135184  0.22280225
   0.11275493  0.49543789  0.26699723
   0.11275493  0.77155934  0.50456211
   0.11275493  0.73300277  0.22844066
   0.06497617  0.40370503  0.12634663
   0.06497617  0.72264160  0.59629497
   0.06497617  0.87365337  0.27735840
   0.14955190  0.43970069  0.10288349
   0.14955190  0.66318279  0.56029931
   0.14955190  0.89711651  0.33681721
   0.19806939  0.53085871  0.24333582
   0.19806939  0.71247711  0.46914129
   0.19806939  0.75666418  0.28752289
   0.21758677  0.50382186  0.16089124
   0.21758677  0.65706938  0.49617814
   0.21758677  0.83910876  0.34293062
   0.30971907  0.53948666  0.13501763
   0.30971907  0.59553097  0.46051334
   0.30971907  0.86498237  0.40446903
   0.41553908  0.56410200  0.17718170
   0.41553908  0.61307970  0.43589800
   0.41553908  0.82281830  0.38692030
   0.29552574  0.54700930  0.06573041
   0.29552574  0.51872211  0.45299070
   0.29552574  0.93426959  0.48127789
   0.38618349  0.57350170  0.03673420
   0.38618349  0.46323250  0.42649830
   0.38618349  0.96326580  0.53676750
   0.50565617  0.59164534  0.14870554
   0.50565617  0.55706020  0.40835466
   0.50565617  0.85129446  0.44293980
   0.49334324  0.59390105  0.07677638
   0.49334324  0.48287533  0.40609895
   0.49334324  0.92322362  0.51712467
   0.59593593  0.61144481  0.03995141
   0.59593593  0.42850659  0.38855519
   0.59593593  0.96004859  0.57149341
   0.77923421  0.81468310  0.01716640
   0.77923421  0.20248230  0.18531590
   0.77923421  0.98283360  0.79751770
   0.67617388  0.71406793  0.92554930
   0.67617388  0.21148238  0.28593207
   0.67617388  0.07445070  0.78851762
   0.65577982  0.77863937  0.91469963
   0.65577982  0.13606027  0.22136063
   0.65577982  0.08530037  0.86393973
   0.72555888  0.92188128  0.98673503
   0.72555888  0.06485275  0.07811872
   0.72555888  0.01326497  0.93514725
   0.72570441  0.98650148  0.06616643
   0.72570441  0.07966595  0.01349852
   0.72570441  0.93383357  0.92033405
   0.83834544  0.51315854  0.87468537
   0.83834544  0.36152783  0.48684146
   0.83834544  0.12531463  0.63847217
   0.99542899  0.54154243  0.94790411
   0.99542899  0.40636167  0.45845757
   0.99542899  0.05209589  0.59363833
   0.01883893  0.47257158  0.87598568
   0.01883993  0.40341409  0.52742842
   0.01883893  0.12401432  0.59658591
   0.90845261  0.39314908  0.74718025
   0.90845261  0.35403117  0.60685092
   0.90845261  0.25281975  0.64596883
   0.90813004  0.31227029  0.72787711
   0.90813004  0.41560682  0.68772971
   0.90813004  0.27212289  0.58439318
   0.88735692  0.09871763  0.31904881
   0.88735692  0.22033119  0.90128237
   0.88735692  0.68095119  0.77966881
   0.98215642  0.12221851  0.28093028
   0.98215642  0.15871177  0.87778149
   0.98215642  0.71906972  0.84128823
   0.03766404  0.19700225  0.32622488
   0.03766404  0.12922264  0.80299775
   0.03766404  0.67377512  0.87077736
   0.01430934  0.07184089  0.19972795
   0.01430934  0.12788706  0.92815911
   0.01430934  0.80027205  0.87211294
   0.10010843  0.09605753  0.16485812
   0.10010843  0.06880059  0.90394247
   0.10010843  0.83514188  0.93119941
   0.12128393  0.22196081  0.29095822
   0.12128393  0.06899741  0.77803919
   0.12128393  0.70904178  0.93100259
   0.15430860  0.17201705  0.20961119
   0.15430860  0.03759413  0.82798295
   0.15430860  0.79038881  0.96240587
   0.24379693  0.20042153  0.17422631
   0.24379693  0.97380479  0.79957847
   0.24379693  0.82577369  0.02619521
   0.24946419  0.28302388  0.19780929
   0.24946419  0.91478540  0.71697612
   0.24946419  0.80219071  0.08521460
   0.32642413  0.14741956  0.11857111
   0.32642413  0.97115256  0.85258044
   0.32642413  0.88142889  0.02884744
   0.41285160  0.17661352  0.08875333
   0.41285160  0.91213981  0.82338648
   0.41285160  0.91124667  0.08786019
   0.33521195  0.31208781  0.16782700
   0.33521195  0.85573918  0.68791219
   0.33521195  0.83217300  0.14426082
   0.41834940  0.25927691  0.11334005
   0.41835040  0.85406314  0.74072309
   0.41835040  0.88665995  0.14593686
   0.51000403  0.29304531  0.08303651
   0.51000403  0.78999220  0.70695469
   0.51000403  0.91696349  0.21000780
   0.74362151  0.46262483  0.15093141
   0.74362151  0.68830659  0.53737517
   0.74362151  0.84906859  0.31169341
   0.83247814  0.45372508  0.04546619
   0.83247814  0.59174110  0.54627492
   0.83247814  0.95453381  0.40825890
   0.85944068  0.52835798  0.10932350
   0.85944068  0.58096552  0.47164202
   0.85944068  0.89067650  0.41903448
   0.80408242  0.60055716  0.25566652
   0.80408242  0.65510936  0.39944284
   0.80408242  0.74433348  0.34489064
   0.80407453  0.58773375  0.32157625
   0.80407453  0.73384250  0.41226625
   0.80407453  0.67842375  0.26615750
   0.51440772  0.38237162  0.94560901
   0.51440772  0.56323739  0.61762838
   0.51440772  0.05439099  0.43676261
   0.48933294  0.39624122  0.88345433
   0.48933294  0.48721211  0.60375878
   0.48933294  0.11654567  0.51278789
   0.62849632  0.30300468  0.84510491
   0.62849632  0.54210024  0.69699532
   0.62849632  0.15489509  0.45789976
   0.56487507  0.33898385  0.74226032
   0.56487507  0.40327647  0.66101615
   0.56487507  0.25773968  0.59672353
   0.56488326  0.26260977  0.67242237
   0.56488326  0.40981261  0.73739023
   0.56488326  0.32757763  0.59018739
   0.75358424  0.73728987  0.98912551
   0.75358424  0.25183564  0.26271013
   0.75358424  0.01087449  0.74816436
   0.72149750  0.84187835  0.97323927
   0.72149750  0.13136092  0.15812165
   0.72149750  0.02676073  0.86863908
   0.88293184  0.56554722  0.94608580
   0.88293184  0.38053858  0.43445278
   0.88293184  0.05391420  0.61946142
   0.91833383  0.45531902  0.82994074
   0.91833383  0.37462172  0.54468098
   0.91833383  0.17005926  0.62537828
   0.76011373  0.41402301  0.07231550
   0.76011373  0.65829148  0.58597699
   0.76011373  0.92768450  0.34170852
   0.80319339  0.53309994  0.17599298
   0.80319339  0.64289404  0.46690006
   0.80319339  0.82400702  0.35710596
   0.60172035  0.32484536  0.92092260
   0.60172035  0.59607724  0.67515464
   0.60172035  0.07907740  0.40392276
   0.56143723  0.34516297  0.81951415
   0.56143623  0.47435218  0.65483803
   0.56143623  0.18048585  0.52564782
   0.67889617  0.65180552  0.09016349
   0.67889617  0.43835697  0.34819448
   0.67889617  0.90983651  0.56164303
   0.59892660  0.58512622  0.96493774
   0.59892660  0.37981152  0.41487378
   0.59892660  0.03506226  0.62018848
   0.94501946  0.41757719  0.30973684
   0.94501946  0.89215965  0.58242381
   0.94501946  0.69026316  0.10784035
   0.89052727  0.33788878  0.18008881
   0.89052727  0.84220004  0.66211122
   0.89052727  0.81991119  0.15779996
   0.50901425  0.36637733  0.10288130
   0.50901425  0.73650298  0.63362267
   0.50901425  0.89711870  0.26349702
   0.58917800  0.24246540  0.03543008
   0.58917800  0.79296467  0.75753460
   0.58917800  0.96456992  0.20703533
   0.82584813  0.03755393  0.26837871
   0.82584813  0.23082478  0.96244607
   0.82584813  0.73162129  0.76917522
   0.87139453  0.13837015  0.39455175
   0.87139453  0.25618160  0.86162985
   0.87139453  0.60544825  0.74381840
unknown system                          
           1
    -0.000000    0.000000  -11.518428
    -9.534823  -16.514798    0.000000
    -9.534823   16.514798   -0.000000
   Zn   H    C    N    O 
   6  96 144  24  24
Direct configuration=     5
   0.80999323  0.67038861  0.03514215
   0.80999323  0.36475354  0.32961139
   0.80999323  0.96485785  0.63524646
   0.69163405  0.30394784  0.00159701
   0.69163405  0.69765016  0.69605216
   0.69163405  0.99840299  0.30234984
   0.09767690  0.51705772  0.33099720
   0.09767690  0.81393948  0.48294228
   0.09767690  0.66900280  0.18606052
   0.01297148  0.35319121  0.08189945
   0.01297148  0.72870824  0.64680879
   0.01297248  0.91810055  0.27129176
   0.16603515  0.41637644  0.03865508
   0.16603515  0.62227764  0.58362356
   0.16603515  0.96134492  0.37772236
   0.24996227  0.58024195  0.28935577
   0.24996227  0.70911383  0.41975805
   0.24996227  0.71064423  0.29088617
   0.42896860  0.55745988  0.23019443
   0.42896860  0.67273454  0.44254012
   0.42896860  0.76980557  0.32726546
   0.21210821  0.53108285  0.03445007
   0.21210821  0.50336621  0.46891715
   0.21210821  0.96554993  0.49663379
   0.37618665  0.57846939  0.98247999
   0.37618665  0.40401060  0.42153061
   0.37618665  0.01752001  0.59599040
   0.58870996  0.60892588  0.18016299
   0.58870996  0.57123712  0.39107412
   0.58870996  0.81983701  0.42876288
   0.83656878  0.85047510  0.06778368
   0.83656878  0.21730858  0.14952490
   0.83656878  0.93221632  0.78269142
   0.63813033  0.65417261  0.89569090
   0.63813033  0.24151829  0.34582739
   0.63813033  0.10430910  0.75848171
   0.60237361  0.78620952  0.87206211
   0.60237361  0.08585259  0.21379048
   0.60237361  0.12793789  0.91414741
   0.72201405  0.97635668  0.11753199
   0.72201405  0.14117532  0.02364332
   0.72201405  0.88246801  0.85882468
   0.75016616  0.51428025  0.85564126
   0.75016616  0.34136102  0.48571975
   0.75016616  0.14435874  0.65863898
   0.04978644  0.57659438  0.00048135
   0.04978644  0.42388697  0.42340562
   0.04978644  0.99951865  0.57611303
   0.09539018  0.43492199  0.85250421
   0.09539018  0.41758222  0.56507801
   0.09539018  0.14749579  0.58241778
   0.91027702  0.29553468  0.77516632
   0.91027702  0.47963164  0.70446532
   0.91027702  0.22483368  0.52036836
   0.01303571  0.23529964  0.38942677
   0.01303571  0.15412814  0.76470036
   0.01303571  0.61057323  0.84587186
   0.97078015  0.01367607  0.16455939
   0.97078015  0.15088232  0.98632393
   0.97078015  0.83544161  0.84911768
   0.12405365  0.05633427  0.10161147
   0.12405365  0.04527721  0.94366573
   0.12405365  0.89838853  0.95472279
   0.16362286  0.28053475  0.32682936
   0.16362286  0.04629460  0.71946525
   0.16362286  0.67317064  0.95370540
   0.18421997  0.32460759  0.23900669
   0.18421997  0.91440010  0.67539241
   0.18421997  0.76099331  0.08559990
   0.32472085  0.08339862  0.10081422
   0.32472085  0.01741560  0.91660138
   0.32472085  0.89918578  0.98258440
   0.47796630  0.13574339  0.04662706
   0.47796630  0.91088367  0.86425661
   0.47796630  0.95337294  0.08911633
   0.33909782  0.37598884  0.18573939
   0.33909782  0.80975155  0.62401116
   0.33909782  0.81426061  0.19024845
   0.68849469  0.45027362  0.18956620
   0.68849469  0.73929359  0.54972638
   0.68849469  0.81043380  0.26070641
   0.86049051  0.42482738  0.98283850
   0.86049051  0.55801112  0.57517262
   0.86049051  0.01716150  0.44198888
   0.91200058  0.57792871  0.11451766
   0.91200058  0.53658795  0.42207129
   0.91200058  0.88548334  0.46341205
   0.80299154  0.52691621  0.31317712
   0.80299154  0.78626090  0.47308379
   0.80299154  0.68682288  0.21373910
   0.47816840  0.40899761  0.00610951
   0.47816840  0.59711290  0.59100239
   0.47816840  0.99389049  0.40288810
   0.42934799  0.43726955  0.87869642
   0.42934799  0.44142588  0.56273045
   0.42934799  0.12130358  0.55857412
   0.69944407  0.26285137  0.81118580
   0.69944407  0.54833343  0.73714863
   0.69944407  0.18881420  0.45166657
   0.56195095  0.20748835  0.67638613
   0.56195095  0.46889779  0.79251165
   0.56195095  0.32361387  0.53110221
   0.95421941  0.39169383  0.23224941
   0.95421941  0.84055558  0.60830617
   0.95421941  0.76775059  0.15944442
   0.04565299  0.43144712  0.20863495
   0.04565299  0.77718883  0.56855288
   0.04565299  0.79136505  0.22281117
   0.11276493  0.49543928  0.26699317
   0.11276493  0.77155389  0.50456072
   0.11276493  0.73300683  0.22844611
   0.06497617  0.40369822  0.12633322
   0.06497617  0.72263500  0.59630178
   0.06497617  0.87366678  0.27736500
   0.14955890  0.43969572  0.10288142
   0.14955890  0.66318570  0.56030428
   0.14955890  0.89711858  0.33681430
   0.19806497  0.53086617  0.24333485
   0.19806497  0.71246868  0.46913383
   0.19806497  0.75666515  0.28753132
   0.21758038  0.50382394  0.16089197
   0.21758038  0.65706803  0.49617606
   0.21758038  0.83910803  0.34293197
   0.30970767  0.53948619  0.13501920
   0.30970767  0.59553301  0.46051381
   0.30970767  0.86498080  0.40446699
   0.41554392  0.56409402  0.17717048
   0.41554392  0.61307646  0.43590598
   0.41554392  0.82282952  0.38692354
   0.29550651  0.54700846  0.06572740
   0.29550651  0.51871994  0.45299154
   0.29550651  0.93427260  0.48128006
   0.38616142  0.57349737  0.03673623
   0.38616142  0.46323886  0.42650263
   0.38616142  0.96326377  0.53676114
   0.50565938  0.59164774  0.14871611
   0.50565938  0.55706836  0.40835226
   0.50565938  0.85128389  0.44293164
   0.49332941  0.59389993  0.07677697
   0.49332941  0.48287704  0.40610007
   0.49332941  0.92322303  0.51712296
   0.59592621  0.61143602  0.03994469
   0.59592621  0.42850867  0.38856398
   0.59592621  0.96005531  0.57149133
   0.77922793  0.81468064  0.01716187
   0.77922793  0.20248023  0.18531836
   0.77922793  0.98283813  0.79751977
   0.67616458  0.71407300  0.92555295
   0.67616458  0.21148095  0.28592700
   0.67616458  0.07444705  0.78851905
   0.65577989  0.77864498  0.91470535
   0.65577989  0.13606038  0.22135502
   0.65577989  0.08529465  0.86393962
   0.72554474  0.92188352  0.98672876
   0.72554474  0.06484424  0.07811648
   0.72554474  0.01327124  0.93515576
   0.72569342  0.98649196  0.06616346
   0.72569342  0.07967250  0.01350804
   0.72569342  0.93383654  0.92032750
   0.83835674  0.51315965  0.87467758
   0.83835674  0.36151893  0.48684035
   0.83835674  0.12532242  0.63848107
   0.99542623  0.54154191  0.94791696
   0.99542623  0.40637506  0.45845809
   0.99542623  0.05208304  0.59362494
   0.01883300  0.47255675  0.87598431
   0.01883400  0.40342756  0.52744325
   0.01883300  0.12401569  0.59657244
   0.90847603  0.39314133  0.74718036
   0.90847603  0.35403903  0.60685867
   0.90847603  0.25281964  0.64596097
   0.90813199  0.31226034  0.72787052
   0.90813199  0.41561018  0.68773966
   0.90813199  0.27212948  0.58438982
   0.88736056  0.09872734  0.31905481
   0.88736056  0.22032747  0.90127266
   0.88736056  0.68094519  0.77967253
   0.98216639  0.12222690  0.28093554
   0.98216639  0.15870864  0.87777310
   0.98216639  0.71906446  0.84129136
   0.03768702  0.19700915  0.32623426
   0.03768702  0.12922512  0.80299085
   0.03768702  0.67376574  0.87077488
   0.01431565  0.07185029  0.19973556
   0.01431565  0.12788527  0.92814971
   0.01431565  0.80026444  0.87211473
   0.10010811  0.09606657  0.16486936
   0.10010811  0.06880279  0.90393343
   0.10010811  0.83513064  0.93119721
   0.12130025  0.22196882  0.29096492
   0.12130025  0.06899610  0.77803118
   0.12130025  0.70903508  0.93100390
   0.15432643  0.17201832  0.20961492
   0.15432643  0.03759660  0.82798168
   0.15432643  0.79038508  0.96240340
   0.24379251  0.20042129  0.17423334
   0.24379251  0.97381205  0.79957871
   0.24379251  0.82576666  0.02618795
   0.24946931  0.28302746  0.19782413
   0.24946931  0.91479667  0.71697254
   0.24946931  0.80217587  0.08520333
   0.32643369  0.14742301  0.11857766
   0.32643369  0.97115565  0.85257699
   0.32643369  0.88142234  0.02884435
   0.41285350  0.17660859  0.08875715
   0.41285350  0.91214855  0.82339141
   0.41285350  0.91124285  0.08785145
   0.33519550  0.31208771  0.16783602
   0.33519550  0.85574831  0.68791229
   0.33519550  0.83216398  0.14425169
   0.41834184  0.25927302  0.11333789
   0.41834284  0.85406487  0.74072698
   0.41834284  0.88666211  0.14593513
   0.51001706  0.29305828  0.08304580
   0.51001706  0.78998852  0.70694172
   0.51001706  0.91695420  0.21001148
   0.74361606  0.46262324  0.15092803
   0.74361606  0.68830479  0.53737676
   0.74361606  0.84907197  0.31169521
   0.83247910  0.45373203  0.04547401
   0.83247910  0.59174199  0.54626797
   0.83247910  0.95452599  0.40825801
   0.85943065  0.52835120  0.10933023
   0.85943065  0.58097902  0.47164880
   0.85943065  0.89066977  0.41902098
   0.80408379  0.60056520  0.25566680
   0.80408379  0.65510160  0.39943480
   0.80408379  0.74433320  0.34489840
   0.80406308  0.58772576  0.32156541
   0.80406308  0.73383965  0.41227424
   0.80406308  0.67843459  0.26616035
   0.51440224  0.38236743  0.94560128
   0.51440224  0.56323385  0.61763257
   0.51440224  0.05439872  0.43676615
   0.48933760  0.39623130  0.88344543
   0.48933760  0.48721312  0.60376870
   0.48933760  0.11655457  0.51278688
   0.62849170  0.30300265  0.84510307
   0.62849170  0.54210042  0.69699735
   0.62849170  0.15489693  0.45789958
   0.56485896  0.33898864  0.74225731
   0.56485896  0.40326867  0.66101136
   0.56485896  0.25774269  0.59673133
   0.56487736  0.26261048  0.67243157
   0.56487736  0.40982108  0.73738952
   0.56487736  0.32756843  0.59017892
   0.75357987  0.73729288  0.98912684
   0.75357987  0.25183396  0.26270712
   0.75357987  0.01087316  0.74816604
   0.72149393  0.84188489  0.97324471
   0.72149393  0.13135982  0.15811511
   0.72149393  0.02675529  0.86864018
   0.88293159  0.56554291  0.94608320
   0.88293159  0.38054029  0.43445709
   0.88293159  0.05391680  0.61945971
   0.91833671  0.45531416  0.82993879
   0.91833671  0.37462464  0.54468584
   0.91833671  0.17006121  0.62537536
   0.76011979  0.41402081  0.07231746
   0.76011979  0.65829565  0.58597919
   0.76011979  0.92768254  0.34170435
   0.80319386  0.53309881  0.17600004
   0.80319386  0.64290223  0.46690119
   0.80319386  0.82399996  0.35709777
   0.60171779  0.32484598  0.92092116
   0.60171779  0.59607518  0.67515402
   0.60171779  0.07907884  0.40392482
   0.56143557  0.34515833  0.81950807
   0.56143457  0.47435074  0.65484267
   0.56143457  0.18049193  0.52564926
   0.67888846  0.65180918  0.09015803
   0.67888846  0.43834785  0.34819082
   0.67888846  0.90984197  0.56165215
   0.59893703  0.58512058  0.96494298
   0.59893703  0.37982241  0.41487942
   0.59893703  0.03505702  0.62017759
   0.94500297  0.41756868  0.30972644
   0.94500297  0.89215776  0.58243232
   0.94500297  0.69027356  0.10784224
   0.89052791  0.33787090  0.18008137
   0.89052791  0.84221047  0.66212910
   0.89052791  0.81991863  0.15778953
   0.50903338  0.36637036  0.10287895
   0.50903338  0.73650760  0.63362964
   0.50903338  0.89712105  0.26349240
   0.58920059  0.24247115  0.03543401
   0.58920059  0.79296286  0.75752885
   0.58920059  0.96456599  0.20703714
   0.82583639  0.03756993  0.26839388
   0.82583639  0.23082395  0.96243007
   0.82583639  0.73160612  0.76917605
   0.87138686  0.13836400  0.39455457
   0.87138686  0.25619057  0.86163600
   0.87138686  0.60544543  0.74380943
unknown system                          
           1
    -0.000000    0.000000  -11.518724
    -9.534760  -16.514689    0.000000
    -9.534760   16.514689   -0.000000
   Zn   H    C    N    O 
   6  96 144  24  24
Direct configuration=     6
   0.81000078  0.67039120  0.03513855
   0.81000078  0.36474734  0.32960880
   0.81000078  0.96486145  0.63525266
   0.69164943  0.30395663  0.00159968
   0.69164943  0.69764405  0.69604337
   0.69164943  0.99840032  0.30235595
   0.09768204  0.51704571  0.33098030
   0.09768204  0.81393458  0.48295429
   0.09768204  0.66901970  0.18606542
   0.01294853  0.35318123  0.08188385
   0.01294853  0.72870262  0.64681877
   0.01294953  0.91811615  0.27129738
   0.16604252  0.41636262  0.03864022
   0.16604252  0.62227660  0.58363738
   0.16604252  0.96135978  0.37772340
   0.24996065  0.58027115  0.28935549
   0.24996065  0.70908434  0.41972885
   0.24996065  0.71064451  0.29091566
   0.42897283  0.55744370  0.23017912
   0.42897283  0.67273542  0.44255630
   0.42897283  0.76982088  0.32726458
   0.21206428  0.53108443  0.03444319
   0.21206428  0.50335776  0.46891557
   0.21206428  0.96555681  0.49664224
   0.37618720  0.57844379  0.98247066
   0.37618720  0.40402687  0.42155621
   0.37618720  0.01752934  0.59597413
   0.58871644  0.60892976  0.18016561
   0.58871644  0.57123585  0.39107024
   0.58871644  0.81983439  0.42876415
   0.83657585  0.85047817  0.06777313
   0.83657585  0.21729497  0.14952183
   0.83657585  0.93222687  0.78270503
   0.63812088  0.65417601  0.89569674
   0.63812088  0.24152072  0.34582399
   0.63812088  0.10430326  0.75847928
   0.60236486  0.78620056  0.87206658
   0.60236486  0.08586603  0.21379944
   0.60236486  0.12793342  0.91413397
   0.72200126  0.97634736  0.11753275
   0.72200126  0.14118540  0.02365264
   0.72200126  0.88246725  0.85881460
   0.75019500  0.51429681  0.85563204
   0.75019500  0.34133524  0.48570319
   0.75019500  0.14436796  0.65866476
   0.04976375  0.57656668  0.00049737
   0.04976375  0.42393068  0.42343332
   0.04976375  0.99950263  0.57606932
   0.09536946  0.43490186  0.85253369
   0.09536946  0.41763183  0.56509814
   0.09536946  0.14746631  0.58236817
   0.91029518  0.29552339  0.77515755
   0.91029518  0.47963417  0.70447661
   0.91029518  0.22484245  0.52036583
   0.01305083  0.23529516  0.38942767
   0.01305083  0.15413351  0.76470484
   0.01305083  0.61057233  0.84586649
   0.97080887  0.01369207  0.16458906
   0.97080887  0.15089599  0.98630793
   0.97080887  0.83541194  0.84910401
   0.12406012  0.05635579  0.10162756
   0.12406012  0.04527177  0.94364421
   0.12406012  0.89837244  0.95472823
   0.16367015  0.28054047  0.32686868
   0.16367015  0.04632820  0.71945953
   0.16367015  0.67313132  0.95367180
   0.18422908  0.32463643  0.23904520
   0.18422908  0.91440977  0.67536357
   0.18422908  0.76095480  0.08559023
   0.32472636  0.08339417  0.10081350
   0.32472636  0.01741933  0.91660583
   0.32472636  0.89918650  0.98258067
   0.47798787  0.13575027  0.04664358
   0.47798787  0.91089331  0.86424973
   0.47798787  0.95335642  0.08910669
   0.33910713  0.37597834  0.18572782
   0.33910713  0.80975048  0.62402166
   0.33910713  0.81427218  0.19024952
   0.68849344  0.45026755  0.18957140
   0.68849344  0.73930485  0.54973245
   0.68849344  0.81042860  0.26069515
   0.86049605  0.42482711  0.98284857
   0.86049605  0.55802146  0.57517289
   0.86049605  0.01715143  0.44197854
   0.91199091  0.57791852  0.11451813
   0.91199091  0.53659861  0.42208148
   0.91199091  0.88548287  0.46340139
   0.80299478  0.52691156  0.31317171
   0.80299478  0.78626016  0.47308844
   0.80299478  0.68682829  0.21373984
   0.47817077  0.40898673  0.00610198
   0.47817077  0.59711626  0.59101327
   0.47817077  0.99389802  0.40288474
   0.42934918  0.43725798  0.87870110
   0.42934918  0.44144212  0.56274202
   0.42934918  0.12129890  0.55855788
   0.69944473  0.26285815  0.81118456
   0.69944473  0.54832542  0.73714185
   0.69944473  0.18881544  0.45167458
   0.56193740  0.20748423  0.67638282
   0.56193740  0.46889859  0.79251577
   0.56193740  0.32361718  0.53110141
   0.95422205  0.39167691  0.23222131
   0.95422205  0.84054439  0.60832309
   0.95422205  0.76777869  0.15945561
   0.04565493  0.43143478  0.20861360
   0.04565493  0.77717982  0.56856522
   0.04565493  0.79138640  0.22282018
   0.11276369  0.49543124  0.26698099
   0.11276369  0.77154975  0.50456876
   0.11276369  0.73301901  0.22845025
   0.06496777  0.40368529  0.12632171
   0.06496777  0.72263642  0.59631471
   0.06496777  0.87367829  0.27736358
   0.14957233  0.43969234  0.10288043
   0.14957233  0.66318809  0.56030766
   0.14957233  0.89711957  0.33681191
   0.19804569  0.53087140  0.24332998
   0.19804569  0.71245858  0.46912860
   0.19804569  0.75667002  0.28754142
   0.21757687  0.50382051  0.16087588
   0.21757687  0.65705537  0.49617949
   0.21757687  0.83912412  0.34294463
   0.30968877  0.53948476  0.13501259
   0.30968877  0.59552783  0.46051524
   0.30968877  0.86498741  0.40447217
   0.41554433  0.56408150  0.17715938
   0.41554433  0.61307788  0.43591850
   0.41554433  0.82284062  0.38692212
   0.29546894  0.54700734  0.06572892
   0.29546894  0.51872258  0.45299266
   0.29546894  0.93427108  0.48127742
   0.38614112  0.57349208  0.03673439
   0.38614112  0.46324231  0.42650792
   0.38614112  0.96326561  0.53675769
   0.50566656  0.59164993  0.14872549
   0.50566656  0.55707556  0.40835007
   0.50566656  0.85127451  0.44292444
   0.49330691  0.59389785  0.07677505
   0.49330691  0.48287720  0.40610215
   0.49330691  0.92322495  0.51712280
   0.59591351  0.61143038  0.03994518
   0.59591351  0.42851480  0.38856962
   0.59591351  0.96005482  0.57148520
   0.77922070  0.81468519  0.01715926
   0.77922070  0.20247307  0.18531381
   0.77922070  0.98284074  0.79752693
   0.67614597  0.71407059  0.92555779
   0.67614597  0.21148820  0.28592941
   0.67614597  0.07444221  0.78851180
   0.65575983  0.77864121  0.91470283
   0.65575983  0.13606162  0.22135879
   0.65575983  0.08529717  0.86393838
   0.72552464  0.92188245  0.98672874
   0.72552464  0.06484529  0.07811755
   0.72552464  0.01327126  0.93515471
   0.72566930  0.98648553  0.06616263
   0.72566930  0.07967811  0.01351447
   0.72566930  0.93383737  0.92032189
   0.83837955  0.51316073  0.87466512
   0.83837955  0.36150540  0.48683927
   0.83837955  0.12533488  0.63849460
   0.99541107  0.54151909  0.94791797
   0.99541107  0.40639889  0.45848091
   0.99541107  0.05208203  0.59360111
   0.01881042  0.47255106  0.87600697
   0.01881142  0.40345591  0.52744894
   0.01881042  0.12399303  0.59654409
   0.90850020  0.39313577  0.74717900
   0.90850020  0.35404323  0.60686423
   0.90850020  0.25282100  0.64595677
   0.90815381  0.31224655  0.72786216
   0.90815381  0.41561561  0.68775345
   0.90815381  0.27213784  0.58438439
   0.88735999  0.09874285  0.31906843
   0.88735999  0.22032559  0.90125715
   0.88735999  0.68093157  0.77967441
   0.98218723  0.12224530  0.28094886
   0.98218723  0.15870356  0.87775470
   0.98218723  0.71905114  0.84129644
   0.03771483  0.19702415  0.32625750
   0.03771483  0.12923335  0.80297585
   0.03771483  0.67374250  0.87076665
   0.01431825  0.07186350  0.19975388
   0.01431825  0.12789038  0.92813650
   0.01431825  0.80024612  0.87210962
   0.10011403  0.09608447  0.16489102
   0.10011403  0.06880654  0.90391553
   0.10011403  0.83510898  0.93119346
   0.12132632  0.22198028  0.29099042
   0.12132632  0.06901014  0.77801972
   0.12132632  0.70900958  0.93098986
   0.15436005  0.17202989  0.20962445
   0.15436005  0.03759456  0.82797011
   0.15436005  0.79037555  0.96240544
   0.24379700  0.20042296  0.17424907
   0.24379700  0.97382611  0.79957704
   0.24379700  0.82575093  0.02617389
   0.24947752  0.28303645  0.19784814
   0.24947752  0.91481169  0.71696355
   0.24947752  0.80215186  0.08518831
   0.32643666  0.14743330  0.11859353
   0.32643666  0.97116122  0.85256670
   0.32643666  0.88140647  0.02883878
   0.41287178  0.17661030  0.08876132
   0.41287178  0.91215102  0.82338970
   0.41287178  0.91123868  0.08784898
   0.33519573  0.31208660  0.16783921
   0.33519573  0.85575261  0.68791340
   0.33519573  0.83216079  0.14424739
   0.41833755  0.25927603  0.11334009
   0.41833855  0.85406406  0.74072397
   0.41833855  0.88665991  0.14593594
   0.51002965  0.29305080  0.08305228
   0.51002965  0.79000248  0.70694920
   0.51002965  0.91694772  0.20999752
   0.74361243  0.46262496  0.15093341
   0.74361243  0.68830844  0.53737504
   0.74361243  0.84906659  0.31169156
   0.83248269  0.45371957  0.04546314
   0.83248269  0.59174357  0.54628043
   0.83248269  0.95453686  0.40825643
   0.85943642  0.52835283  0.10933421
   0.85943642  0.58098138  0.47164717
   0.85943642  0.89066579  0.41901862
   0.80407166  0.60056267  0.25566415
   0.80407166  0.65510148  0.39943733
   0.80407166  0.74433585  0.34489852
   0.80405128  0.58771877  0.32156204
   0.80405128  0.73384327  0.41228123
   0.80405128  0.67843796  0.26615673
   0.51439561  0.38235954  0.94559989
   0.51439561  0.56324035  0.61764046
   0.51439561  0.05440011  0.43675965
   0.48932461  0.39622665  0.88344459
   0.48932461  0.48721694  0.60377335
   0.48932461  0.11655541  0.51278306
   0.62848630  0.30299870  0.84509853
   0.62848630  0.54209983  0.69700130
   0.62848630  0.15490147  0.45790017
   0.56484189  0.33897934  0.74224877
   0.56484189  0.40326943  0.66102066
   0.56484189  0.25775123  0.59673057
   0.56485694  0.26260884  0.67244253
   0.56485694  0.40983369  0.73739116
   0.56485694  0.32755747  0.59016631
   0.75356048  0.73729328  0.98911953
   0.75356048  0.25182625  0.26270672
   0.75356048  0.01088047  0.74817375
   0.72147894  0.84188169  0.97323752
   0.72147894  0.13135583  0.15811831
   0.72147894  0.02676248  0.86864417
   0.88293530  0.56554097  0.94608248
   0.88293530  0.38054151  0.43445903
   0.88293530  0.05391752  0.61945849
   0.91834872  0.45530446  0.82994003
   0.91834872  0.37463557  0.54469554
   0.91834872  0.17005997  0.62536443
   0.76013793  0.41402818  0.07231941
   0.76013793  0.65829023  0.58597182
   0.76013793  0.92768059  0.34170977
   0.80319173  0.53309733  0.17600015
   0.80319173  0.64290382  0.46690267
   0.80319173  0.82399985  0.35709618
   0.60170799  0.32484791  0.92091498
   0.60170799  0.59606707  0.67515209
   0.60170799  0.07908502  0.40393293
   0.56142921  0.34515629  0.81950752
   0.56142821  0.47435223  0.65484471
   0.56142821  0.18049248  0.52564777
   0.67887135  0.65181646  0.09015478
   0.67887135  0.43833732  0.34818354
   0.67887135  0.90984522  0.56166268
   0.59894521  0.58509710  0.96493257
   0.59894521  0.37983547  0.41490290
   0.59894521  0.03506743  0.62016453
   0.94498247  0.41756127  0.30971091
   0.94498247  0.89214963  0.58243973
   0.94498247  0.69028909  0.10785037
   0.89054252  0.33784365  0.18006576
   0.89054252  0.84222210  0.66215635
   0.89054252  0.81993424  0.15777790
   0.50906460  0.36638040  0.10288586
   0.50906460  0.73650446  0.63361960
   0.50906460  0.89711414  0.26349554
   0.58923061  0.24248347  0.03545057
   0.58923061  0.79296710  0.75751653
   0.58923061  0.96454943  0.20703290
   0.82582114  0.03759261  0.26840382
   0.82582114  0.23081121  0.96240739
   0.82582114  0.73159618  0.76918879
   0.87138480  0.13836874  0.39457672
   0.87138480  0.25620799  0.86163126
   0.87138480  0.60542328  0.74379201
unknown system                          
           1
    -0.000000   -0.000000  -11.519165
    -9.534666  -16.514526   -0.000000
    -9.534666   16.514526   -0.000000
   Zn   H    C    N    O 
   6  96 144  24  24
Direct configuration=     7
   0.81001206  0.67039508  0.03513316
   0.81001206  0.36473808  0.32960492
   0.81001206  0.96486684  0.63526192
   0.69167241  0.30396976  0.00160367
   0.69167241  0.69763491  0.69603024
   0.69167241  0.99839633  0.30236509
   0.09768970  0.51702776  0.33095503
   0.09768970  0.81392727  0.48297224
   0.09768970  0.66904497  0.18607273
   0.01291423  0.35316631  0.08186053
   0.01291423  0.72869423  0.64683369
   0.01291523  0.91813947  0.27130577
   0.16605354  0.41634197  0.03861802
   0.16605354  0.62227505  0.58365803
   0.16605354  0.96138198  0.37772495
   0.24995823  0.58031480  0.28935507
   0.24995823  0.70904026  0.41968520
   0.24995823  0.71064493  0.29095974
   0.42897916  0.55741953  0.23015625
   0.42897916  0.67273672  0.44258047
   0.42897916  0.76984375  0.32726328
   0.21199862  0.53108680  0.03443293
   0.21199862  0.50334513  0.46891320
   0.21199862  0.96556707  0.49665487
   0.37618804  0.57840552  0.98245671
   0.37618804  0.40405120  0.42159448
   0.37618804  0.01754329  0.59594980
   0.58872613  0.60893557  0.18016953
   0.58872613  0.57123395  0.39106443
   0.58872613  0.81983047  0.42876605
   0.83658642  0.85048276  0.06775737
   0.83658642  0.21727462  0.14951724
   0.83658642  0.93224263  0.78272538
   0.63810676  0.65418110  0.89570545
   0.63810676  0.24152435  0.34581890
   0.63810676  0.10429455  0.75847565
   0.60235179  0.78618715  0.87207326
   0.60235179  0.08588611  0.21381285
   0.60235179  0.12792674  0.91411389
   0.72198215  0.97633342  0.11753389
   0.72198215  0.14120047  0.02366658
   0.72198215  0.88246611  0.85879953
   0.75023810  0.51432156  0.85561827
   0.75023810  0.34129671  0.48567844
   0.75023810  0.14438173  0.65870329
   0.04972985  0.57652529  0.00052130
   0.04972985  0.42399601  0.42347471
   0.04972985  0.99947870  0.57600399
   0.09533851  0.43487177  0.85257774
   0.09533851  0.41770597  0.56512823
   0.09533851  0.14742226  0.58229403
   0.91032233  0.29550651  0.77514445
   0.91032233  0.47963794  0.70449349
   0.91032233  0.22485555  0.52036206
   0.01307343  0.23528847  0.38942900
   0.01307343  0.15414153  0.76471153
   0.01307343  0.61057100  0.84585847
   0.97085179  0.01371598  0.16463340
   0.97085179  0.15091643  0.98628402
   0.97085179  0.83536760  0.84908357
   0.12406980  0.05638796  0.10165161
   0.12406980  0.04526366  0.94361204
   0.12406980  0.89834839  0.95473634
   0.16374082  0.28054902  0.32692744
   0.16374082  0.04637842  0.71945098
   0.16374082  0.67307256  0.95362158
   0.18424270  0.32467954  0.23910277
   0.18424270  0.91442423  0.67532046
   0.18424270  0.76089723  0.08557577
   0.32473459  0.08338752  0.10081242
   0.32473459  0.01742490  0.91661248
   0.32473459  0.89918758  0.98257510
   0.47802012  0.13576055  0.04666828
   0.47802012  0.91090773  0.86423945
   0.47802012  0.95333172  0.08909227
   0.33912106  0.37596264  0.18571052
   0.33912106  0.80974888  0.62403736
   0.33912106  0.81428948  0.19025112
   0.68849157  0.45025848  0.18957917
   0.68849157  0.73932169  0.54974152
   0.68849157  0.81042083  0.26067831
   0.86050431  0.42482669  0.98286362
   0.86050431  0.55803692  0.57517331
   0.86050431  0.01713638  0.44196308
   0.91197647  0.57790329  0.11451884
   0.91197647  0.53661455  0.42209671
   0.91197647  0.88548216  0.46338545
   0.80299962  0.52690459  0.31316364
   0.80299962  0.78625905  0.47309541
   0.80299962  0.68683636  0.21374095
   0.47817433  0.40897047  0.00609074
   0.47817433  0.59712127  0.59102953
   0.47817433  0.99390926  0.40287973
   0.42935098  0.43724070  0.87870809
   0.42935098  0.44146639  0.56275930
   0.42935098  0.12129191  0.55853361
   0.69944571  0.26286827  0.81118272
   0.69944571  0.54831345  0.73713173
   0.69944571  0.18881728  0.45168655
   0.56191716  0.20747808  0.67637787
   0.56191716  0.46889978  0.79252192
   0.56191716  0.32362213  0.53110022
   0.95422600  0.39165164  0.23217931
   0.95422600  0.84052767  0.60834836
   0.95422600  0.76782069  0.15947233
   0.04565783  0.43141634  0.20858168
   0.04565783  0.77716634  0.56858366
   0.04565783  0.79141832  0.22283366
   0.11276185  0.49541923  0.26696279
   0.11276185  0.77154356  0.50458077
   0.11276185  0.73303721  0.22845644
   0.06495522  0.40366598  0.12630451
   0.06495522  0.72263853  0.59633402
   0.06495522  0.87369549  0.27736147
   0.14959240  0.43968729  0.10287894
   0.14959240  0.66319166  0.56031271
   0.14959240  0.89712106  0.33680834
   0.19801687  0.53087921  0.24332270
   0.19801687  0.71244349  0.46912079
   0.19801687  0.75667730  0.28755651
   0.21757162  0.50381539  0.16085183
   0.21757162  0.65703643  0.49618461
   0.21757162  0.83914817  0.34296357
   0.30966053  0.53948263  0.13500270
   0.30966053  0.59552008  0.46051737
   0.30966053  0.86499730  0.40447992
   0.41554494  0.56406278  0.17714280
   0.41554494  0.61308002  0.43593722
   0.41554494  0.82285720  0.38691998
   0.29541278  0.54700565  0.06573118
   0.29541278  0.51872653  0.45299435
   0.29541278  0.93426882  0.48127347
   0.38611078  0.57348418  0.03673165
   0.38611078  0.46324747  0.42651582
   0.38611078  0.96326835  0.53675253
   0.50567729  0.59165320  0.14873952
   0.50567729  0.55708633  0.40834680
   0.50567729  0.85126048  0.44291367
   0.49327328  0.59389475  0.07677219
   0.49327328  0.48287744  0.40610525
   0.49327328  0.92322781  0.51712256
   0.59589452  0.61142194  0.03994591
   0.59589452  0.42852398  0.38857806
   0.59589452  0.96005409  0.57147602
   0.77920990  0.81469198  0.01715536
   0.77920990  0.20246238  0.18530702
   0.77920990  0.98284464  0.79753762
   0.67611816  0.71406699  0.92556503
   0.67611816  0.21149903  0.28593301
   0.67611816  0.07443497  0.78850097
   0.65572985  0.77863557  0.91469905
   0.65572985  0.13606348  0.22136443
   0.65572985  0.08530095  0.86393652
   0.72549460  0.92188085  0.98672873
   0.72549460  0.06484687  0.07811915
   0.72549460  0.01327127  0.93515313
   0.72563327  0.98647590  0.06616139
   0.72563327  0.07968648  0.01352410
   0.72563327  0.93383861  0.92031352
   0.83841364  0.51316235  0.87464651
   0.83841364  0.36148516  0.48683765
   0.83841364  0.12535349  0.63851484
   0.99538842  0.54148498  0.94791948
   0.99538842  0.40643450  0.45851502
   0.99538842  0.05208052  0.59356550
   0.01877669  0.47254256  0.87604084
   0.01877769  0.40349828  0.52745744
   0.01877669  0.12395916  0.59650172
   0.90853633  0.39312746  0.74717697
   0.90853633  0.35404950  0.60687254
   0.90853633  0.25282303  0.64595050
   0.90818641  0.31222594  0.72784967
   0.90818641  0.41562373  0.68777406
   0.90818641  0.27215033  0.58437627
   0.88735913  0.09876603  0.31908880
   0.88735913  0.22032277  0.90123397
   0.88735913  0.68091120  0.77967723
   0.98221837  0.12227279  0.28096876
   0.98221837  0.15869597  0.87772721
   0.98221837  0.71903124  0.84130403
   0.03775638  0.19704657  0.32629224
   0.03775638  0.12924566  0.80295343
   0.03775638  0.67370776  0.87075434
   0.01432212  0.07188324  0.19978125
   0.01432212  0.12789801  0.92811676
   0.01432212  0.80021875  0.87210199
   0.10012287  0.09611123  0.16492338
   0.10012287  0.06881215  0.90388877
   0.10012287  0.83507662  0.93118785
   0.12136527  0.22199741  0.29102854
   0.12136527  0.06903113  0.77800259
   0.12136527  0.70897146  0.93096887
   0.15441029  0.17204718  0.20963870
   0.15441029  0.03759153  0.82795282
   0.15441029  0.79036130  0.96240847
   0.24380372  0.20042546  0.17427257
   0.24380372  0.97384711  0.79957454
   0.24380372  0.82572743  0.02615289
   0.24948979  0.28304989  0.19788402
   0.24948979  0.91483413  0.71695011
   0.24948979  0.80211598  0.08516587
   0.32644111  0.14744869  0.11861724
   0.32644111  0.97116956  0.85255131
   0.32644111  0.88138276  0.02883044
   0.41289911  0.17661286  0.08876756
   0.41289911  0.91215470  0.82338714
   0.41289911  0.91123244  0.08784530
   0.33519607  0.31208494  0.16784397
   0.33519607  0.85575903  0.68791506
   0.33519607  0.83215603  0.14424097
   0.41833114  0.25928051  0.11334337
   0.41833214  0.85406286  0.74071949
   0.41833214  0.88665663  0.14593714
   0.51004846  0.29303962  0.08306196
   0.51004846  0.79002334  0.70696038
   0.51004846  0.91693804  0.20997666
   0.74360700  0.46262754  0.15094144
   0.74360700  0.68831390  0.53737246
   0.74360700  0.84905856  0.31168610
   0.83248804  0.45370096  0.04544689
   0.83248804  0.59174594  0.54629904
   0.83248804  0.95455311  0.40825406
   0.85944504  0.52835526  0.10934015
   0.85944504  0.58098489  0.47164474
   0.85944504  0.89065985  0.41901511
   0.80405353  0.60055888  0.25566019
   0.80405353  0.65510131  0.39944112
   0.80405353  0.74433981  0.34489869
   0.80403364  0.58770831  0.32155700
   0.80403364  0.73384869  0.41229169
   0.80403364  0.67844300  0.26615131
   0.51438571  0.38234774  0.94559781
   0.51438571  0.56325007  0.61765226
   0.51438571  0.05440219  0.43674993
   0.48930521  0.39621969  0.88344333
   0.48930521  0.48722265  0.60378031
   0.48930521  0.11655667  0.51277735
   0.62847822  0.30299280  0.84509175
   0.62847822  0.54209895  0.69700720
   0.62847822  0.15490825  0.45790105
   0.56481637  0.33896543  0.74223600
   0.56481637  0.40327057  0.66103457
   0.56481637  0.25776400  0.59672943
   0.56482644  0.26260639  0.67245892
   0.56482644  0.40985253  0.73739361
   0.56482644  0.32754108  0.59014747
   0.75353150  0.73729387  0.98910861
   0.75353150  0.25181474  0.26270613
   0.75353150  0.01089139  0.74818526
   0.72145653  0.84187691  0.97322678
   0.72145653  0.13134986  0.15812309
   0.72145653  0.02677322  0.86865014
   0.88294083  0.56553808  0.94608140
   0.88294083  0.38054332  0.43446192
   0.88294083  0.05391860  0.61945668
   0.91836666  0.45528996  0.82994188
   0.91836666  0.37465191  0.54471004
   0.91836666  0.17005812  0.62534809
   0.76016504  0.41403920  0.07232233
   0.76016504  0.65828213  0.58596080
   0.76016504  0.92767767  0.34171787
   0.80318853  0.53309512  0.17600031
   0.80318853  0.64290620  0.46690488
   0.80318853  0.82399969  0.35709380
   0.60169334  0.32485080  0.92090573
   0.60169334  0.59605494  0.67514920
   0.60169334  0.07909427  0.40394506
   0.56141971  0.34515324  0.81950669
   0.56141871  0.47435445  0.65484776
   0.56141871  0.18049331  0.52564555
   0.67884578  0.65182733  0.09014993
   0.67884578  0.43832160  0.34817267
   0.67884578  0.90985007  0.56167840
   0.59895743  0.58506202  0.96491701
   0.59895743  0.37985499  0.41493798
   0.59895743  0.03508299  0.62014501
   0.94495183  0.41755021  0.30968769
   0.94495183  0.89213748  0.58245079
   0.94495183  0.69031231  0.10786252
   0.89056437  0.33780294  0.18004242
   0.89056437  0.84223949  0.66219706
   0.89056437  0.81995758  0.15776051
   0.50911125  0.36639541  0.10289618
   0.50911125  0.73649977  0.63360459
   0.50911125  0.89710382  0.26350023
   0.58927546  0.24250189  0.03547532
   0.58927546  0.79297344  0.75749811
   0.58927546  0.96452468  0.20702656
   0.82579835  0.03762650  0.26841868
   0.82579835  0.23079217  0.96237350
   0.82579835  0.73158132  0.76920783
   0.87138173  0.13837581  0.39460983
   0.87138173  0.25623401  0.86162419
   0.87138173  0.60539017  0.74376599
unknown system                          
           1
     0.000000   -0.000000  -11.519264
    -9.534620  -16.514447   -0.000000
    -9.534620   16.514447   -0.000000
   Zn   H    C    N    O 
   6  96 144  24  24
Direct configuration=     8
   0.81001321  0.67039622  0.03513087
   0.81001321  0.36473465  0.32960378
   0.81001321  0.96486913  0.63526535
   0.69167940  0.30397486  0.00160448
   0.69167940  0.69763063  0.69602514
   0.69167940  0.99839552  0.30236937
   0.09769181  0.51702112  0.33094678
   0.09769181  0.81392565  0.48297888
   0.09769181  0.66905322  0.18607435
   0.01290422  0.35316259  0.08185278
   0.01290422  0.72869019  0.64683741
   0.01290522  0.91814722  0.27130981
   0.16605841  0.41633536  0.03861229
   0.16605841  0.62227593  0.58366464
   0.16605841  0.96138771  0.37772407
   0.24995233  0.58032759  0.28935169
   0.24995233  0.70902410  0.41967241
   0.24995233  0.71064831  0.29097590
   0.42898052  0.55740934  0.23014772
   0.42898052  0.67273838  0.44259066
   0.42898052  0.76985228  0.32726162
   0.21197817  0.53108854  0.03443131
   0.21197817  0.50334177  0.46891146
   0.21197817  0.96556869  0.49665823
   0.37618746  0.57839115  0.98245085
   0.37618746  0.40405970  0.42160885
   0.37618746  0.01754915  0.59594130
   0.58872747  0.60893734  0.18017057
   0.58872747  0.57123323  0.39106266
   0.58872747  0.81982943  0.42876677
   0.83659063  0.85048454  0.06775161
   0.83659063  0.21726707  0.14951546
   0.83659063  0.93224839  0.78273293
   0.63810155  0.65418416  0.89570946
   0.63810155  0.24152531  0.34581584
   0.63810155  0.10429054  0.75847469
   0.60234461  0.78618305  0.87207433
   0.60234461  0.08589128  0.21381695
   0.60234461  0.12792567  0.91410872
   0.72197443  0.97632784  0.11753249
   0.72197443  0.14120465  0.02367216
   0.72197443  0.88246751  0.85879535
   0.75025334  0.51433057  0.85561158
   0.75025334  0.34128101  0.48566943
   0.75025334  0.14438842  0.65871899
   0.04971620  0.57650883  0.00052989
   0.04971620  0.42402106  0.42349117
   0.04971620  0.99947011  0.57597894
   0.09532621  0.43486013  0.85259494
   0.09532621  0.41773481  0.56513987
   0.09532621  0.14740506  0.58226519
   0.91033258  0.29549885  0.77513945
   0.91033258  0.47964060  0.70450115
   0.91033258  0.22486055  0.52035940
   0.01308179  0.23528993  0.38943539
   0.01308179  0.15414645  0.76471007
   0.01308179  0.61056461  0.84585355
   0.97086521  0.01372210  0.16464810
   0.97086521  0.15092499  0.98627790
   0.97086521  0.83535290  0.84907501
   0.12407310  0.05639981  0.10166071
   0.12407310  0.04526090  0.94360019
   0.12407310  0.89833929  0.95473910
   0.16376802  0.28055162  0.32694885
   0.16376802  0.04639723  0.71944838
   0.16376802  0.67305115  0.95360277
   0.18425291  0.32469200  0.23912186
   0.18425291  0.91443085  0.67530800
   0.18425291  0.76087814  0.08556915
   0.32473739  0.08338729  0.10081346
   0.32473739  0.01742618  0.91661271
   0.32473739  0.89918654  0.98257382
   0.47803255  0.13576371  0.04667745
   0.47803255  0.91091374  0.86423629
   0.47803255  0.95332255  0.08908626
   0.33912523  0.37595795  0.18570501
   0.33912523  0.80974806  0.62404205
   0.33912523  0.81429499  0.19025194
   0.68849110  0.45025492  0.18958131
   0.68849110  0.73932739  0.54974508
   0.68849110  0.81041869  0.26067261
   0.86050821  0.42482568  0.98286760
   0.86050821  0.55804191  0.57517432
   0.86050821  0.01713240  0.44195809
   0.91197282  0.57789995  0.11452026
   0.91197282  0.53661932  0.42210005
   0.91197282  0.88548074  0.46338068
   0.80300112  0.52690102  0.31315973
   0.80300112  0.78625871  0.47309898
   0.80300112  0.68684027  0.21374129
   0.47817527  0.40896426  0.00608623
   0.47817527  0.59712297  0.59103574
   0.47817527  0.99391377  0.40287803
   0.42934755  0.43723658  0.87870959
   0.42934755  0.44147201  0.56276342
   0.42934755  0.12129041  0.55852799
   0.69944760  0.26287107  0.81118133
   0.69944760  0.54830927  0.73712893
   0.69944760  0.18881867  0.45169073
   0.56190926  0.20747540  0.67637701
   0.56190926  0.46890161  0.79252460
   0.56190926  0.32362299  0.53109839
   0.95422725  0.39164331  0.23216889
   0.95422725  0.84052558  0.60835669
   0.95422725  0.76783111  0.15947442
   0.04565531  0.43140933  0.20857370
   0.04565531  0.77716537  0.56859067
   0.04565531  0.79142630  0.22283463
   0.11275832  0.49541301  0.26695371
   0.11275832  0.77154069  0.50458699
   0.11275832  0.73304629  0.22845931
   0.06495354  0.40365943  0.12629640
   0.06495354  0.72263697  0.59634057
   0.06495354  0.87370360  0.27736303
   0.14959436  0.43968028  0.10287168
   0.14959436  0.66319141  0.56031972
   0.14959436  0.89712832  0.33680859
   0.19801078  0.53088415  0.24332046
   0.19801078  0.71243631  0.46911585
   0.19801078  0.75667954  0.28756369
   0.21756891  0.50381412  0.16084707
   0.21756891  0.65703295  0.49618588
   0.21756891  0.83915293  0.34296705
   0.30965573  0.53948265  0.13499862
   0.30965573  0.59551597  0.46051735
   0.30965573  0.86500138  0.40448403
   0.41554234  0.56405662  0.17713781
   0.41554234  0.61308119  0.43594338
   0.41554234  0.82286219  0.38691881
   0.29539403  0.54700629  0.06572956
   0.29539403  0.51872427  0.45299371
   0.29539403  0.93427044  0.48127573
   0.38610154  0.57348076  0.03673204
   0.38610154  0.46325128  0.42651924
   0.38610154  0.96326796  0.53674872
   0.50567474  0.59165257  0.14873821
   0.50567474  0.55708564  0.40834743
   0.50567474  0.85126179  0.44291436
   0.49326410  0.59389395  0.07677327
   0.49326410  0.48287933  0.40610605
   0.49326410  0.92322673  0.51712067
   0.59588927  0.61141940  0.03994354
   0.59588927  0.42852414  0.38858060
   0.59588927  0.96005646  0.57147586
   0.77920419  0.81469320  0.01715229
   0.77920419  0.20245809  0.18530580
   0.77920419  0.98284771  0.79754191
   0.67610707  0.71406714  0.92556689
   0.67610707  0.21150075  0.28593286
   0.67610707  0.07443311  0.78849925
   0.65571919  0.77863064  0.91469889
   0.65571919  0.13606825  0.22136936
   0.65571919  0.08530111  0.86393175
   0.72548336  0.92187913  0.98672785
   0.72548336  0.06484772  0.07812087
   0.72548336  0.01327215  0.93515228
   0.72561950  0.98647602  0.06616251
   0.72561950  0.07968749  0.01352398
   0.72561950  0.93383749  0.92031251
   0.83842374  0.51316447  0.87464160
   0.83842374  0.36147814  0.48683553
   0.83842374  0.12535840  0.63852186
   0.99537973  0.54147814  0.94792777
   0.99537973  0.40644962  0.45852186
   0.99537973  0.05207223  0.59355038
   0.01877320  0.47253207  0.87604880
   0.01877420  0.40351673  0.52746793
   0.01877320  0.12395120  0.59648327
   0.90854717  0.39312457  0.74717768
   0.90854717  0.35405311  0.60687543
   0.90854717  0.25282232  0.64594689
   0.90820187  0.31222272  0.72784713
   0.90820187  0.41562440  0.68777728
   0.90820187  0.27215287  0.58437560
   0.88735777  0.09877566  0.31909917
   0.88735777  0.22032350  0.90122434
   0.88735777  0.68090083  0.77967650
   0.98222424  0.12228276  0.28098021
   0.98222424  0.15869745  0.87771724
   0.98222424  0.71901979  0.84130255
   0.03777046  0.19705093  0.32629978
   0.03777046  0.12924884  0.80294907
   0.03777046  0.67370022  0.87075116
   0.01432814  0.07189372  0.19979308
   0.01432814  0.12789936  0.92810628
   0.01432814  0.80020692  0.87210064
   0.10012922  0.09612068  0.16493348
   0.10012922  0.06881281  0.90387932
   0.10012922  0.83506652  0.93118719
   0.12138418  0.22200321  0.29104223
   0.12138418  0.06903902  0.77799679
   0.12138418  0.70895777  0.93096098
   0.15441844  0.17205443  0.20965181
   0.15441844  0.03759738  0.82794557
   0.15441844  0.79034819  0.96240262
   0.24381352  0.20043127  0.17428140
   0.24381352  0.97385013  0.79956873
   0.24381352  0.82571860  0.02614987
   0.24949325  0.28305747  0.19789754
   0.24949325  0.91484007  0.71694253
   0.24949325  0.80210246  0.08515993
   0.32644614  0.14745069  0.11862245
   0.32644614  0.97117276  0.85254931
   0.32644614  0.88137755  0.02882724
   0.41290415  0.17661684  0.08877328
   0.41290415  0.91215644  0.82338316
   0.41290415  0.91122672  0.08784356
   0.33519874  0.31208338  0.16784463
   0.33519874  0.85576126  0.68791662
   0.33519874  0.83215537  0.14423874
   0.41833372  0.25928141  0.11334405
   0.41833472  0.85406263  0.74071859
   0.41833472  0.88665595  0.14593737
   0.51005585  0.29304202  0.08306623
   0.51005585  0.79002521  0.70695798
   0.51005585  0.91693377  0.20997479
   0.74360759  0.46262817  0.15094396
   0.74360759  0.68831579  0.53737183
   0.74360759  0.84905604  0.31168421
   0.83249169  0.45370122  0.04544971
   0.83249169  0.59174849  0.54629878
   0.83249169  0.95455029  0.40825151
   0.85944618  0.52834995  0.10933645
   0.85944618  0.58098651  0.47165005
   0.85944618  0.89066355  0.41901349
   0.80404481  0.60055720  0.25565982
   0.80404481  0.65510262  0.39944280
   0.80404481  0.74434018  0.34489738
   0.80402849  0.58770948  0.32155921
   0.80402849  0.73384973  0.41229052
   0.80402849  0.67844079  0.26615027
   0.51438199  0.38234358  0.94559595
   0.51438199  0.56325236  0.61765642
   0.51438199  0.05440405  0.43674764
   0.48930007  0.39621548  0.88344533
   0.48930007  0.48722885  0.60378452
   0.48930007  0.11655467  0.51277115
   0.62847419  0.30299200  0.84508887
   0.62847419  0.54209687  0.69700800
   0.62847419  0.15491113  0.45790313
   0.56480817  0.33896416  0.74223636
   0.56480817  0.40327220  0.66103584
   0.56480817  0.25776364  0.59672780
   0.56481388  0.26260518  0.67245645
   0.56481388  0.40985127  0.73739482
   0.56481388  0.32754355  0.59014873
   0.75352311  0.73729450  0.98910676
   0.75352311  0.25181226  0.26270550
   0.75352311  0.01089324  0.74818774
   0.72144698  0.84187295  0.97322059
   0.72144698  0.13134763  0.15812705
   0.72144698  0.02677941  0.86865237
   0.88294174  0.56553687  0.94607959
   0.88294174  0.38054272  0.43446313
   0.88294174  0.05392041  0.61945728
   0.91837104  0.45528500  0.82994297
   0.91837104  0.37465796  0.54471500
   0.91837104  0.17005703  0.62534204
   0.76017120  0.41404084  0.07232294
   0.76017120  0.65828110  0.58595916
   0.76017120  0.92767706  0.34171890
   0.80318766  0.53309482  0.17599776
   0.80318766  0.64290394  0.46690518
   0.80318766  0.82400224  0.35709606
   0.60169053  0.32484980  0.92090415
   0.60169053  0.59605435  0.67515020
   0.60169053  0.07909585  0.40394565
   0.56141419  0.34515366  0.81950691
   0.56141319  0.47435425  0.65484734
   0.56141319  0.18049309  0.52564575
   0.67883476  0.65183125  0.09014921
   0.67883476  0.43831696  0.34816875
   0.67883476  0.90985079  0.56168304
   0.59895924  0.58504782  0.96491190
   0.59895924  0.37986408  0.41495218
   0.59895924  0.03508810  0.62013592
   0.94494358  0.41754701  0.30967595
   0.94494358  0.89212894  0.58245399
   0.94494358  0.69032405  0.10787106
   0.89057412  0.33778695  0.18003053
   0.89057412  0.84224358  0.66221305
   0.89057412  0.81996947  0.15775642
   0.50912642  0.36639585  0.10290017
   0.50912642  0.73650333  0.63360415
   0.50912642  0.89709983  0.26349667
   0.58928913  0.24250701  0.03548603
   0.58928913  0.79297903  0.75749299
   0.58928913  0.96451397  0.20702097
   0.82579318  0.03764001  0.26842236
   0.82579318  0.23078235  0.96235999
   0.82579318  0.73157764  0.76921765
   0.87138434  0.13837919  0.39462057
   0.87138434  0.25624137  0.86162081
   0.87138434  0.60537943  0.74375863
unknown system                          
           1
     0.000000   -0.000000  -11.519562
    -9.534483  -16.514209    0.000000
    -9.534483   16.514209   -0.000000
   Zn   H    C    N    O 
   6  96 144  24  24
Direct configuration=     9
   0.81001663  0.67039964  0.03512398
   0.81001663  0.36472434  0.32960036
   0.81001663  0.96487602  0.63527566
   0.69170038  0.30399015  0.00160693
   0.69170038  0.69761778  0.69600985
   0.69170038  0.99839307  0.30238222
   0.09769813  0.51700121  0.33092201
   0.09769813  0.81392080  0.48299879
   0.09769813  0.66907799  0.18607920
   0.01287418  0.35315143  0.08182952
   0.01287418  0.72867809  0.64684857
   0.01287518  0.91817048  0.27132191
   0.16607304  0.41631555  0.03859511
   0.16607304  0.62227856  0.58368445
   0.16607304  0.96140489  0.37772144
   0.24993461  0.58036595  0.28934156
   0.24993461  0.70897561  0.41963405
   0.24993461  0.71065844  0.29102439
   0.42898462  0.55737879  0.23012213
   0.42898462  0.67274334  0.44262121
   0.42898462  0.76987787  0.32725666
   0.21191684  0.53109377  0.03442645
   0.21191684  0.50333168  0.46890623
   0.21191684  0.96557355  0.49666832
   0.37618573  0.57834805  0.98243328
   0.37618573  0.40408523  0.42165195
   0.37618573  0.01756672  0.59591577
   0.58873149  0.60894264  0.18017372
   0.58873149  0.57123108  0.39105736
   0.58873149  0.81982628  0.42876892
   0.83660326  0.85048990  0.06773433
   0.83660326  0.21724442  0.14951010
   0.83660326  0.93226567  0.78275558
   0.63808589  0.65419333  0.89572150
   0.63808589  0.24152817  0.34580667
   0.63808589  0.10427850  0.75847183
   0.60232306  0.78617072  0.87207751
   0.60232306  0.08590679  0.21382928
   0.60232306  0.12792249  0.91409321
   0.72195126  0.97631109  0.11752829
   0.72195126  0.14121719  0.02368891
   0.72195126  0.88247171  0.85878281
   0.75029904  0.51435761  0.85559152
   0.75029904  0.34123391  0.48564239
   0.75029904  0.14440848  0.65876609
   0.04967522  0.57645945  0.00055566
   0.04967522  0.42409621  0.42354055
   0.04967522  0.99944434  0.57590379
   0.09528934  0.43482521  0.85264654
   0.09528934  0.41782134  0.56517479
   0.09528934  0.14735346  0.58217866
   0.91036334  0.29547587  0.77512447
   0.91036334  0.47964860  0.70452413
   0.91036334  0.22487553  0.52035140
   0.01310686  0.23529433  0.38945455
   0.01310686  0.15416122  0.76470567
   0.01310686  0.61054545  0.84583878
   0.97090548  0.01374048  0.16469218
   0.97090548  0.15095070  0.98625952
   0.97090548  0.83530882  0.84904930
   0.12408297  0.05643535  0.10168799
   0.12408297  0.04525264  0.94356465
   0.12408297  0.89831201  0.95474736
   0.16384963  0.28055944  0.32701309
   0.16384963  0.04645366  0.71944056
   0.16384963  0.67298691  0.95354634
   0.18428352  0.32472939  0.23917912
   0.18428352  0.91445073  0.67527061
   0.18428352  0.76082088  0.08554927
   0.32474579  0.08338659  0.10081659
   0.32474579  0.01743000  0.91661341
   0.32474579  0.89918341  0.98257000
   0.47806983  0.13577319  0.04670495
   0.47806983  0.91093176  0.86422681
   0.47806983  0.95329505  0.08906824
   0.33913774  0.37594389  0.18568849
   0.33913774  0.80974560  0.62405611
   0.33913774  0.81431151  0.19025440
   0.68848968  0.45024421  0.18958771
   0.68848968  0.73934450  0.54975579
   0.68848968  0.81041229  0.26065550
   0.86051989  0.42482266  0.98287954
   0.86051989  0.55805688  0.57517734
   0.86051989  0.01712046  0.44194312
   0.91196185  0.57788991  0.11452453
   0.91196185  0.53663361  0.42211009
   0.91196185  0.88547647  0.46336639
   0.80300564  0.52689029  0.31314800
   0.80300564  0.78625771  0.47310971
   0.80300564  0.68685200  0.21374229
   0.47817810  0.40894564  0.00607268
   0.47817810  0.59712804  0.59105436
   0.47817810  0.99392732  0.40287296
   0.42933727  0.43722420  0.87871409
   0.42933727  0.44148888  0.56277580
   0.42933727  0.12128591  0.55851112
   0.69945327  0.26287945  0.81117718
   0.69945327  0.54829673  0.73712055
   0.69945327  0.18882282  0.45170327
   0.56188556  0.20746735  0.67637444
   0.56188556  0.46890709  0.79253265
   0.56188556  0.32362556  0.53109291
   0.95423101  0.39161832  0.23213763
   0.95423101  0.84051931  0.60838168
   0.95423101  0.76786237  0.15948069
   0.04564777  0.43138829  0.20854976
   0.04564777  0.77716246  0.56861171
   0.04564777  0.79145024  0.22283754
   0.11274774  0.49539435  0.26692644
   0.11274774  0.77153209  0.50460565
   0.11274774  0.73307356  0.22846791
   0.06494851  0.40363978  0.12627205
   0.06494851  0.72263227  0.59636022
   0.06494851  0.87372795  0.27736773
   0.14960026  0.43965924  0.10284990
   0.14960026  0.66319066  0.56034076
   0.14960026  0.89715010  0.33680934
   0.19799250  0.53089896  0.24331373
   0.19799250  0.71241477  0.46910104
   0.19799250  0.75668627  0.28758523
   0.21756079  0.50381030  0.16083280
   0.21756079  0.65702250  0.49618970
   0.21756079  0.83916720  0.34297750
   0.30964134  0.53948274  0.13498638
   0.30964134  0.59550364  0.46051726
   0.30964134  0.86501362  0.40449636
   0.41553453  0.56403814  0.17712283
   0.41553453  0.61308469  0.43596186
   0.41553453  0.82287717  0.38691531
   0.29533779  0.54700820  0.06572469
   0.29533779  0.51871749  0.45299180
   0.29533779  0.93427531  0.48128251
   0.38607383  0.57347052  0.03673320
   0.38607383  0.46326269  0.42652948
   0.38607383  0.96326680  0.53673731
   0.50566708  0.59165070  0.14873428
   0.50566708  0.55708359  0.40834930
   0.50566708  0.85126572  0.44291641
   0.49323656  0.59389153  0.07677653
   0.49323656  0.48288500  0.40610847
   0.49323656  0.92322347  0.51711500
   0.59587354  0.61141179  0.03993642
   0.59587354  0.42852463  0.38858821
   0.59587354  0.96006358  0.57147537
   0.77918707  0.81469687  0.01714310
   0.77918707  0.20244523  0.18530213
   0.77918707  0.98285690  0.79755477
   0.67607379  0.71406756  0.92557247
   0.67607379  0.21150591  0.28593244
   0.67607379  0.07442753  0.78849409
   0.65568723  0.77861586  0.91469841
   0.65568723  0.13608255  0.22138414
   0.65568723  0.08530159  0.86391745
   0.72544964  0.92187397  0.98672522
   0.72544964  0.06485025  0.07812603
   0.72544964  0.01327478  0.93514975
   0.72557818  0.98647637  0.06616590
   0.72557818  0.07969053  0.01352363
   0.72557818  0.93383410  0.92030947
   0.83845404  0.51317082  0.87462689
   0.83845404  0.36145707  0.48682918
   0.83845404  0.12537311  0.63854293
   0.99535368  0.54145762  0.94795263
   0.99535368  0.40649501  0.45854238
   0.99535368  0.05204737  0.59350499
   0.01876274  0.47250061  0.87607268
   0.01876374  0.40357207  0.52749939
   0.01876274  0.12392732  0.59642793
   0.90857972  0.39311590  0.74717981
   0.90857972  0.35406392  0.60688410
   0.90857972  0.25282019  0.64593608
   0.90824826  0.31221307  0.72783950
   0.90824826  0.41562642  0.68778693
   0.90824826  0.27216050  0.58437358
   0.88735372  0.09880456  0.31913027
   0.88735372  0.22032571  0.90119544
   0.88735372  0.68086973  0.77967429
   0.98224186  0.12231268  0.28101457
   0.98224186  0.15870189  0.87768732
   0.98224186  0.71898543  0.84129811
   0.03781273  0.19706401  0.32632240
   0.03781273  0.12925839  0.80293599
   0.03781273  0.67367760  0.87074161
   0.01434621  0.07192516  0.19982856
   0.01434621  0.12790340  0.92807484
   0.01434621  0.80017144  0.87209660
   0.10014828  0.09614901  0.16496379
   0.10014828  0.06881478  0.90385099
   0.10014828  0.83503621  0.93118522
   0.12144093  0.22202060  0.29108329
   0.12144093  0.06906269  0.77797940
   0.12144093  0.70891671  0.93093731
   0.15444290  0.17207621  0.20969115
   0.15444290  0.03761494  0.82792379
   0.15444290  0.79030885  0.96238506
   0.24384293  0.20044869  0.17430789
   0.24384293  0.97385920  0.79955131
   0.24384293  0.82569211  0.02614080
   0.24950361  0.28308023  0.19793810
   0.24950361  0.91485787  0.71691977
   0.24950361  0.80206190  0.08514213
   0.32646123  0.14745670  0.11863806
   0.32646123  0.97118236  0.85254330
   0.32646123  0.88136194  0.02881764
   0.41291926  0.17662879  0.08879045
   0.41291926  0.91216166  0.82337121
   0.41291926  0.91120955  0.08783834
   0.33520674  0.31207870  0.16784662
   0.33520674  0.85576793  0.68792130
   0.33520674  0.83215338  0.14423207
   0.41834146  0.25928411  0.11334608
   0.41834246  0.85406197  0.74071589
   0.41834246  0.88665392  0.14593803
   0.51007800  0.29304921  0.08307905
   0.51007800  0.79003084  0.70695079
   0.51007800  0.91692095  0.20996916
   0.74360937  0.46263004  0.15095149
   0.74360937  0.68832145  0.53736996
   0.74360937  0.84904851  0.31167855
   0.83250266  0.45370202  0.04545817
   0.83250266  0.59175615  0.54629798
   0.83250266  0.95454183  0.40824385
   0.85944958  0.52833402  0.10932535
   0.85944958  0.58099134  0.47166598
   0.85944958  0.89067465  0.41900866
   0.80401867  0.60055215  0.25565871
   0.80401867  0.65510656  0.39944785
   0.80401867  0.74434129  0.34489344
   0.80401304  0.58771299  0.32156581
   0.80401304  0.73385283  0.41228701
   0.80401304  0.67843419  0.26614717
   0.51437085  0.38233111  0.94559035
   0.51437085  0.56325924  0.61766889
   0.51437085  0.05440965  0.43674076
   0.48928466  0.39620286  0.88345132
   0.48928466  0.48724746  0.60379714
   0.48928466  0.11654868  0.51275254
   0.62846210  0.30298962  0.84508025
   0.62846210  0.54209062  0.69701038
   0.62846210  0.15491975  0.45790938
   0.56478356  0.33896033  0.74223744
   0.56478356  0.40327711  0.66103967
   0.56478356  0.25776256  0.59672289
   0.56477620  0.26260156  0.67244904
   0.56477620  0.40984749  0.73739844
   0.56477620  0.32755096  0.59015251
   0.75349792  0.73729639  0.98910121
   0.75349792  0.25180482  0.26270361
   0.75349792  0.01089879  0.74819518
   0.72141833  0.84186107  0.97320201
   0.72141833  0.13134094  0.15813893
   0.72141833  0.02679799  0.86865906
   0.88294444  0.56553323  0.94607414
   0.88294444  0.38054091  0.43446677
   0.88294444  0.05392586  0.61945909
   0.91838417  0.45527013  0.82994625
   0.91838417  0.37467612  0.54472987
   0.91838417  0.17005375  0.62532388
   0.76018967  0.41404578  0.07232478
   0.76018967  0.65827800  0.58595422
   0.76018967  0.92767522  0.34172200
   0.80318505  0.53309393  0.17599008
   0.80318505  0.64289715  0.46690607
   0.80318505  0.82400992  0.35710285
   0.60168212  0.32484679  0.92089938
   0.60168212  0.59605258  0.67515321
   0.60168212  0.07910062  0.40394742
   0.56139764  0.34515492  0.81950756
   0.56139664  0.47435364  0.65484608
   0.56139664  0.18049244  0.52564636
   0.67880170  0.65184299  0.09014705
   0.67880170  0.43830306  0.34815701
   0.67880170  0.90985295  0.56169694
   0.59896464  0.58500520  0.96489656
   0.59896464  0.37989136  0.41499480
   0.59896464  0.03510344  0.62010864
   0.94491880  0.41753743  0.30964073
   0.94491880  0.89210330  0.58246357
   0.94491880  0.69035927  0.10789670
   0.89060338  0.33773899  0.17999484
   0.89060338  0.84225584  0.66226101
   0.89060338  0.82000516  0.15774416
   0.50917195  0.36639715  0.10291215
   0.50917195  0.73651399  0.63360285
   0.50917195  0.89708785  0.26348601
   0.58933011  0.24252236  0.03551816
   0.58933011  0.79299580  0.75747764
   0.58933011  0.96448184  0.20700420
   0.82577768  0.03768053  0.26843342
   0.82577768  0.23075289  0.96231947
   0.82577768  0.73156658  0.76924711
   0.87139216  0.13838934  0.39465278
   0.87139216  0.25626345  0.86161066
   0.87139216  0.60534722  0.74373655
unknown system                          
           1
     0.000000   -0.000000  -11.520158
    -9.534209  -16.513734    0.000000
    -9.534209   16.513734   -0.000000
   Zn   H    C    N    O 
   6  96 144  24  24
Direct configuration=    10
   0.81002347  0.67040648  0.03511019
   0.81002347  0.36470372  0.32959352
   0.81002347  0.96488981  0.63529628
   0.69174233  0.30402074  0.00161183
   0.69174233  0.69759209  0.69597926
   0.69174233  0.99838817  0.30240791
   0.09771076  0.51696138  0.33087248
   0.09771076  0.81391109  0.48303862
   0.09771076  0.66912752  0.18608891
   0.01281412  0.35312912  0.08178300
   0.01281412  0.72865388  0.64687088
   0.01281512  0.91821700  0.27134612
   0.16610229  0.41627591  0.03856075
   0.16610229  0.62228384  0.58372409
   0.16610229  0.96143925  0.37771616
   0.24989918  0.58044268  0.28932131
   0.24989918  0.70887863  0.41955732
   0.24989918  0.71067869  0.29112137
   0.42899281  0.55731768  0.23007094
   0.42899281  0.67275326  0.44268232
   0.42899281  0.76992906  0.32724674
   0.21179417  0.53110423  0.03441674
   0.21179417  0.50331151  0.46889577
   0.21179417  0.96558326  0.49668849
   0.37618227  0.57826185  0.98239813
   0.37618227  0.40413628  0.42173815
   0.37618227  0.01760187  0.59586472
   0.58873953  0.60895324  0.18018000
   0.58873953  0.57122676  0.39104676
   0.58873953  0.81982000  0.42877324
   0.83662851  0.85050063  0.06769976
   0.83662851  0.21719914  0.14949937
   0.83662851  0.93230024  0.78280086
   0.63805458  0.65421168  0.89574557
   0.63805458  0.24153389  0.34578832
   0.63805458  0.10425443  0.75846611
   0.60227997  0.78614607  0.87208388
   0.60227997  0.08593781  0.21385393
   0.60227997  0.12791612  0.91406219
   0.72190493  0.97627760  0.11751988
   0.72190493  0.14124228  0.02372240
   0.72190493  0.88248012  0.85875772
   0.75039046  0.51441169  0.85555139
   0.75039046  0.34113970  0.48558831
   0.75039046  0.14444861  0.65886030
   0.04959327  0.57636069  0.00060721
   0.04959327  0.42424652  0.42363931
   0.04959327  0.99939279  0.57575348
   0.09521558  0.43475536  0.85274974
   0.09521558  0.41799438  0.56524464
   0.09521558  0.14725026  0.58200562
   0.91042486  0.29542990  0.77509449
   0.91042486  0.47966459  0.70457010
   0.91042486  0.22490551  0.52033541
   0.01315699  0.23530313  0.38949287
   0.01315699  0.15419074  0.76469687
   0.01315699  0.61050713  0.84580926
   0.97098602  0.01377723  0.16478034
   0.97098602  0.15100211  0.98622277
   0.97098602  0.83522066  0.84899789
   0.12410273  0.05650643  0.10174256
   0.12410273  0.04523612  0.94349357
   0.12410273  0.89825744  0.95476388
   0.16401283  0.28057506  0.32714158
   0.16401283  0.04656652  0.71942494
   0.16401283  0.67285842  0.95343348
   0.18434475  0.32480417  0.23929365
   0.18434475  0.91449048  0.67519583
   0.18434475  0.76070635  0.08550952
   0.32476259  0.08338520  0.10082285
   0.32476259  0.01743765  0.91661480
   0.32476259  0.89917715  0.98256235
   0.47814441  0.13579214  0.04675996
   0.47814441  0.91096781  0.86420786
   0.47814441  0.95324004  0.08903219
   0.33916276  0.37591577  0.18565543
   0.33916276  0.80974067  0.62408423
   0.33916276  0.81434457  0.19025933
   0.68848684  0.45022280  0.18960052
   0.68848684  0.73937872  0.54977720
   0.68848684  0.81039948  0.26062128
   0.86054324  0.42481662  0.98290343
   0.86054324  0.55808682  0.57518338
   0.86054324  0.01709657  0.44191318
   0.91193993  0.57786984  0.11453305
   0.91193993  0.53666221  0.42213016
   0.91193993  0.88546795  0.46333779
   0.80301468  0.52686883  0.31312453
   0.80301468  0.78625570  0.47313117
   0.80301468  0.68687547  0.21374430
   0.47818375  0.40890840  0.00604559
   0.47818375  0.59713819  0.59109160
   0.47818375  0.99395441  0.40286281
   0.42931672  0.43719945  0.87872307
   0.42931672  0.44152262  0.56280055
   0.42931672  0.12127693  0.55847738
   0.69946460  0.26289622  0.81116887
   0.69946460  0.54827165  0.73710378
   0.69946460  0.18883113  0.45172835
   0.56183816  0.20745124  0.67636929
   0.56183816  0.46891805  0.79254876
   0.56183816  0.32363071  0.53108195
   0.95423851  0.39156834  0.23207510
   0.95423851  0.84050676  0.60843166
   0.95423851  0.76792490  0.15949324
   0.04563268  0.43134622  0.20850188
   0.04563268  0.77715665  0.56865378
   0.04563268  0.79149812  0.22284335
   0.11272658  0.49535704  0.26687192
   0.11272658  0.77151488  0.50464296
   0.11272658  0.73312808  0.22848512
   0.06493845  0.40360049  0.12622337
   0.06493845  0.72262287  0.59639951
   0.06493845  0.87377663  0.27737713
   0.14961205  0.43961717  0.10280634
   0.14961205  0.66318917  0.56038283
   0.14961205  0.89719366  0.33681083
   0.19795595  0.53092859  0.24330027
   0.19795595  0.71237168  0.46907141
   0.19795595  0.75669973  0.28762832
   0.21754455  0.50380267  0.16080426
   0.21754455  0.65700159  0.49619733
   0.21754455  0.83919574  0.34299841
   0.30961254  0.53948291  0.13496189
   0.30961254  0.59547898  0.46051709
   0.30961254  0.86503811  0.40452102
   0.41551891  0.56400118  0.17709287
   0.41551891  0.61309169  0.43599882
   0.41551891  0.82290713  0.38690831
   0.29522531  0.54701203  0.06571495
   0.29522531  0.51870392  0.45298797
   0.29522531  0.93428505  0.48129608
   0.38601840  0.57345003  0.03673553
   0.38601840  0.46328551  0.42654997
   0.38601840  0.96326447  0.53671449
   0.50565177  0.59164694  0.14872642
   0.50565177  0.55707948  0.40835306
   0.50565177  0.85127358  0.44292052
   0.49318148  0.59388670  0.07678304
   0.49318148  0.48289634  0.40611330
   0.49318148  0.92321696  0.51710366
   0.59584206  0.61139657  0.03992217
   0.59584206  0.42852560  0.38860343
   0.59584206  0.96007783  0.57147440
   0.77915283  0.81470421  0.01712471
   0.77915283  0.20241950  0.18529479
   0.77915283  0.98287529  0.79758050
   0.67600723  0.71406841  0.92558363
   0.67600723  0.21151622  0.28593159
   0.67600723  0.07441637  0.78848378
   0.65562330  0.77858630  0.91469746
   0.65562330  0.13611116  0.22141370
   0.65562330  0.08530254  0.86388884
   0.72538220  0.92186364  0.98671996
   0.72538220  0.06485531  0.07813636
   0.72538220  0.01328004  0.93514469
   0.72549555  0.98647706  0.06617266
   0.72549555  0.07969660  0.01352294
   0.72549555  0.93382734  0.92030340
   0.83851463  0.51318353  0.87459746
   0.83851463  0.36141492  0.48681647
   0.83851463  0.12540254  0.63858508
   0.99530159  0.54141658  0.94800235
   0.99530159  0.40658577  0.45858342
   0.99530159  0.05199765  0.59341423
   0.01874182  0.47243768  0.87612045
   0.01874282  0.40368277  0.52756232
   0.01874182  0.12387955  0.59631723
   0.90864480  0.39309855  0.74718409
   0.90864480  0.35408553  0.60690145
   0.90864480  0.25281591  0.64591447
   0.90834103  0.31219377  0.72782424
   0.90834103  0.41563046  0.68780623
   0.90834103  0.27217576  0.58436954
   0.88734560  0.09886235  0.31919247
   0.88734560  0.22033012  0.90113765
   0.88734560  0.68080753  0.77966988
   0.98227708  0.12237251  0.28108328
   0.98227708  0.15871078  0.87762749
   0.98227708  0.71891672  0.84128922
   0.03789725  0.19709016  0.32636763
   0.03789725  0.12927747  0.80290984
   0.03789725  0.67363237  0.87072253
   0.01438233  0.07198805  0.19989953
   0.01438233  0.12791148  0.92801195
   0.01438233  0.80010047  0.87208852
   0.10018639  0.09620569  0.16502442
   0.10018639  0.06881873  0.90379431
   0.10018639  0.83497558  0.93118127
   0.12155442  0.22205537  0.29116541
   0.12155442  0.06911004  0.77794463
   0.12155442  0.70883459  0.93088996
   0.15449180  0.17211976  0.20976981
   0.15449180  0.03765005  0.82788024
   0.15449180  0.79023019  0.96234995
   0.24390174  0.20048354  0.17436087
   0.24390174  0.97387733  0.79951646
   0.24390174  0.82563913  0.02612267
   0.24952434  0.28312573  0.19801922
   0.24952434  0.91489348  0.71687427
   0.24952434  0.80198078  0.08510652
   0.32649142  0.14746872  0.11866928
   0.32649142  0.97120156  0.85253128
   0.32649142  0.88133072  0.02879844
   0.41294947  0.17665270  0.08882479
   0.41294947  0.91217209  0.82334730
   0.41294947  0.91117521  0.08782791
   0.33522275  0.31206933  0.16785059
   0.33522275  0.85578127  0.68793067
   0.33522275  0.83214941  0.14421873
   0.41835693  0.25928950  0.11335014
   0.41835793  0.85406064  0.74071050
   0.41835793  0.88664986  0.14593936
   0.51012231  0.29306361  0.08310469
   0.51012231  0.79004208  0.70693639
   0.51012231  0.91689531  0.20995792
   0.74361294  0.46263378  0.15096657
   0.74361294  0.68833278  0.53736622
   0.74361294  0.84903343  0.31166722
   0.83252460  0.45370363  0.04547509
   0.83252460  0.59177147  0.54629637
   0.83252460  0.95452491  0.40822853
   0.85945638  0.52830216  0.10930315
   0.85945638  0.58100100  0.47169784
   0.85945638  0.89069685  0.41899900
   0.80396638  0.60054205  0.25565648
   0.80396638  0.65511443  0.39945795
   0.80396638  0.74434352  0.34488557
   0.80398214  0.58772000  0.32157903
   0.80398214  0.73385904  0.41228000
   0.80398214  0.67842097  0.26614096
   0.51434857  0.38230615  0.94557915
   0.51434857  0.56327300  0.61769385
   0.51434857  0.05442085  0.43672700
   0.48925385  0.39617761  0.88346329
   0.48925385  0.48728468  0.60382239
   0.48925385  0.11653671  0.51271532
   0.62843792  0.30298487  0.84506300
   0.62843792  0.54207813  0.69701513
   0.62843792  0.15493700  0.45792187
   0.56473433  0.33895267  0.74223959
   0.56473433  0.40328692  0.66104733
   0.56473433  0.25776041  0.59671308
   0.56470085  0.26259431  0.67243424
   0.56470085  0.40983992  0.73740569
   0.56470085  0.32756576  0.59016008
   0.75344756  0.73730016  0.98909011
   0.75344756  0.25178995  0.26269984
   0.75344756  0.01090989  0.74821005
   0.72136102  0.84183731  0.97316486
   0.72136102  0.13132756  0.15816269
   0.72136102  0.02683514  0.86867244
   0.88294986  0.56552596  0.94606325
   0.88294986  0.38053729  0.43447404
   0.88294986  0.05393675  0.61946271
   0.91841045  0.45524038  0.82995280
   0.91841045  0.37471242  0.54475962
   0.91841045  0.17004720  0.62528758
   0.76022660  0.41405565  0.07232847
   0.76022660  0.65827181  0.58594435
   0.76022660  0.92767153  0.34172819
   0.80317982  0.53309215  0.17597474
   0.80317982  0.64288359  0.46690785
   0.80317982  0.82402526  0.35711641
   0.60166530  0.32484079  0.92088984
   0.60166530  0.59604905  0.67515921
   0.60166530  0.07911016  0.40395095
   0.56136454  0.34515743  0.81950887
   0.56136354  0.47435244  0.65484357
   0.56136354  0.18049113  0.52564756
   0.67873558  0.65186648  0.09014273
   0.67873558  0.43827525  0.34813352
   0.67873558  0.90985727  0.56172475
   0.59897545  0.58491996  0.96486588
   0.59897545  0.37994592  0.41508004
   0.59897545  0.03513412  0.62005408
   0.94486925  0.41751826  0.30957028
   0.94486925  0.89205203  0.58248274
   0.94486925  0.69042972  0.10794797
   0.89066188  0.33764308  0.17992346
   0.89066188  0.84228038  0.66235692
   0.89066188  0.82007654  0.15771962
   0.50926299  0.36639977  0.10293610
   0.50926299  0.73653533  0.63360023
   0.50926299  0.89706390  0.26346467
   0.58941208  0.24255308  0.03558242
   0.58941208  0.79302934  0.75744692
   0.58941208  0.96441758  0.20697066
   0.82574668  0.03776158  0.26845554
   0.82574668  0.23069396  0.96223842
   0.82574668  0.73154446  0.76930604
   0.87140781  0.13840963  0.39471722
   0.87140781  0.25630759  0.86159037
   0.87140781  0.60528278  0.74369241
unknown system                          
           1
     0.000000   -0.000000  -11.520031
    -9.534251  -16.513807    0.000000
    -9.534251   16.513807   -0.000000
   Zn   H    C    N    O 
   6  96 144  24  24
Direct configuration=    11
   0.81001292  0.67040851  0.03510702
   0.81001292  0.36469851  0.32959149
   0.81001292  0.96489298  0.63530149
   0.69175064  0.30402652  0.00161107
   0.69175064  0.69758555  0.69597348
   0.69175064  0.99838893  0.30241445
   0.09770991  0.51694589  0.33085701
   0.09770991  0.81391112  0.48305411
   0.09770991  0.66914299  0.18608888
   0.01280561  0.35312788  0.08177011
   0.01280561  0.72864223  0.64687212
   0.01280661  0.91822989  0.27135777
   0.16611664  0.41626196  0.03854955
   0.16611664  0.62228659  0.58373804
   0.16611664  0.96145045  0.37771341
   0.24985967  0.58045097  0.28929910
   0.24985967  0.70884813  0.41954903
   0.24985967  0.71070090  0.29115187
   0.42899047  0.55729041  0.23005454
   0.42899047  0.67276414  0.44270959
   0.42899047  0.76994546  0.32723586
   0.21176736  0.53111161  0.03442189
   0.21176736  0.50330928  0.46888839
   0.21176736  0.96557811  0.49669072
   0.37617819  0.57823267  0.98238186
   0.37617819  0.40414919  0.42176733
   0.37617819  0.01761814  0.59585181
   0.58871935  0.60895220  0.18017461
   0.58871935  0.57122241  0.39104780
   0.58871935  0.81982539  0.42877759
   0.83662898  0.85049994  0.06768054
   0.83662898  0.21718059  0.14950006
   0.83662898  0.93231946  0.78281941
   0.63803267  0.65420632  0.89574926
   0.63803267  0.24154294  0.34579368
   0.63803267  0.10425074  0.75845706
   0.60225073  0.78613830  0.87207710
   0.60225073  0.08593880  0.21386170
   0.60225073  0.12792290  0.91406120
   0.72188469  0.97626734  0.11751180
   0.72188469  0.14124447  0.02373266
   0.72188469  0.88248820  0.85875553
   0.75041943  0.51442957  0.85552949
   0.75041943  0.34109992  0.48557043
   0.75041943  0.14447051  0.65890008
   0.04956828  0.57633024  0.00063632
   0.04956828  0.42430608  0.42366976
   0.04956828  0.99936368  0.57569392
   0.09520671  0.43471761  0.85278315
   0.09520671  0.41806553  0.56528239
   0.09520671  0.14721685  0.58193447
   0.91044875  0.29541062  0.77508278
   0.91044875  0.47967216  0.70458938
   0.91044875  0.22491722  0.52032784
   0.01317797  0.23532046  0.38952643
   0.01317797  0.15420697  0.76467954
   0.01317797  0.61047357  0.84579303
   0.97100863  0.01378668  0.16480797
   0.97100863  0.15102028  0.98621332
   0.97100863  0.83519303  0.84897972
   0.12410959  0.05653157  0.10176285
   0.12410959  0.04523127  0.94346843
   0.12410959  0.89823715  0.95476873
   0.16407345  0.28057661  0.32718416
   0.16407345  0.04660755  0.71942339
   0.16407345  0.67281584  0.95339245
   0.18438506  0.32481828  0.23932610
   0.18438506  0.91450882  0.67518172
   0.18438506  0.76067390  0.08549118
   0.32476793  0.08339486  0.10083170
   0.32476793  0.01743683  0.91660514
   0.32476793  0.89916830  0.98256317
   0.47816377  0.13580173  0.04678418
   0.47816377  0.91098245  0.86419827
   0.47816377  0.95321582  0.08901755
   0.33916905  0.37591657  0.18564895
   0.33916905  0.80973338  0.62408343
   0.33916905  0.81435105  0.19026662
   0.68849455  0.45021764  0.18959790
   0.68849455  0.73938127  0.54978236
   0.68849455  0.81040210  0.26061873
   0.86055650  0.42481033  0.98290313
   0.86055650  0.55809280  0.57518967
   0.86055650  0.01709687  0.44190720
   0.91194319  0.57787227  0.11453695
   0.91194319  0.53666368  0.42212773
   0.91194319  0.88546405  0.46333632
   0.80301688  0.52686713  0.31311820
   0.80301688  0.78625107  0.47313287
   0.80301688  0.68688180  0.21374893
   0.47817652  0.40889997  0.00604732
   0.47817652  0.59714834  0.59110003
   0.47817652  0.99395268  0.40285266
   0.42929612  0.43719724  0.87872465
   0.42929612  0.44152640  0.56280276
   0.42929612  0.12127535  0.55847360
   0.69946728  0.26290223  0.81116555
   0.69946728  0.54826232  0.73709777
   0.69946728  0.18883445  0.45173768
   0.56181949  0.20744976  0.67636794
   0.56181949  0.46891818  0.79255024
   0.56181949  0.32363206  0.53108182
   0.95422986  0.39154379  0.23205734
   0.95422986  0.84051356  0.60845621
   0.95422986  0.76794266  0.15948644
   0.04562834  0.43133281  0.20848890
   0.04562834  0.77715709  0.56866719
   0.04562834  0.79151110  0.22284291
   0.11272520  0.49535293  0.26685616
   0.11272520  0.77150323  0.50464707
   0.11272520  0.73314384  0.22849677
   0.06494353  0.40358746  0.12619663
   0.06494353  0.72260917  0.59641254
   0.06494353  0.87380337  0.27739083
   0.14960087  0.43959577  0.10278548
   0.14960087  0.66318970  0.56040423
   0.14960087  0.89721452  0.33681030
   0.19794972  0.53093576  0.24328948
   0.19794972  0.71235372  0.46906424
   0.19794972  0.75671052  0.28764628
   0.21752995  0.50379874  0.16080779
   0.21752995  0.65700905  0.49620126
   0.21752995  0.83919221  0.34299095
   0.30960842  0.53948080  0.13495913
   0.30960842  0.59547833  0.46051920
   0.30960842  0.86504087  0.40452167
   0.41550834  0.56399415  0.17707865
   0.41550834  0.61308450  0.43600585
   0.41550834  0.82292135  0.38691550
   0.29521367  0.54702084  0.06570269
   0.29521367  0.51868286  0.45297916
   0.29521367  0.93429731  0.48131714
   0.38600010  0.57344023  0.03673556
   0.38600010  0.46329533  0.42655977
   0.38600010  0.96326444  0.53670467
   0.50563402  0.59164079  0.14872098
   0.50563402  0.55708019  0.40835921
   0.50563402  0.85127902  0.44291981
   0.49317572  0.59388619  0.07677750
   0.49317572  0.48289131  0.40611381
   0.49317572  0.92322250  0.51710869
   0.59582886  0.61138812  0.03990873
   0.59582886  0.42852062  0.38861188
   0.59582886  0.96009127  0.57147938
   0.77913951  0.81469907  0.01711350
   0.77913951  0.20241343  0.18529993
   0.77913951  0.98288650  0.79758657
   0.67599120  0.71406805  0.92559065
   0.67599120  0.21152360  0.28593195
   0.67599120  0.07440935  0.78847640
   0.65559452  0.77858512  0.91469582
   0.65559452  0.13611070  0.22141488
   0.65559452  0.08530418  0.86388930
   0.72535148  0.92186136  0.98671203
   0.72535148  0.06484967  0.07813864
   0.72535148  0.01328797  0.93515033
   0.72546805  0.98647671  0.06617156
   0.72546805  0.07969585  0.01352329
   0.72546805  0.93382844  0.92030415
   0.83852444  0.51318866  0.87458900
   0.83852444  0.36140134  0.48681134
   0.83852444  0.12541100  0.63859866
   0.99528382  0.54139785  0.94801988
   0.99528382  0.40662202  0.45860215
   0.99528382  0.05198012  0.59337798
   0.01872808  0.47241516  0.87614276
   0.01872908  0.40372760  0.52758484
   0.01872808  0.12385724  0.59627240
   0.90866628  0.39309419  0.74718871
   0.90866628  0.35409453  0.60690581
   0.90866628  0.25281129  0.64590547
   0.90837753  0.31219462  0.72782537
   0.90837753  0.41563075  0.68780538
   0.90837753  0.27217463  0.58436925
   0.88734711  0.09888125  0.31921073
   0.88734711  0.22032948  0.90111875
   0.88734711  0.68078927  0.77967052
   0.98226767  0.12238466  0.28111280
   0.98226767  0.15872815  0.87761534
   0.98226767  0.71888720  0.84127185
   0.03791640  0.19709963  0.32638723
   0.03791640  0.12928759  0.80290037
   0.03791640  0.67361277  0.87071241
   0.01440926  0.07200982  0.19992190
   0.01440926  0.12791208  0.92799018
   0.01440926  0.80007810  0.87208792
   0.10019794  0.09622408  0.16504690
   0.10019794  0.06882283  0.90377592
   0.10019794  0.83495310  0.93117717
   0.12160660  0.22206878  0.29119808
   0.12160660  0.06912930  0.77793122
   0.12160660  0.70880192  0.93087070
   0.15450480  0.17213896  0.20980673
   0.15450480  0.03766778  0.82786104
   0.15450480  0.79019327  0.96233222
   0.24392623  0.20050484  0.17438782
   0.24392623  0.97388298  0.79949516
   0.24392623  0.82561218  0.02611702
   0.24955212  0.28314446  0.19803584
   0.24955212  0.91489137  0.71685554
   0.24955212  0.80196416  0.08510863
   0.32651200  0.14747052  0.11867326
   0.32651200  0.97120374  0.85252948
   0.32651200  0.88132674  0.02879626
   0.41295484  0.17664985  0.08883655
   0.41295484  0.91218670  0.82335015
   0.41295484  0.91116345  0.08781330
   0.33522369  0.31206994  0.16785730
   0.33522369  0.85578736  0.68793006
   0.33522369  0.83214270  0.14421264
   0.41837451  0.25929375  0.11335398
   0.41837551  0.85406022  0.74070625
   0.41837551  0.88664602  0.14593978
   0.51014665  0.29307411  0.08311395
   0.51014665  0.79004084  0.70692589
   0.51014665  0.91688605  0.20995916
   0.74361913  0.46262654  0.15096138
   0.74361913  0.68833484  0.53737346
   0.74361913  0.84903862  0.31166516
   0.83253550  0.45369926  0.04547691
   0.83253550  0.59177765  0.54630074
   0.83253550  0.95452309  0.40822235
   0.85946130  0.52830908  0.10931046
   0.85946130  0.58100138  0.47169092
   0.85946130  0.89068954  0.41899862
   0.80395150  0.60054304  0.25565687
   0.80395150  0.65511382  0.39945696
   0.80395150  0.74434313  0.34488618
   0.80397084  0.58772116  0.32158285
   0.80397084  0.73386168  0.41227884
   0.80397084  0.67841715  0.26613832
   0.51434832  0.38229289  0.94557712
   0.51434832  0.56328423  0.61770711
   0.51434832  0.05442288  0.43671577
   0.48923749  0.39617149  0.88345763
   0.48923749  0.48728513  0.60382851
   0.48923749  0.11654237  0.51271487
   0.62843315  0.30298594  0.84506080
   0.62843315  0.54207486  0.69701406
   0.62843315  0.15493920  0.45792514
   0.56471304  0.33895971  0.74224725
   0.56471304  0.40328754  0.66104029
   0.56471304  0.25775275  0.59671246
   0.56467515  0.26258733  0.67241620
   0.56467515  0.40982886  0.73741267
   0.56467515  0.32758380  0.59017114
   0.75344813  0.73730479  0.98910235
   0.75344813  0.25179755  0.26269521
   0.75344813  0.01089765  0.74820245
   0.72134737  0.84183438  0.97316095
   0.72134737  0.13132657  0.15816562
   0.72134737  0.02683905  0.86867343
   0.88295195  0.56552966  0.94606387
   0.88295195  0.38053421  0.43447034
   0.88295195  0.05393613  0.61946579
   0.91841948  0.45523465  0.82996046
   0.91841948  0.37472581  0.54476535
   0.91841948  0.17003954  0.62527419
   0.76021259  0.41404311  0.07233673
   0.76021259  0.65829262  0.58595689
   0.76021259  0.92766327  0.34170738
   0.80317012  0.53309286  0.17597820
   0.80317012  0.64288634  0.46690714
   0.80317012  0.82402180  0.35711366
   0.60167701  0.32482542  0.92088728
   0.60167701  0.59606186  0.67517458
   0.60167701  0.07911272  0.40393814
   0.56135023  0.34515542  0.81950993
   0.56134923  0.47435551  0.65484558
   0.56134923  0.18049007  0.52564449
   0.67871188  0.65187520  0.09014117
   0.67871188  0.43826496  0.34812480
   0.67871188  0.90985883  0.56173504
   0.59897069  0.58488829  0.96486034
   0.59897069  0.37997205  0.41511171
   0.59897069  0.03513966  0.62002795
   0.94485556  0.41751773  0.30955077
   0.94485556  0.89203304  0.58248327
   0.94485556  0.69044923  0.10796696
   0.89069294  0.33760861  0.17988953
   0.89069294  0.84228093  0.66239139
   0.89069294  0.82011047  0.15771907
   0.50928174  0.36640572  0.10295161
   0.50928174  0.73654489  0.63359428
   0.50928174  0.89704839  0.26345511
   0.58943562  0.24255435  0.03560466
   0.58943562  0.79305032  0.75744565
   0.58943562  0.96439534  0.20694968
   0.82574644  0.03780004  0.26846801
   0.82574644  0.23066797  0.96219996
   0.82574644  0.73153199  0.76933203
   0.87142153  0.13841940  0.39473769
   0.87142153  0.25631830  0.86158060
   0.87142153  0.60526231  0.74368170
unknown system                          
           1
     0.000000   -0.000000  -11.519719
    -9.534356  -16.513989    0.000000
    -9.534356   16.513989   -0.000000
   Zn   H    C    N    O 
   6  96 144  24  24
Direct configuration=    12
   0.80998696  0.67041350  0.03509921
   0.80998696  0.36468570  0.32958650
   0.80998696  0.96490079  0.63531430
   0.69177108  0.30404075  0.00160921
   0.69177108  0.69756946  0.69595925
   0.69177108  0.99839079  0.30243054
   0.09770783  0.51690776  0.33081894
   0.09770783  0.81391118  0.48309224
   0.09770783  0.66918106  0.18608882
   0.01278465  0.35312482  0.08173838
   0.01278465  0.72861356  0.64687518
   0.01278565  0.91826162  0.27138644
   0.16615196  0.41622761  0.03852198
   0.16615196  0.62229338  0.58377239
   0.16615196  0.96147802  0.37770662
   0.24976244  0.58047140  0.28924444
   0.24976244  0.70877304  0.41952860
   0.24976244  0.71075556  0.29122696
   0.42898472  0.55722327  0.23001418
   0.42898472  0.67279091  0.44277673
   0.42898472  0.76998582  0.32720909
   0.21170139  0.53112977  0.03443457
   0.21170139  0.50330379  0.46887023
   0.21170139  0.96556543  0.49669621
   0.37616815  0.57816084  0.98234182
   0.37616815  0.40418098  0.42183916
   0.37616815  0.01765818  0.59582002
   0.58866967  0.60894962  0.18016134
   0.58866967  0.57121171  0.39105038
   0.58866967  0.81983866  0.42878829
   0.83663012  0.85049826  0.06763321
   0.83663012  0.21713495  0.14950174
   0.83663012  0.93236679  0.78286505
   0.63797874  0.65419311  0.89575833
   0.63797874  0.24156522  0.34580689
   0.63797874  0.10424167  0.75843478
   0.60217874  0.78611919  0.87206042
   0.60217874  0.08594123  0.21388081
   0.60217874  0.12793958  0.91405877
   0.72183490  0.97624207  0.11749192
   0.72183490  0.14124984  0.02375793
   0.72183490  0.88250808  0.85875016
   0.75049073  0.51447358  0.85547558
   0.75049073  0.34100200  0.48552642
   0.75049073  0.14452442  0.65899800
   0.04950678  0.57625530  0.00070798
   0.04950678  0.42445268  0.42374470
   0.04950678  0.99929202  0.57554732
   0.09518486  0.43462470  0.85286536
   0.09518486  0.41824066  0.56537530
   0.09518486  0.14713464  0.58175934
   0.91050753  0.29536315  0.77505393
   0.91050753  0.47969078  0.70463685
   0.91050753  0.22494607  0.52030922
   0.01322960  0.23536309  0.38960901
   0.01322960  0.15424692  0.76463691
   0.01322960  0.61039099  0.84575308
   0.97106427  0.01380996  0.16487596
   0.97106427  0.15106501  0.98619004
   0.97106427  0.83512504  0.84893499
   0.12412647  0.05659345  0.10181279
   0.12412647  0.04521933  0.94340655
   0.12412647  0.89818721  0.95478067
   0.16422265  0.28058041  0.32728896
   0.16422265  0.04670854  0.71941959
   0.16422265  0.67271104  0.95329146
   0.18448428  0.32485301  0.23940596
   0.18448428  0.91455395  0.67514699
   0.18448428  0.76059404  0.08544605
   0.32478109  0.08341865  0.10085347
   0.32478109  0.01743482  0.91658135
   0.32478109  0.89914653  0.98256518
   0.47821144  0.13582534  0.04684381
   0.47821144  0.91101847  0.86417466
   0.47821144  0.95315619  0.08898153
   0.33918455  0.37591853  0.18563298
   0.33918455  0.80971546  0.62408147
   0.33918455  0.81436702  0.19028454
   0.68851352  0.45020492  0.18959146
   0.68851352  0.73938754  0.54979508
   0.68851352  0.81040854  0.26061246
   0.86058912  0.42479486  0.98290239
   0.86058912  0.55810754  0.57520514
   0.86058912  0.01709761  0.44189246
   0.91195122  0.57787826  0.11454655
   0.91195122  0.53666729  0.42212174
   0.91195122  0.88545445  0.46333271
   0.80302228  0.52686295  0.31310263
   0.80302228  0.78623968  0.47313705
   0.80302228  0.68689737  0.21376032
   0.47815873  0.40887922  0.00605155
   0.47815873  0.59717333  0.59112078
   0.47815873  0.99394845  0.40282767
   0.42924541  0.43719181  0.87872852
   0.42924541  0.44153571  0.56280819
   0.42924541  0.12127148  0.55846429
   0.69947388  0.26291704  0.81115739
   0.69947388  0.54823936  0.73708296
   0.69947388  0.18884261  0.45176064
   0.56177353  0.20744612  0.67636461
   0.56177353  0.46891849  0.79255388
   0.56177353  0.32363539  0.53108151
   0.95420856  0.39148336  0.23201363
   0.95420856  0.84053027  0.60851664
   0.95420856  0.76798637  0.15946973
   0.04561765  0.43129978  0.20845696
   0.04561765  0.77715818  0.56870022
   0.04561765  0.79154304  0.22284182
   0.11272181  0.49534281  0.26681736
   0.11272181  0.77147455  0.50465719
   0.11272181  0.73318264  0.22852545
   0.06495604  0.40355538  0.12613082
   0.06495604  0.72257544  0.59644462
   0.06495604  0.87386918  0.27742456
   0.14957337  0.43954311  0.10273412
   0.14957337  0.66319101  0.56045689
   0.14957337  0.89726588  0.33680899
   0.19793440  0.53095339  0.24326291
   0.19793440  0.71230952  0.46904661
   0.19793440  0.75673709  0.28769048
   0.21749401  0.50378907  0.16081649
   0.21749401  0.65702742  0.49621093
   0.21749401  0.83918351  0.34297258
   0.30959827  0.53947560  0.13495234
   0.30959827  0.59547673  0.46052440
   0.30959827  0.86504766  0.40452327
   0.41548232  0.56397685  0.17704366
   0.41548232  0.61306681  0.43602315
   0.41548232  0.82295634  0.38693319
   0.29518500  0.54704253  0.06567254
   0.29518500  0.51863101  0.45295747
   0.29518500  0.93432746  0.48136899
   0.38595506  0.57341612  0.03673563
   0.38595506  0.46331951  0.42658388
   0.38595506  0.96326437  0.53668049
   0.50559034  0.59162565  0.14870760
   0.50559034  0.55708194  0.40837435
   0.50559034  0.85129240  0.44291806
   0.49316154  0.59388493  0.07676386
   0.49316154  0.48287893  0.40611507
   0.49316154  0.92323614  0.51712107
   0.59579635  0.61136731  0.03987566
   0.59579635  0.42850835  0.38863269
   0.59579635  0.96012434  0.57149165
   0.77910671  0.81468642  0.01708591
   0.77910671  0.20239849  0.18531258
   0.77910671  0.98291409  0.79760151
   0.67595173  0.71406718  0.92560793
   0.67595173  0.21154175  0.28593282
   0.67595173  0.07439207  0.78845825
   0.65552367  0.77858223  0.91469180
   0.65552367  0.13610956  0.22141777
   0.65552367  0.08530820  0.86389044
   0.72527586  0.92185576  0.98669252
   0.72527586  0.06483577  0.07814424
   0.72527586  0.01330748  0.93516423
   0.72540037  0.98647584  0.06616885
   0.72540037  0.07969401  0.01352416
   0.72540037  0.93383115  0.92030599
   0.83854857  0.51320128  0.87456818
   0.83854857  0.36136790  0.48679872
   0.83854857  0.12543182  0.63863210
   0.99524008  0.54135177  0.94806302
   0.99524008  0.40671126  0.45864823
   0.99524008  0.05193698  0.59328874
   0.01869427  0.47235973  0.87619766
   0.01869527  0.40383794  0.52764027
   0.01869427  0.12380234  0.59616206
   0.90871917  0.39308343  0.74720010
   0.90871917  0.35411667  0.60691657
   0.90871917  0.25279990  0.64588333
   0.90846737  0.31219671  0.72782818
   0.90846737  0.41563146  0.68780329
   0.90846737  0.27217182  0.58436854
   0.88735083  0.09892777  0.31925568
   0.88735083  0.22032791  0.90107223
   0.88735083  0.68074432  0.77967209
   0.98224450  0.12241456  0.28118547
   0.98224450  0.15877091  0.87758544
   0.98224450  0.71881453  0.84122909
   0.03796355  0.19712294  0.32643546
   0.03796355  0.12931252  0.80287706
   0.03796355  0.67356454  0.87068748
   0.01447554  0.07206339  0.19997694
   0.01447554  0.12791355  0.92793661
   0.01447554  0.80002306  0.87208645
   0.10022636  0.09626934  0.16510225
   0.10022636  0.06883290  0.90373066
   0.10022636  0.83489775  0.93116710
   0.12173504  0.22210179  0.29127851
   0.12173504  0.06917672  0.77789821
   0.12173504  0.70872149  0.93082328
   0.15453679  0.17218621  0.20989761
   0.15453679  0.03771140  0.82781379
   0.15453679  0.79010239  0.96228860
   0.24398651  0.20055727  0.17445415
   0.24398651  0.97389689  0.79944273
   0.24398651  0.82554585  0.02610311
   0.24962049  0.28319056  0.19807674
   0.24962049  0.91488618  0.71680944
   0.24962049  0.80192326  0.08511382
   0.32656267  0.14747494  0.11868306
   0.32656267  0.97120912  0.85252506
   0.32656267  0.88131694  0.02879088
   0.41296806  0.17664285  0.08886550
   0.41296806  0.91222265  0.82335715
   0.41296806  0.91113450  0.08777735
   0.33522601  0.31207145  0.16787380
   0.33522601  0.85580235  0.68792855
   0.33522601  0.83212620  0.14419765
   0.41841779  0.25930422  0.11336342
   0.41841879  0.85405919  0.74069578
   0.41841879  0.88663658  0.14594081
   0.51020657  0.29309995  0.08313675
   0.51020657  0.79003779  0.70690005
   0.51020657  0.91686325  0.20996221
   0.74363435  0.46260870  0.15094862
   0.74363435  0.68833991  0.53739130
   0.74363435  0.84905138  0.31166009
   0.83256234  0.45368852  0.04548139
   0.83256234  0.59179287  0.54631148
   0.83256234  0.95451861  0.40820713
   0.85947339  0.52832611  0.10932844
   0.85947339  0.58100233  0.47167389
   0.85947339  0.89067156  0.41899767
   0.80391487  0.60054549  0.25565782
   0.80391487  0.65511233  0.39945451
   0.80391487  0.74434218  0.34488767
   0.80394303  0.58772403  0.32159223
   0.80394303  0.73386820  0.41227597
   0.80394303  0.67840777  0.26613180
   0.51434769  0.38226027  0.94557214
   0.51434769  0.56331187  0.61773973
   0.51434769  0.05442786  0.43668813
   0.48919723  0.39615642  0.88344368
   0.48919723  0.48728625  0.60384358
   0.48919723  0.11655632  0.51271375
   0.62842140  0.30298857  0.84505540
   0.62842140  0.54206683  0.69701143
   0.62842140  0.15494460  0.45793317
   0.56466063  0.33897704  0.74226610
   0.56466063  0.40328906  0.66102296
   0.56466063  0.25773390  0.59671094
   0.56461188  0.26257015  0.67237179
   0.56461188  0.40980164  0.73742985
   0.56461188  0.32762821  0.59019836
   0.75344955  0.73731619  0.98913246
   0.75344955  0.25181627  0.26268381
   0.75344955  0.01086754  0.74818373
   0.72131378  0.84182716  0.97315132
   0.72131378  0.13132416  0.15817284
   0.72131378  0.02684868  0.86867584
   0.88295711  0.56553879  0.94606540
   0.88295711  0.38052661  0.43446121
   0.88295711  0.05393460  0.61947339
   0.91844170  0.45522055  0.82997933
   0.91844170  0.37475878  0.54477945
   0.91844170  0.17002067  0.62524122
   0.76017811  0.41401224  0.07235706
   0.76017811  0.65834382  0.58598776
   0.76017811  0.92764294  0.34165618
   0.80314624  0.53309462  0.17598673
   0.80314624  0.64289311  0.46690538
   0.80314624  0.82401327  0.35710689
   0.60170583  0.32478758  0.92088096
   0.60170583  0.59609339  0.67521242
   0.60170583  0.07911904  0.40390661
   0.56131500  0.34515048  0.81951253
   0.56131400  0.47436306  0.65485052
   0.56131400  0.18048747  0.52563694
   0.67865352  0.65189666  0.09013732
   0.67865352  0.43823965  0.34810334
   0.67865352  0.90986268  0.56176035
   0.59895899  0.58481034  0.96484669
   0.59895899  0.38003635  0.41518966
   0.59895899  0.03515331  0.61996365
   0.94482185  0.41751641  0.30950272
   0.94482185  0.89198631  0.58248459
   0.94482185  0.69049728  0.10801369
   0.89076940  0.33752375  0.17980603
   0.89076940  0.84228228  0.66247625
   0.89076940  0.82019397  0.15771772
   0.50932787  0.36642036  0.10298978
   0.50932787  0.73656842  0.63357964
   0.50932787  0.89701022  0.26343158
   0.58949356  0.24255747  0.03565941
   0.58949356  0.79310194  0.75744253
   0.58949356  0.96434059  0.20689806
   0.82574585  0.03789470  0.26849871
   0.82574585  0.23060401  0.96210530
   0.82574585  0.73150129  0.76939599
   0.87145531  0.13844345  0.39478809
   0.87145531  0.25634464  0.86155655
   0.87145531  0.60521191  0.74365536
unknown system                          
           1
     0.000000   -0.000000  -11.519525
    -9.534404  -16.514071    0.000000
    -9.534404   16.514071   -0.000000
   Zn   H    C    N    O 
   6  96 144  24  24
Direct configuration=    13
   0.80997585  0.67041390  0.03509883
   0.80997585  0.36468493  0.32958610
   0.80997585  0.96490117  0.63531507
   0.69177568  0.30403929  0.00160716
   0.69177568  0.69756887  0.69596071
   0.69177568  0.99839284  0.30243113
   0.09770566  0.51689593  0.33080711
   0.09770566  0.81391119  0.48310407
   0.09770566  0.66919289  0.18608881
   0.01278100  0.35312338  0.08172738
   0.01278100  0.72860400  0.64687662
   0.01278200  0.91827262  0.27139600
   0.16616456  0.41621649  0.03851164
   0.16616456  0.62229415  0.58378351
   0.16616456  0.96148836  0.37770585
   0.24972967  0.58047630  0.28922764
   0.24972967  0.70875135  0.41952370
   0.24972967  0.71077236  0.29124865
   0.42898022  0.55720184  0.22999857
   0.42898022  0.67279673  0.44279816
   0.42898022  0.77000143  0.32720327
   0.21168844  0.53113697  0.03444067
   0.21168844  0.50330270  0.46886303
   0.21168844  0.96555933  0.49669730
   0.37616421  0.57813998  0.98233020
   0.37616421  0.40419022  0.42186002
   0.37616421  0.01766980  0.59581078
   0.58864754  0.60894712  0.18015528
   0.58864754  0.57120816  0.39105288
   0.58864754  0.81984472  0.42879184
   0.83662684  0.85049603  0.06761609
   0.83662684  0.21712006  0.14950397
   0.83662684  0.93238391  0.78287994
   0.63796051  0.65418758  0.89576116
   0.63796051  0.24157358  0.34581242
   0.63796051  0.10423884  0.75842642
   0.60215232  0.78611385  0.87205275
   0.60215232  0.08593890  0.21388615
   0.60215232  0.12794725  0.91406110
   0.72181827  0.97623513  0.11748443
   0.72181827  0.14124931  0.02376487
   0.72181827  0.88251557  0.85875069
   0.75050838  0.51448645  0.85545560
   0.75050838  0.34096915  0.48551355
   0.75050838  0.14454440  0.65903085
   0.04948815  0.57623340  0.00073237
   0.04948815  0.42449896  0.42376660
   0.04948815  0.99926763  0.57550104
   0.09517882  0.43459429  0.85289096
   0.09517882  0.41829667  0.56540571
   0.09517882  0.14710904  0.58170333
   0.91052643  0.29534877  0.77504495
   0.91052643  0.47969619  0.70465123
   0.91052643  0.22495505  0.52030381
   0.01324869  0.23537786  0.38963576
   0.01324869  0.15425890  0.76462214
   0.01324869  0.61036424  0.84574110
   0.97108259  0.01381974  0.16489687
   0.97108259  0.15107613  0.98618026
   0.97108259  0.83510413  0.84892387
   0.12413170  0.05661264  0.10182882
   0.12413170  0.04521618  0.94338736
   0.12413170  0.89817118  0.95478382
   0.16427074  0.28058215  0.32732076
   0.16427074  0.04673861  0.71941785
   0.16427074  0.67267924  0.95326139
   0.18452033  0.32486033  0.23942762
   0.18452033  0.91456829  0.67513967
   0.18452033  0.76057238  0.08543171
   0.32478499  0.08342661  0.10086170
   0.32478499  0.01743510  0.91657339
   0.32478499  0.89913830  0.98256490
   0.47822476  0.13583166  0.04686199
   0.47822476  0.91103032  0.86416834
   0.47822476  0.95313801  0.08896968
   0.33918795  0.37592141  0.18562988
   0.33918795  0.80970948  0.62407859
   0.33918795  0.81437012  0.19029052
   0.68852222  0.45020220  0.18958737
   0.68852222  0.73938617  0.54979780
   0.68852222  0.81041263  0.26061383
   0.86060015  0.42478902  0.98290039
   0.86060015  0.55811137  0.57521098
   0.86060015  0.01709961  0.44188863
   0.91195858  0.57788484  0.11455028
   0.91195858  0.53666444  0.42211516
   0.91195858  0.88545072  0.46333556
   0.80302325  0.52686361  0.31309917
   0.80302325  0.78623556  0.47313639
   0.80302325  0.68690083  0.21376444
   0.47815172  0.40887332  0.00605466
   0.47815172  0.59718234  0.59112668
   0.47815172  0.99394534  0.40281866
   0.42922602  0.43719177  0.87872911
   0.42922602  0.44153635  0.56280823
   0.42922602  0.12127089  0.55846365
   0.69947462  0.26292198  0.81115468
   0.69947462  0.54823170  0.73707802
   0.69947462  0.18884532  0.45176830
   0.56175902  0.20744757  0.67636285
   0.56175902  0.46891528  0.79255243
   0.56175902  0.32363715  0.53108472
   0.95420811  0.39146717  0.23199893
   0.95420811  0.84053176  0.60853283
   0.95420811  0.76800107  0.15946824
   0.04562071  0.43129165  0.20844460
   0.04562071  0.77715395  0.56870835
   0.04562071  0.79155540  0.22284605
   0.11271661  0.49533913  0.26680701
   0.11271661  0.77146788  0.50466087
   0.11271661  0.73319299  0.22853212
   0.06495361  0.40354625  0.12611835
   0.06495361  0.72257210  0.59645375
   0.06495361  0.87388165  0.27742790
   0.14957299  0.43953536  0.10272379
   0.14957299  0.66318843  0.56046464
   0.14957299  0.89727621  0.33681157
   0.19792168  0.53095191  0.24325246
   0.19792168  0.71230055  0.46904809
   0.19792168  0.75674754  0.28769945
   0.21748391  0.50378142  0.16080903
   0.21748391  0.65702761  0.49621858
   0.21748391  0.83919097  0.34297239
   0.30958669  0.53947197  0.13494556
   0.30958669  0.59547359  0.46052803
   0.30958669  0.86505444  0.40452641
   0.41547154  0.56397126  0.17703985
   0.41547154  0.61306859  0.43602874
   0.41547154  0.82296015  0.38693141
   0.29517530  0.54704586  0.06567284
   0.29517530  0.51862798  0.45295414
   0.29517530  0.93432716  0.48137202
   0.38595458  0.57341213  0.03672662
   0.38595458  0.46331449  0.42658787
   0.38595458  0.96327338  0.53668551
   0.50558046  0.59162255  0.14869824
   0.50558046  0.55707569  0.40837745
   0.50558046  0.85130176  0.44292431
   0.49315600  0.59388312  0.07675967
   0.49315600  0.48287654  0.40611688
   0.49315600  0.92324033  0.51712346
   0.59578708  0.61136293  0.03987337
   0.59578708  0.42851044  0.38863707
   0.59578708  0.96012663  0.57148956
   0.77910330  0.81468655  0.01708223
   0.77910330  0.20239468  0.18531245
   0.77910330  0.98291777  0.79760532
   0.67594076  0.71406662  0.92561356
   0.67594076  0.21154794  0.28593338
   0.67594076  0.07438644  0.78845206
   0.65550425  0.77858088  0.91469281
   0.65550425  0.13611192  0.22141912
   0.65550425  0.08530719  0.86388808
   0.72525227  0.92185548  0.98668940
   0.72525227  0.06483292  0.07814452
   0.72525227  0.01331060  0.93516708
   0.72537994  0.98647129  0.06616438
   0.72537994  0.07969410  0.01352871
   0.72537994  0.93383562  0.92030590
   0.83855819  0.51320688  0.87456524
   0.83855819  0.36135936  0.48679312
   0.83855819  0.12543476  0.63864064
   0.99522907  0.54133780  0.94807810
   0.99522907  0.40674029  0.45866220
   0.99522907  0.05192190  0.59325971
   0.01868785  0.47234073  0.87621556
   0.01868885  0.40387483  0.52765927
   0.01868785  0.12378444  0.59612517
   0.90873697  0.39308294  0.74720247
   0.90873697  0.35411953  0.60691706
   0.90873697  0.25279753  0.64588047
   0.90849354  0.31219352  0.72782691
   0.90849354  0.41563339  0.68780648
   0.90849354  0.27217309  0.58436661
   0.88735449  0.09894413  0.31927183
   0.88735449  0.22032770  0.90105587
   0.88735449  0.68072817  0.77967230
   0.98224794  0.12242619  0.28120349
   0.98224794  0.15877729  0.87757381
   0.98224794  0.71879651  0.84122271
   0.03797204  0.19713339  0.32645829
   0.03797204  0.12932490  0.80286661
   0.03797204  0.67354171  0.87067510
   0.01448685  0.07207327  0.19999535
   0.01448685  0.12792209  0.92792673
   0.01448685  0.80000465  0.87207791
   0.10023734  0.09628556  0.16512085
   0.10023734  0.06883529  0.90371444
   0.10023734  0.83487915  0.93116471
   0.12176659  0.22210837  0.29130688
   0.12176659  0.06919852  0.77789163
   0.12176659  0.70869312  0.93080148
   0.15455740  0.17220211  0.20992055
   0.15455740  0.03771845  0.82779789
   0.15455740  0.79007945  0.96228155
   0.24400704  0.20056928  0.17447317
   0.24400704  0.97390389  0.79943072
   0.24400704  0.82552683  0.02609611
   0.24963837  0.28319863  0.19808847
   0.24963837  0.91488983  0.71680137
   0.24963837  0.80191153  0.08511017
   0.32656575  0.14748178  0.11869366
   0.32656575  0.97121288  0.85251822
   0.32656575  0.88130634  0.02878712
   0.41298042  0.17664549  0.08887259
   0.41298042  0.91222710  0.82335451
   0.41298042  0.91112741  0.08777290
   0.33524203  0.31207857  0.16787469
   0.33524203  0.85579612  0.68792143
   0.33524203  0.83212531  0.14420388
   0.41842801  0.25930617  0.11336951
   0.41842901  0.85406334  0.74069383
   0.41842901  0.88663049  0.14593666
   0.51022297  0.29310317  0.08314534
   0.51022297  0.79004317  0.70689683
   0.51022297  0.91685466  0.20995683
   0.74363511  0.46260431  0.15095039
   0.74363511  0.68834608  0.53739569
   0.74363511  0.84904961  0.31165392
   0.83256710  0.45368484  0.04548625
   0.83256710  0.59180140  0.54631516
   0.83256710  0.95451375  0.40819860
   0.85947098  0.52832741  0.10933365
   0.85947098  0.58100625  0.47167259
   0.85947098  0.89066635  0.41899375
   0.80390493  0.60054649  0.25565984
   0.80390493  0.65511335  0.39945351
   0.80390493  0.74434016  0.34488665
   0.80393411  0.58772403  0.32159174
   0.80393411  0.73386771  0.41227597
   0.80393411  0.67840826  0.26613229
   0.51434746  0.38225041  0.94556982
   0.51434746  0.56331941  0.61774959
   0.51434746  0.05443018  0.43668059
   0.48918561  0.39615145  0.88344374
   0.48918561  0.48729129  0.60384855
   0.48918561  0.11655626  0.51270871
   0.62842311  0.30298737  0.84505414
   0.62842311  0.54206677  0.69701263
   0.62842311  0.15494586  0.45793323
   0.56464378  0.33897308  0.74226471
   0.56464378  0.40329163  0.66102692
   0.56464378  0.25773529  0.59670837
   0.56459354  0.26256853  0.67236867
   0.56459354  0.40980014  0.73743147
   0.56459354  0.32763133  0.59019986
   0.75344719  0.73731685  0.98913881
   0.75344719  0.25182197  0.26268315
   0.75344719  0.01086119  0.74817803
   0.72130093  0.84182650  0.97314789
   0.72130093  0.13132139  0.15817350
   0.72130093  0.02685211  0.86867861
   0.88295665  0.56554157  0.94606530
   0.88295665  0.38052373  0.43445843
   0.88295665  0.05393470  0.61947627
   0.91844538  0.45521736  0.82998507
   0.91844538  0.37476771  0.54478264
   0.91844538  0.17001493  0.62523229
   0.76017405  0.41400243  0.07235764
   0.76017405  0.65835422  0.58599757
   0.76017405  0.92764236  0.34164578
   0.80313932  0.53309469  0.17598949
   0.80313932  0.64289580  0.46690531
   0.80313932  0.82401051  0.35710420
   0.60171269  0.32477667  0.92087767
   0.60171269  0.59610100  0.67522333
   0.60171269  0.07912233  0.40389900
   0.56130373  0.34514708  0.81951269
   0.56130273  0.47436662  0.65485392
   0.56130273  0.18048731  0.52563338
   0.67863586  0.65190275  0.09013375
   0.67863586  0.43823000  0.34809725
   0.67863586  0.90986625  0.56177000
   0.59895382  0.58478390  0.96483535
   0.59895382  0.38005145  0.41521610
   0.59895382  0.03516465  0.61994855
   0.94480776  0.41751651  0.30949284
   0.94480776  0.89197633  0.58248449
   0.94480776  0.69050716  0.10802367
   0.89079222  0.33749544  0.17977774
   0.89079222  0.84228231  0.66250456
   0.89079222  0.82022226  0.15771769
   0.50933866  0.36643060  0.10300357
   0.50933866  0.73657197  0.63356940
   0.50933866  0.89699643  0.26342803
   0.58951241  0.24255700  0.03567408
   0.58951241  0.79311708  0.75744300
   0.58951241  0.96432592  0.20688292
   0.82574096  0.03792105  0.26850739
   0.82574096  0.23058634  0.96207895
   0.82574096  0.73149261  0.76941366
   0.87146710  0.13845164  0.39480349
   0.87146710  0.25635185  0.86154836
   0.87146710  0.60519651  0.74364815
unknown system                          
           1
     0.000000   -0.000000  -11.518942
    -9.534547  -16.514320    0.000000
    -9.534547   16.514320   -0.000000
   Zn   H    C    N    O 
   6  96 144  24  24
Direct configuration=    14
   0.80994252  0.67041509  0.03509769
   0.80994252  0.36468260  0.32958491
   0.80994252  0.96490231  0.63531740
   0.69178950  0.30403492  0.00160103
   0.69178950  0.69756711  0.69596508
   0.69178950  0.99839897  0.30243289
   0.09769914  0.51686041  0.33077163
   0.09769914  0.81391122  0.48313959
   0.09769914  0.66922837  0.18608878
   0.01277004  0.35311904  0.08169436
   0.01277004  0.72857532  0.64688096
   0.01277104  0.91830564  0.27142468
   0.16620234  0.41618315  0.03848062
   0.16620234  0.62229647  0.58381685
   0.16620234  0.96151938  0.37770353
   0.24963139  0.58049100  0.28917727
   0.24963139  0.70868627  0.41950900
   0.24963139  0.71082273  0.29131373
   0.42896669  0.55713757  0.22995174
   0.42896669  0.67281417  0.44286243
   0.42896669  0.77004826  0.32718583
   0.21164960  0.53115856  0.03445898
   0.21164960  0.50329942  0.46884144
   0.21164960  0.96554102  0.49670058
   0.37615237  0.57807741  0.98229533
   0.37615237  0.40421792  0.42192259
   0.37615237  0.01770467  0.59578308
   0.58858116  0.60893961  0.18013711
   0.58858116  0.57119750  0.39106039
   0.58858116  0.81986289  0.42880250
   0.83661700  0.85048935  0.06756474
   0.83661700  0.21707539  0.14951065
   0.83661700  0.93243526  0.78292461
   0.63790581  0.65417097  0.89576963
   0.63790581  0.24159867  0.34582903
   0.63790581  0.10423037  0.75840133
   0.60207304  0.78609782  0.87202974
   0.60207304  0.08593192  0.21390218
   0.60207304  0.12797026  0.91406808
   0.72176838  0.97621429  0.11746198
   0.72176838  0.14124769  0.02378571
   0.72176838  0.88253802  0.85875231
   0.75056132  0.51452503  0.85539564
   0.75056132  0.34087060  0.48547497
   0.75056132  0.14460436  0.65912940
   0.04943229  0.57616771  0.00080553
   0.04943229  0.42463782  0.42383229
   0.04943229  0.99919447  0.57536218
   0.09516067  0.43450306  0.85296776
   0.09516067  0.41846469  0.56549694
   0.09516067  0.14703224  0.58153531
   0.91058315  0.29530562  0.77501802
   0.91058315  0.47971240  0.70469438
   0.91058315  0.22498198  0.52028760
   0.01330596  0.23542218  0.38971601
   0.01330596  0.15429483  0.76457782
   0.01330596  0.61028399  0.84570517
   0.97113757  0.01384907  0.16495957
   0.97113757  0.15110950  0.98615093
   0.97113757  0.83504143  0.84889050
   0.12414738  0.05667019  0.10187692
   0.12414738  0.04520673  0.94332981
   0.12414738  0.89812308  0.95479327
   0.16441500  0.28058735  0.32741617
   0.16441500  0.04682881  0.71941265
   0.16441500  0.67258383  0.95317119
   0.18462846  0.32488230  0.23949261
   0.18462846  0.91461131  0.67511770
   0.18462846  0.76050739  0.08538869
   0.32479671  0.08345046  0.10088640
   0.32479671  0.01743594  0.91654954
   0.32479671  0.89911360  0.98256406
   0.47826472  0.13585063  0.04691651
   0.47826472  0.91106589  0.86414937
   0.47826472  0.95308349  0.08893411
   0.33919815  0.37593004  0.18562058
   0.33919815  0.80969155  0.62406996
   0.33919815  0.81437942  0.19030845
   0.68854831  0.45019406  0.18957512
   0.68854831  0.73938206  0.54980594
   0.68854831  0.81042488  0.26061794
   0.86063323  0.42477151  0.98289439
   0.86063323  0.55812288  0.57522849
   0.86063323  0.01710561  0.44187712
   0.91198068  0.57790458  0.11456149
   0.91198068  0.53665591  0.42209542
   0.91198068  0.88543951  0.46334409
   0.80302616  0.52686561  0.31308880
   0.80302616  0.78622319  0.47313439
   0.80302616  0.68691120  0.21377681
   0.47813070  0.40885561  0.00606399
   0.47813070  0.59720937  0.59114439
   0.47813070  0.99393601  0.40279163
   0.42916786  0.43719164  0.87873089
   0.42916786  0.44153824  0.56280836
   0.42916786  0.12126911  0.55846176
   0.69947686  0.26293681  0.81114655
   0.69947686  0.54820873  0.73706319
   0.69947686  0.18885345  0.45179127
   0.56171549  0.20745192  0.67635758
   0.56171549  0.46890566  0.79254808
   0.56171549  0.32364242  0.53109434
   0.95420677  0.39141859  0.23195481
   0.95420677  0.84053622  0.60858141
   0.95420677  0.76804519  0.15946378
   0.04562990  0.43126724  0.20840751
   0.04562990  0.77714127  0.56873276
   0.04562990  0.79159249  0.22285873
   0.11270101  0.49532807  0.26677594
   0.11270101  0.77144787  0.50467193
   0.11270101  0.73322406  0.22855213
   0.06494633  0.40351886  0.12608094
   0.06494633  0.72256208  0.59648114
   0.06494633  0.87391906  0.27743792
   0.14957185  0.43951213  0.10269279
   0.14957185  0.66318067  0.56048787
   0.14957185  0.89730721  0.33681933
   0.19788352  0.53094745  0.24322109
   0.19788352  0.71227364  0.46905255
   0.19788352  0.75677891  0.28772636
   0.21745363  0.50375849  0.16078665
   0.21745363  0.65702816  0.49624151
   0.21745363  0.83921335  0.34297184
   0.30955195  0.53946108  0.13492522
   0.30955195  0.59546414  0.46053892
   0.30955195  0.86507478  0.40453586
   0.41543918  0.56395450  0.17702843
   0.41543918  0.61307393  0.43604550
   0.41543918  0.82297157  0.38692607
   0.29514620  0.54705584  0.06567374
   0.29514620  0.51861890  0.45294416
   0.29514620  0.93432626  0.48138110
   0.38595313  0.57340015  0.03669958
   0.38595313  0.46329943  0.42659985
   0.38595313  0.96330042  0.53670057
   0.50555082  0.59161324  0.14867018
   0.50555082  0.55705693  0.40838676
   0.50555082  0.85132982  0.44294307
   0.49313939  0.59387771  0.07674708
   0.49313939  0.48286938  0.40612229
   0.49313939  0.92325292  0.51713062
   0.59575926  0.61134980  0.03986650
   0.59575926  0.42851670  0.38865020
   0.59575926  0.96013350  0.57148330
   0.77909309  0.81468693  0.01707119
   0.77909309  0.20238326  0.18531207
   0.77909309  0.98292881  0.79761674
   0.67590783  0.71406494  0.92563044
   0.67590783  0.21156650  0.28593506
   0.67590783  0.07436956  0.78843350
   0.65544598  0.77857685  0.91469584
   0.65544598  0.13611899  0.22142315
   0.65544598  0.08530416  0.86388101
   0.72518148  0.92185465  0.98668002
   0.72518148  0.06482438  0.07814535
   0.72518148  0.01331998  0.93517562
   0.72531866  0.98645764  0.06615099
   0.72531866  0.07969435  0.01354236
   0.72531866  0.93384901  0.92030565
   0.83858706  0.51322369  0.87455643
   0.83858706  0.36133374  0.48677631
   0.83858706  0.12544357  0.63866626
   0.99519604  0.54129591  0.94812332
   0.99519604  0.40682741  0.45870409
   0.99519604  0.05187668  0.59317259
   0.01866861  0.47228373  0.87626925
   0.01866961  0.40398552  0.52771627
   0.01866861  0.12373075  0.59601448
   0.90879037  0.39308145  0.74720957
   0.90879037  0.35412813  0.60691855
   0.90879037  0.25279043  0.64587187
   0.90857203  0.31218395  0.72782310
   0.90857203  0.41563915  0.68781605
   0.90857203  0.27217690  0.58436085
   0.88736548  0.09899321  0.31932028
   0.88736548  0.22032707  0.90100679
   0.88736548  0.68067972  0.77967293
   0.98225826  0.12246108  0.28125753
   0.98225826  0.15879645  0.87753892
   0.98225826  0.71874247  0.84120355
   0.03799752  0.19716474  0.32652679
   0.03799752  0.12936204  0.80283526
   0.03799752  0.67347321  0.87063796
   0.01452077  0.07210288  0.20005059
   0.01452077  0.12794771  0.92789712
   0.01452077  0.79994941  0.87205229
   0.10027027  0.09633419  0.16517666
   0.10027027  0.06884247  0.90366581
   0.10027027  0.83482334  0.93115753
   0.12186124  0.22212809  0.29139200
   0.12186124  0.06926390  0.77787191
   0.12186124  0.70860800  0.93073610
   0.15461921  0.17224981  0.20998939
   0.15461921  0.03773958  0.82775019
   0.15461921  0.79001061  0.96226042
   0.24406864  0.20060534  0.17453024
   0.24406864  0.97392490  0.79939466
   0.24406864  0.82546976  0.02607510
   0.24969198  0.28322285  0.19812364
   0.24969198  0.91490080  0.71677715
   0.24969198  0.80187636  0.08509920
   0.32657502  0.14750229  0.11872545
   0.32657502  0.97122416  0.85249771
   0.32657502  0.88127455  0.02877584
   0.41301749  0.17665340  0.08889387
   0.41301749  0.91224047  0.82334660
   0.41301749  0.91110613  0.08775953
   0.33529011  0.31209994  0.16787736
   0.33529011  0.85577742  0.68790006
   0.33529011  0.83212264  0.14422258
   0.41845869  0.25931199  0.11338778
   0.41845969  0.85407579  0.74068801
   0.41845969  0.88661222  0.14592421
   0.51027219  0.29311283  0.08317112
   0.51027219  0.79005929  0.70688717
   0.51027219  0.91682888  0.20994071
   0.74363740  0.46259114  0.15095573
   0.74363740  0.68836459  0.53740886
   0.74363740  0.84904427  0.31163541
   0.83258138  0.45367381  0.04550082
   0.83258138  0.59182701  0.54632619
   0.83258138  0.95449918  0.40817299
   0.85946373  0.52833129  0.10934927
   0.85946373  0.58101798  0.47166871
   0.85946373  0.89065073  0.41898202
   0.80387511  0.60054952  0.25566592
   0.80387511  0.65511639  0.39945048
   0.80387511  0.74433408  0.34488361
   0.80390737  0.58772402  0.32159026
   0.80390737  0.73386623  0.41227598
   0.80390737  0.67840974  0.26613377
   0.51434676  0.38222083  0.94556285
   0.51434676  0.56334202  0.61777917
   0.51434676  0.05443715  0.43665798
   0.48915074  0.39613653  0.88344393
   0.48915074  0.48730639  0.60386347
   0.48915074  0.11655607  0.51269361
   0.62842824  0.30298377  0.84505038
   0.62842824  0.54206661  0.69701623
   0.62842824  0.15494962  0.45793339
   0.56459321  0.33896120  0.74226057
   0.56459321  0.40329937  0.66103880
   0.56459321  0.25773943  0.59670063
   0.56453852  0.26256367  0.67235930
   0.56453852  0.40979563  0.73743633
   0.56453852  0.32764070  0.59020437
   0.75344010  0.73731882  0.98915789
   0.75344010  0.25183907  0.26268118
   0.75344010  0.01084211  0.74816093
   0.72126240  0.84182451  0.97313760
   0.72126240  0.13131310  0.15817549
   0.72126240  0.02686240  0.86868690
   0.88295525  0.56554989  0.94606499
   0.88295525  0.38051510  0.43445011
   0.88295525  0.05393501  0.61948490
   0.91845642  0.45520778  0.83000230
   0.91845642  0.37479452  0.54479222
   0.91845642  0.16999770  0.62520548
   0.76016186  0.41397298  0.07235939
   0.76016186  0.65838540  0.58602702
   0.76016186  0.92764061  0.34161460
   0.80311854  0.53309488  0.17599777
   0.80311854  0.64290389  0.46690512
   0.80311854  0.82400223  0.35709611
   0.60173328  0.32474393  0.92086778
   0.60173328  0.59612385  0.67525607
   0.60173328  0.07913222  0.40387615
   0.56126994  0.34513688  0.81951318
   0.56126894  0.47437730  0.65486412
   0.56126894  0.18048682  0.52562270
   0.67858287  0.65192102  0.09012304
   0.67858287  0.43820102  0.34807898
   0.67858287  0.90987696  0.56179898
   0.59893831  0.58470460  0.96480134
   0.59893831  0.38009673  0.41529540
   0.59893831  0.03519866  0.61990327
   0.94476549  0.41751682  0.30946318
   0.94476549  0.89194636  0.58248418
   0.94476549  0.69053682  0.10805364
   0.89086068  0.33741049  0.17969287
   0.89086068  0.84228238  0.66258951
   0.89086068  0.82030713  0.15771762
   0.50937103  0.36646132  0.10304495
   0.50937103  0.73658263  0.63353868
   0.50937103  0.89695505  0.26341737
   0.58956898  0.24255560  0.03571810
   0.58956898  0.79316249  0.75744440
   0.58956898  0.96428190  0.20683751
   0.82572629  0.03800008  0.26853341
   0.82572629  0.23053333  0.96199992
   0.82572629  0.73146659  0.76946667
   0.87150246  0.13847623  0.39484972
   0.87150246  0.25637349  0.86152377
   0.87150246  0.60515028  0.74362651
unknown system                          
           1
     0.000000   -0.000000  -11.517778
    -9.534834  -16.514817    0.000000
    -9.534834   16.514817   -0.000000
   Zn   H    C    N    O 
   6  96 144  24  24
Direct configuration=    15
   0.80987585  0.67041747  0.03509542
   0.80987585  0.36467796  0.32958253
   0.80987585  0.96490458  0.63532204
   0.69181714  0.30402619  0.00158877
   0.69181714  0.69756358  0.69597381
   0.69181714  0.99841123  0.30243642
   0.09768611  0.51678937  0.33070065
   0.09768611  0.81391128  0.48321063
   0.09768611  0.66929935  0.18608872
   0.01274812  0.35311035  0.08162833
   0.01274812  0.72851797  0.64688965
   0.01274912  0.91837167  0.27148203
   0.16627790  0.41611647  0.03841859
   0.16627790  0.62230112  0.58388353
   0.16627790  0.96158141  0.37769888
   0.24943481  0.58052040  0.28907652
   0.24943481  0.70855611  0.41947960
   0.24943481  0.71092348  0.29144389
   0.42893964  0.55700902  0.22985807
   0.42893964  0.67284905  0.44299098
   0.42893964  0.77014193  0.32715095
   0.21157191  0.53120173  0.03449559
   0.21157191  0.50329286  0.46879827
   0.21157191  0.96550441  0.49670714
   0.37612868  0.57795228  0.98222560
   0.37612868  0.40427332  0.42204772
   0.37612868  0.01777440  0.59572768
   0.58844838  0.60892459  0.18010078
   0.58844838  0.57117619  0.39107541
   0.58844838  0.81989922  0.42882381
   0.83659733  0.85047598  0.06746202
   0.83659733  0.21698604  0.14952402
   0.83659733  0.93253798  0.78301396
   0.63779640  0.65413775  0.89578659
   0.63779640  0.24164884  0.34586225
   0.63779640  0.10421341  0.75835116
   0.60191448  0.78606575  0.87198371
   0.60191448  0.08591796  0.21393425
   0.60191448  0.12801629  0.91408204
   0.72166860  0.97617261  0.11741708
   0.72166860  0.14124447  0.02382739
   0.72166860  0.88258292  0.85875553
   0.75066719  0.51460220  0.85527572
   0.75066719  0.34067351  0.48539780
   0.75066719  0.14472428  0.65932649
   0.04932055  0.57603634  0.00095185
   0.04932055  0.42491551  0.42396366
   0.04932055  0.99904815  0.57508449
   0.09512439  0.43432061  0.85312135
   0.09512439  0.41880074  0.56567939
   0.09512439  0.14687865  0.58119926
   0.91069658  0.29521932  0.77496414
   0.91069658  0.47974482  0.70478068
   0.91069658  0.22503586  0.52025518
   0.01342052  0.23551081  0.38987652
   0.01342052  0.15436671  0.76448919
   0.01342052  0.61012348  0.84563329
   0.97124754  0.01390774  0.16508499
   0.97124754  0.15117625  0.98609226
   0.97124754  0.83491601  0.84882375
   0.12417874  0.05678529  0.10197311
   0.12417874  0.04518782  0.94321471
   0.12417874  0.89802689  0.95481218
   0.16470353  0.28059776  0.32760698
   0.16470353  0.04700922  0.71940224
   0.16470353  0.67239302  0.95299078
   0.18484473  0.32492624  0.23962258
   0.18484473  0.91469734  0.67507376
   0.18484473  0.76037742  0.08530266
   0.32482013  0.08349818  0.10093581
   0.32482013  0.01743763  0.91650182
   0.32482013  0.89906419  0.98256237
   0.47834464  0.13588855  0.04702557
   0.47834464  0.91113701  0.86411145
   0.47834464  0.95297443  0.08886299
   0.33921854  0.37594730  0.18560198
   0.33921854  0.80965568  0.62405270
   0.33921854  0.81439802  0.19034432
   0.68860051  0.45017777  0.18955061
   0.68860051  0.73937384  0.54982223
   0.68860051  0.81044939  0.26062616
   0.86069940  0.42473649  0.98288239
   0.86069940  0.55814590  0.57526351
   0.86069940  0.01711761  0.44185410
   0.91202487  0.57794407  0.11458390
   0.91202487  0.53663883  0.42205593
   0.91202487  0.88541710  0.46336117
   0.80303198  0.52686960  0.31306806
   0.80303198  0.78619846  0.47313040
   0.80303198  0.68693194  0.21380154
   0.47808864  0.40882020  0.00608264
   0.47808864  0.59726344  0.59117980
   0.47808864  0.99391736  0.40273756
   0.42905152  0.43719139  0.87873443
   0.42905152  0.44154204  0.56280861
   0.42905152  0.12126557  0.55845796
   0.69948133  0.26296648  0.81113028
   0.69948133  0.54816280  0.73703352
   0.69948133  0.18886972  0.45183720
   0.56162842  0.20746061  0.67634704
   0.56162842  0.46888643  0.79253939
   0.56162842  0.32365296  0.53111357
   0.95420408  0.39132144  0.23186658
   0.95420408  0.84054514  0.60867856
   0.95420408  0.76813342  0.15945486
   0.04564827  0.43121841  0.20833333
   0.04564827  0.77711591  0.56878159
   0.04564827  0.79166667  0.22288409
   0.11266981  0.49530594  0.26671380
   0.11266981  0.77140785  0.50469406
   0.11266981  0.73328620  0.22859215
   0.06493176  0.40346408  0.12600612
   0.06493176  0.72254204  0.59653592
   0.06493176  0.87399388  0.27745796
   0.14956957  0.43946566  0.10263081
   0.14956957  0.66316515  0.56053434
   0.14956957  0.89736919  0.33683485
   0.19780719  0.53093853  0.24315835
   0.19780719  0.71221982  0.46906147
   0.19780719  0.75684165  0.28778018
   0.21739307  0.50371261  0.16074188
   0.21739307  0.65702927  0.49628739
   0.21739307  0.83925812  0.34297073
   0.30948248  0.53943929  0.13488455
   0.30948248  0.59544526  0.46056071
   0.30948248  0.86511545  0.40455474
   0.41537447  0.56392097  0.17700558
   0.41537447  0.61308461  0.43607903
   0.41537447  0.82299442  0.38691539
   0.29508800  0.54707580  0.06567554
   0.29508800  0.51860074  0.45292420
   0.29508800  0.93432446  0.48139926
   0.38595024  0.57337619  0.03664551
   0.38595024  0.46326932  0.42662381
   0.38595024  0.96335449  0.53673068
   0.50549154  0.59159463  0.14861404
   0.50549154  0.55701942  0.40840537
   0.50549154  0.85138596  0.44298058
   0.49310618  0.59386687  0.07672192
   0.49310618  0.48285504  0.40613313
   0.49310618  0.92327808  0.51714496
   0.59570363  0.61132354  0.03985276
   0.59570363  0.42852922  0.38867646
   0.59570363  0.96014724  0.57147078
   0.77907265  0.81468770  0.01704909
   0.77907265  0.20236040  0.18531130
   0.77907265  0.98295091  0.79763960
   0.67584198  0.71406158  0.92566420
   0.67584198  0.21160362  0.28593842
   0.67584198  0.07433580  0.78839638
   0.65532945  0.77856877  0.91470190
   0.65532945  0.13613313  0.22143123
   0.65532945  0.08529810  0.86386687
   0.72503991  0.92185298  0.98666127
   0.72503991  0.06480729  0.07814702
   0.72503991  0.01333873  0.93519271
   0.72519609  0.98643034  0.06612420
   0.72519609  0.07969486  0.01356966
   0.72519609  0.93387580  0.92030514
   0.83864480  0.51325730  0.87453881
   0.83864480  0.36128251  0.48674270
   0.83864480  0.12546119  0.63871749
   0.99512998  0.54121213  0.94821377
   0.99512998  0.40700164  0.45878787
   0.99512998  0.05178623  0.59299836
   0.01863013  0.47216973  0.87637662
   0.01863113  0.40420689  0.52783027
   0.01863013  0.12362338  0.59579311
   0.90889718  0.39307847  0.74722379
   0.90889718  0.35414531  0.60692153
   0.90889718  0.25277621  0.64585469
   0.90872902  0.31216480  0.72781548
   0.90872902  0.41565068  0.68783520
   0.90872902  0.27218452  0.58434932
   0.88738745  0.09909137  0.31941719
   0.88738745  0.22032582  0.90090863
   0.88738745  0.68058281  0.77967418
   0.98227889  0.12253087  0.28136561
   0.98227889  0.15883475  0.87746913
   0.98227889  0.71863439  0.84116525
   0.03804849  0.19722744  0.32666377
   0.03804849  0.12943633  0.80277256
   0.03804849  0.67333623  0.87056367
   0.01458860  0.07216212  0.20016107
   0.01458860  0.12799895  0.92783788
   0.01458860  0.79983893  0.87200105
   0.10033614  0.09643146  0.16528827
   0.10033614  0.06885681  0.90356854
   0.10033614  0.83471173  0.93114319
   0.12205055  0.22216754  0.29156221
   0.12205055  0.06939467  0.77783246
   0.12205055  0.70843779  0.93060533
   0.15474284  0.17234522  0.21012705
   0.15474284  0.03778183  0.82765478
   0.15474284  0.78987295  0.96221817
   0.24419186  0.20067745  0.17464436
   0.24419186  0.97396691  0.79932255
   0.24419186  0.82535564  0.02603309
   0.24979923  0.28327127  0.19819399
   0.24979923  0.91492273  0.71672873
   0.24979923  0.80180601  0.08507727
   0.32659354  0.14754332  0.11878904
   0.32659354  0.97124672  0.85245668
   0.32659354  0.88121096  0.02875328
   0.41309165  0.17666922  0.08893643
   0.41309165  0.91226722  0.82333078
   0.41309165  0.91106357  0.08773278
   0.33538628  0.31214267  0.16788270
   0.33538628  0.85574002  0.68785733
   0.33538628  0.83211730  0.14425998
   0.41852004  0.25932365  0.11342434
   0.41852104  0.85410069  0.74067635
   0.41852104  0.88657566  0.14589931
   0.51037063  0.29313215  0.08322269
   0.51037063  0.79009153  0.70686785
   0.51037063  0.91677731  0.20990847
   0.74364199  0.46256478  0.15096640
   0.74364199  0.68840161  0.53743522
   0.74364199  0.84903360  0.31159839
   0.83260996  0.45365174  0.04552998
   0.83260996  0.59187823  0.54634826
   0.83260996  0.95447002  0.40812177
   0.85944925  0.52833905  0.10938052
   0.85944925  0.58104146  0.47166095
   0.85944925  0.89061948  0.41895854
   0.80381546  0.60055558  0.25567807
   0.80381546  0.65512249  0.39944442
   0.80381546  0.74432193  0.34487751
   0.80385389  0.58772401  0.32158729
   0.80385389  0.73386328  0.41227599
   0.80385389  0.67841271  0.26613672
   0.51434538  0.38216166  0.94554891
   0.51434538  0.56338725  0.61783834
   0.51434538  0.05445109  0.43661275
   0.48908102  0.39610670  0.88344431
   0.48908102  0.48733661  0.60389330
   0.48908102  0.11655569  0.51266339
   0.62843851  0.30297658  0.84504287
   0.62843851  0.54206629  0.69702342
   0.62843851  0.15495713  0.45793371
   0.56449206  0.33893744  0.74225227
   0.56449206  0.40331483  0.66106256
   0.56449206  0.25774773  0.59668517
   0.56442847  0.26255395  0.67234057
   0.56442847  0.40978662  0.73744605
   0.56442847  0.32765943  0.59021338
   0.75342593  0.73732277  0.98919605
   0.75342593  0.25187328  0.26267723
   0.75342593  0.01080395  0.74812672
   0.72118533  0.84182052  0.97311702
   0.72118533  0.13129651  0.15817948
   0.72118533  0.02688298  0.86870349
   0.88295245  0.56556654  0.94606438
   0.88295245  0.38049785  0.43443346
   0.88295245  0.05393562  0.61950215
   0.91847850  0.45518862  0.83003676
   0.91847850  0.37484814  0.54481138
   0.91847850  0.16996324  0.62515186
   0.76013748  0.41391410  0.07236288
   0.76013748  0.65844778  0.58608590
   0.76013748  0.92763712  0.34155222
   0.80307698  0.53309526  0.17601433
   0.80307698  0.64292007  0.46690474
   0.80307698  0.82398567  0.35707993
   0.60177446  0.32467846  0.92084801
   0.60177446  0.59616956  0.67532154
   0.60177446  0.07915199  0.40383044
   0.56120234  0.34511649  0.81951416
   0.56120134  0.47439867  0.65488451
   0.56120134  0.18048584  0.52560133
   0.67847690  0.65195755  0.09010162
   0.67847690  0.43814306  0.34804245
   0.67847690  0.90989838  0.56185694
   0.59890728  0.58454601  0.96473331
   0.59890728  0.38018731  0.41545399
   0.59890728  0.03526669  0.61981269
   0.94468096  0.41751744  0.30940387
   0.94468096  0.89188643  0.58248356
   0.94468096  0.69059613  0.10811357
   0.89099760  0.33724060  0.17952313
   0.89099760  0.84228253  0.66275940
   0.89099760  0.82047687  0.15771747
   0.50943577  0.36652275  0.10312770
   0.50943577  0.73660395  0.63347725
   0.50943577  0.89687230  0.26339605
   0.58968210  0.24255281  0.03580613
   0.58968210  0.79325333  0.75744719
   0.58968210  0.96419387  0.20674667
   0.82569695  0.03815814  0.26858545
   0.82569695  0.23042731  0.96184186
   0.82569695  0.73141455  0.76957269
   0.87157318  0.13852539  0.39494217
   0.87157318  0.25641678  0.86147461
   0.87157318  0.60505783  0.74358322
unknown system                          
           1
    -0.000000   -0.000000  -11.517228
    -9.534781  -16.514725    0.000000
    -9.534781   16.514725   -0.000000
   Zn   H    C    N    O 
   6  96 144  24  24
Direct configuration=    16
   0.80985577  0.67041463  0.03509805
   0.80985577  0.36468342  0.32958537
   0.80985577  0.96490195  0.63531658
   0.69182611  0.30400899  0.00158142
   0.69182611  0.69757344  0.69599101
   0.69182611  0.99841858  0.30242656
   0.09767886  0.51676677  0.33067663
   0.09767886  0.81390987  0.48323323
   0.09767886  0.66932337  0.18609013
   0.01273858  0.35309942  0.08159978
   0.01273858  0.72850036  0.64690058
   0.01273958  0.91840022  0.27149964
   0.16630395  0.41609498  0.03839767
   0.16630395  0.62230169  0.58390502
   0.16630395  0.96160233  0.37769831
   0.24937737  0.58053742  0.28905198
   0.24937737  0.70851456  0.41946258
   0.24937737  0.71094802  0.29148544
   0.42892814  0.55696662  0.22982568
   0.42892814  0.67285906  0.44303338
   0.42892814  0.77017432  0.32714094
   0.21155334  0.53121732  0.03450791
   0.21155334  0.50328958  0.46878268
   0.21155334  0.96549209  0.49671042
   0.37611937  0.57791536  0.98219366
   0.37611937  0.40427829  0.42208464
   0.37611937  0.01780634  0.59572271
   0.58841264  0.60892036  0.18009076
   0.58841264  0.57117040  0.39107964
   0.58841264  0.81990924  0.42882960
   0.83660203  0.85047969  0.06743909
   0.83660203  0.21695940  0.14952031
   0.83660203  0.93256091  0.78304060
   0.63776583  0.65413639  0.89579941
   0.63776583  0.24166301  0.34586361
   0.63776583  0.10420059  0.75833699
   0.60186885  0.78605406  0.87197615
   0.60186885  0.08592210  0.21394594
   0.60186885  0.12802385  0.91407790
   0.72163309  0.97615934  0.11740236
   0.72163309  0.14124302  0.02384066
   0.72163309  0.88259764  0.85875698
   0.75070285  0.51462782  0.85523333
   0.75070285  0.34060551  0.48537218
   0.75070285  0.14476667  0.65939449
   0.04927996  0.57599227  0.00100048
   0.04927996  0.42500820  0.42400773
   0.04927996  0.99899952  0.57499180
   0.09510080  0.43426254  0.85317679
   0.09510080  0.41891425  0.56573746
   0.09510080  0.14682321  0.58108575
   0.91073595  0.29519386  0.77494729
   0.91073595  0.47975343  0.70480614
   0.91073595  0.22505271  0.52024657
   0.01346234  0.23553835  0.38992705
   0.01346234  0.15438970  0.76446165
   0.01346234  0.61007295  0.84561030
   0.97128271  0.01392734  0.16512401
   0.97128271  0.15119567  0.98607266
   0.97128271  0.83487699  0.84880433
   0.12418911  0.05682528  0.10200820
   0.12418911  0.04518292  0.94317472
   0.12418911  0.89799180  0.95481708
   0.16479991  0.28059984  0.32766966
   0.16479991  0.04706982  0.71940016
   0.16479991  0.67233034  0.95293018
   0.18491367  0.32494288  0.23966707
   0.18491367  0.91472519  0.67505712
   0.18491367  0.76033293  0.08527481
   0.32482604  0.08351248  0.10095479
   0.32482604  0.01744231  0.91648752
   0.32482604  0.89904521  0.98255769
   0.47837946  0.13589268  0.04705364
   0.47837946  0.91116096  0.86410732
   0.47837946  0.95294636  0.08883904
   0.33922711  0.37596182  0.18559905
   0.33922711  0.80963822  0.62403818
   0.33922711  0.81440095  0.19036178
   0.68860504  0.45017081  0.18955161
   0.68860504  0.73938179  0.54982919
   0.68860504  0.81044839  0.26061821
   0.86071640  0.42473026  0.98289128
   0.86071640  0.55816102  0.57526974
   0.86071640  0.01710872  0.44183898
   0.91203075  0.57795040  0.11459168
   0.91203075  0.53664029  0.42204960
   0.91203075  0.88540932  0.46335971
   0.80303226  0.52687092  0.31306351
   0.80303226  0.78619259  0.47312908
   0.80303226  0.68693649  0.21380741
   0.47808135  0.40880257  0.00607940
   0.47808135  0.59727783  0.59119743
   0.47808135  0.99392060  0.40272317
   0.42902068  0.43718407  0.87873680
   0.42902068  0.44155173  0.56281593
   0.42902068  0.12126320  0.55844827
   0.69948816  0.26297266  0.81112060
   0.69948816  0.54814694  0.73702734
   0.69948816  0.18887940  0.45185306
   0.56159858  0.20746234  0.67634134
   0.56159858  0.46887900  0.79253766
   0.56159858  0.32365866  0.53112100
   0.95421635  0.39129433  0.23182987
   0.95421635  0.84053554  0.60870567
   0.95421635  0.76817013  0.15946446
   0.04565138  0.43119992  0.20830745
   0.04565138  0.77710852  0.56880008
   0.04565138  0.79169255  0.22289148
   0.11264797  0.49529205  0.26669512
   0.11264797  0.77140306  0.50470795
   0.11264797  0.73330488  0.22859694
   0.06492682  0.40345491  0.12599741
   0.06492682  0.72254250  0.59654509
   0.06492682  0.87400259  0.27745750
   0.14957720  0.43945630  0.10261370
   0.14957720  0.66315740  0.56054370
   0.14957720  0.89738630  0.33684260
   0.19776214  0.53092174  0.24313210
   0.19776214  0.71221036  0.46907826
   0.19776214  0.75686790  0.28778964
   0.21738241  0.50369503  0.16070454
   0.21738241  0.65700950  0.49630497
   0.21738241  0.83929546  0.34299050
   0.30945299  0.53943148  0.13487396
   0.30945299  0.59544247  0.46056852
   0.30945299  0.86512604  0.40455753
   0.41535749  0.56391000  0.17699312
   0.41535749  0.61308312  0.43609000
   0.41535749  0.82300688  0.38691688
   0.29507970  0.54707978  0.06568026
   0.29507970  0.51860147  0.45292022
   0.29507970  0.93431974  0.48139853
   0.38594529  0.57336621  0.03663135
   0.38594529  0.46326514  0.42663379
   0.38594529  0.96336865  0.53673486
   0.50545377  0.59158582  0.14860152
   0.50545377  0.55701570  0.40841418
   0.50545377  0.85139848  0.44298430
   0.49308604  0.59385961  0.07670656
   0.49308604  0.48284694  0.40614039
   0.49308604  0.92329344  0.51715306
   0.59568831  0.61130694  0.03983551
   0.59568831  0.42852858  0.38869306
   0.59568831  0.96016449  0.57147142
   0.77905664  0.81468493  0.01703382
   0.77905664  0.20234789  0.18531407
   0.77905664  0.98296618  0.79765211
   0.67581309  0.71405456  0.92567119
   0.67581309  0.21161764  0.28594544
   0.67581309  0.07432881  0.78838236
   0.65528952  0.77856017  0.91470169
   0.65528952  0.13614152  0.22143983
   0.65528952  0.08529831  0.86385848
   0.72499673  0.92185172  0.98665720
   0.72499673  0.06480448  0.07814828
   0.72499673  0.01334280  0.93519552
   0.72515381  0.98642009  0.06611427
   0.72515381  0.07969517  0.01357991
   0.72515381  0.93388573  0.92030483
   0.83865967  0.51326953  0.87453099
   0.83865967  0.36126246  0.48673047
   0.83865967  0.12546901  0.63873754
   0.99511388  0.54118449  0.94824636
   0.99511388  0.40706187  0.45881551
   0.99511388  0.05175364  0.59293813
   0.01862402  0.47213041  0.87641481
   0.01862502  0.40428440  0.52786959
   0.01862402  0.12358519  0.59571560
   0.90893817  0.39307694  0.74722524
   0.90893817  0.35414830  0.60692306
   0.90893817  0.25277476  0.64585170
   0.90877380  0.31215083  0.72780578
   0.90877380  0.41565495  0.68784917
   0.90877380  0.27219422  0.58434505
   0.88739593  0.09912292  0.31944747
   0.88739593  0.22032455  0.90087708
   0.88739593  0.68055253  0.77967545
   0.98231357  0.12256403  0.28139592
   0.98231357  0.15883190  0.87743597
   0.98231357  0.71860408  0.84116810
   0.03807191  0.19725562  0.32671873
   0.03807191  0.12946311  0.80274438
   0.03807191  0.67328127  0.87053689
   0.01460836  0.07218412  0.20020320
   0.01460836  0.12801908  0.92781588
   0.01460836  0.79979680  0.87198092
   0.10035769  0.09646850  0.16533286
   0.10035769  0.06886436  0.90353150
   0.10035769  0.83466714  0.93113564
   0.12209635  0.22217533  0.29162170
   0.12209635  0.06944636  0.77782467
   0.12209635  0.70837830  0.93055364
   0.15479134  0.17237139  0.21016776
   0.15479134  0.03779637  0.82762861
   0.15479134  0.78983224  0.96220363
   0.24422682  0.20069551  0.17468052
   0.24422682  0.97398501  0.79930449
   0.24422682  0.82531948  0.02601499
   0.24985307  0.28328159  0.19821085
   0.24985307  0.91492927  0.71671841
   0.24985307  0.80178915  0.08507073
   0.32660295  0.14756606  0.11881491
   0.32660295  0.97124985  0.85243394
   0.32660295  0.88118509  0.02875015
   0.41310520  0.17668752  0.08896107
   0.41310520  0.91227355  0.82331248
   0.41310520  0.91103893  0.08772645
   0.33541505  0.31215480  0.16788688
   0.33541505  0.85573208  0.68784520
   0.33541505  0.83211312  0.14426792
   0.41854761  0.25932916  0.11343600
   0.41854861  0.85410685  0.74067084
   0.41854861  0.88656400  0.14589315
   0.51039595  0.29314712  0.08324984
   0.51039595  0.79010372  0.70685288
   0.51039595  0.91675016  0.20989628
   0.74364926  0.46256008  0.15096613
   0.74364926  0.68840605  0.53743992
   0.74364926  0.84903387  0.31159395
   0.83261491  0.45363769  0.04553266
   0.83261491  0.59189497  0.54636231
   0.83261491  0.95446734  0.40810503
   0.85944587  0.52833832  0.10938353
   0.85944587  0.58104521  0.47166168
   0.85944587  0.89061647  0.41895479
   0.80379701  0.60055629  0.25568028
   0.80379701  0.65512399  0.39944371
   0.80379701  0.74431972  0.34487601
   0.80383558  0.58772717  0.32158493
   0.80383558  0.73385775  0.41227283
   0.80383558  0.67841507  0.26614225
   0.51433431  0.38214865  0.94555383
   0.51433431  0.56340517  0.61785135
   0.51433431  0.05444617  0.43659483
   0.48905441  0.39609885  0.88345457
   0.48905441  0.48735472  0.60390115
   0.48905441  0.11654543  0.51264528
   0.62844000  0.30297339  0.84503966
   0.62844000  0.54206627  0.69702661
   0.62844000  0.15496034  0.45793373
   0.56445758  0.33892063  0.74224164
   0.56445758  0.40332101  0.66107937
   0.56445758  0.25775836  0.59667899
   0.56439427  0.26256013  0.67234931
   0.56439427  0.40978918  0.73743987
   0.56439427  0.32765069  0.59021082
   0.75340527  0.73732675  0.98919335
   0.75340527  0.25186661  0.26267325
   0.75340527  0.01080665  0.74813339
   0.72115615  0.84181540  0.97310850
   0.72115615  0.13129310  0.15818460
   0.72115615  0.02689150  0.86870690
   0.88295531  0.56556998  0.94606666
   0.88295531  0.38049669  0.43443002
   0.88295531  0.05393334  0.61950331
   0.91848985  0.45517965  0.83004548
   0.91848985  0.37486583  0.54482035
   0.91848985  0.16995452  0.62513417
   0.76015986  0.41391415  0.07236466
   0.76015986  0.65844952  0.58608585
   0.76015986  0.92763534  0.34155048
   0.80306361  0.53309021  0.17601665
   0.80306361  0.64292744  0.46690979
   0.80306361  0.82398335  0.35707256
   0.60177017  0.32466917  0.92083910
   0.60177017  0.59616993  0.67533083
   0.60177017  0.07916090  0.40383007
   0.56118549  0.34510369  0.81951016
   0.56118449  0.47440747  0.65489731
   0.56118449  0.18048984  0.52559253
   0.67844782  0.65197153  0.09009305
   0.67844782  0.43812052  0.34802847
   0.67844782  0.90990695  0.56187948
   0.59889757  0.58449916  0.96471981
   0.59889757  0.38022065  0.41550084
   0.59889757  0.03528019  0.61977935
   0.94463952  0.41750933  0.30937886
   0.94463952  0.89186953  0.58249167
   0.94463952  0.69062114  0.10813047
   0.89104961  0.33719028  0.17947871
   0.89104961  0.84228844  0.66280972
   0.89104961  0.82052129  0.15771156
   0.50945902  0.36652426  0.10314699
   0.50945902  0.73662173  0.63347574
   0.50945902  0.89685301  0.26337827
   0.58972036  0.24255935  0.03583337
   0.58972036  0.79327402  0.75744065
   0.58972036  0.96416663  0.20672598
   0.82567278  0.03820363  0.26860425
   0.82567278  0.23040061  0.96179637
   0.82567278  0.73139575  0.76959939
   0.87159537  0.13854389  0.39497739
   0.87159537  0.25643350  0.86145611
   0.87159537  0.60502261  0.74356650
unknown system                          
           1
    -0.000000   -0.000000  -11.515578
    -9.534622  -16.514450    0.000000
    -9.534622   16.514450   -0.000000
   Zn   H    C    N    O 
   6  96 144  24  24
Direct configuration=    17
   0.80979552  0.67040611  0.03510592
   0.80979552  0.36469981  0.32959389
   0.80979552  0.96489408  0.63530019
   0.69185304  0.30395738  0.00155939
   0.69185304  0.69760301  0.69604262
   0.69185304  0.99844061  0.30239699
   0.09765710  0.51669895  0.33060458
   0.09765710  0.81390563  0.48330105
   0.09765710  0.66939542  0.18609437
   0.01270995  0.35306663  0.08151414
   0.01270995  0.72844751  0.64693337
   0.01271095  0.91848586  0.27155249
   0.16638210  0.41603051  0.03833491
   0.16638210  0.62230340  0.58396949
   0.16638210  0.96166509  0.37769660
   0.24920502  0.58058846  0.28897837
   0.24920502  0.70838991  0.41941154
   0.24920502  0.71102163  0.29161009
   0.42889365  0.55683943  0.22972852
   0.42889365  0.67288909  0.44316057
   0.42889365  0.77027148  0.32711091
   0.21149762  0.53126411  0.03454488
   0.21149762  0.50327977  0.46873589
   0.21149762  0.96545512  0.49672023
   0.37609144  0.57780462  0.98209785
   0.37609144  0.40429323  0.42219538
   0.37609144  0.01790215  0.59570777
   0.58830542  0.60890767  0.18006070
   0.58830542  0.57115303  0.39109233
   0.58830542  0.81993930  0.42884697
   0.83661614  0.85049081  0.06737027
   0.83661614  0.21687946  0.14950919
   0.83661614  0.93262973  0.78312054
   0.63767411  0.65413234  0.89583787
   0.63767411  0.24170553  0.34586766
   0.63767411  0.10416213  0.75829447
   0.60173195  0.78601896  0.87195348
   0.60173195  0.08593451  0.21398104
   0.60173195  0.12804652  0.91406549
   0.72152657  0.97611951  0.11735820
   0.72152657  0.14123869  0.02388049
   0.72152657  0.88264180  0.85876131
   0.75080981  0.51470465  0.85510616
   0.75080981  0.34040151  0.48529535
   0.75080981  0.14489384  0.65959849
   0.04915817  0.57586008  0.00114636
   0.04915817  0.42528628  0.42413992
   0.04915817  0.99885364  0.57471372
   0.09503005  0.43408833  0.85334311
   0.09503005  0.41925478  0.56591167
   0.09503005  0.14665689  0.58074522
   0.91085404  0.29511749  0.77489675
   0.91085404  0.47977926  0.70488251
   0.91085404  0.22510325  0.52022074
   0.01358779  0.23562098  0.39007864
   0.01358779  0.15445866  0.76437902
   0.01358779  0.60992136  0.84554134
   0.97138823  0.01398614  0.16524107
   0.97138823  0.15125393  0.98601386
   0.97138823  0.83475993  0.84874607
   0.12422024  0.05694525  0.10211345
   0.12422024  0.04516821  0.94305475
   0.12422024  0.89788655  0.95483179
   0.16508904  0.28060608  0.32785771
   0.16508904  0.04725163  0.71939392
   0.16508904  0.67214229  0.95274837
   0.18512047  0.32499277  0.23980052
   0.18512047  0.91480875  0.67500723
   0.18512047  0.76019948  0.08519125
   0.32484379  0.08355537  0.10101175
   0.32484379  0.01745637  0.91644463
   0.32484379  0.89898825  0.98254363
   0.47848393  0.13590506  0.04713786
   0.47848393  0.91123280  0.86409494
   0.47848393  0.95286214  0.08876720
   0.33925283  0.37600540  0.18559024
   0.33925283  0.80958584  0.62399460
   0.33925283  0.81440976  0.19041416
   0.68861863  0.45014995  0.18955460
   0.68861863  0.73940565  0.54985005
   0.68861863  0.81044540  0.26059435
   0.86076738  0.42471158  0.98291795
   0.86076738  0.55820637  0.57528842
   0.86076738  0.01708205  0.44179363
   0.91204838  0.57796938  0.11461503
   0.91204838  0.53664465  0.42203062
   0.91204838  0.88538597  0.46335535
   0.80303310  0.52687488  0.31304986
   0.80303310  0.78617498  0.47312512
   0.80303310  0.68695014  0.21382502
   0.47805947  0.40874968  0.00606969
   0.47805947  0.59732101  0.59125032
   0.47805947  0.99393031  0.40267999
   0.42892814  0.43716211  0.87874390
   0.42892814  0.44158079  0.56283789
   0.42892814  0.12125610  0.55841921
   0.69950863  0.26299122  0.81109156
   0.69950863  0.54809934  0.73700878
   0.69950863  0.18890844  0.45190066
   0.56150905  0.20746753  0.67632426
   0.56150905  0.46885673  0.79253247
   0.56150905  0.32367574  0.53114327
   0.95425317  0.39121301  0.23171975
   0.95425317  0.84050674  0.60878699
   0.95425317  0.76828025  0.15949326
   0.04566069  0.43114445  0.20822981
   0.04566069  0.77708635  0.56885555
   0.04566069  0.79177019  0.22291365
   0.11258246  0.49525038  0.26663907
   0.11258246  0.77138869  0.50474962
   0.11258246  0.73336093  0.22861131
   0.06491200  0.40342740  0.12597127
   0.06491200  0.72254387  0.59657260
   0.06491200  0.87402873  0.27745613
   0.14960010  0.43942821  0.10256239
   0.14960010  0.66313418  0.56057179
   0.14960010  0.89743761  0.33686582
   0.19762696  0.53087137  0.24305335
   0.19762696  0.71218197  0.46912863
   0.19762696  0.75694665  0.28781803
   0.21735044  0.50364230  0.16059250
   0.21735044  0.65695020  0.49635770
   0.21735044  0.83940750  0.34304980
   0.30936449  0.53940808  0.13484219
   0.30936449  0.59543411  0.46059192
   0.30936449  0.86515781  0.40456589
   0.41530655  0.56387706  0.17695572
   0.41530655  0.61307866  0.43612294
   0.41530655  0.82304428  0.38692134
   0.29505480  0.54709172  0.06569440
   0.29505480  0.51860368  0.45290828
   0.29505480  0.93430560  0.48139632
   0.38593042  0.57333627  0.03658887
   0.38593042  0.46325260  0.42666373
   0.38593042  0.96341113  0.53674740
   0.50534046  0.59155939  0.14856395
   0.50534046  0.55700457  0.40844061
   0.50534046  0.85143605  0.44299543
   0.49302564  0.59383784  0.07666048
   0.49302564  0.48282264  0.40616216
   0.49302564  0.92333952  0.51717736
   0.59564233  0.61125713  0.03978377
   0.59564233  0.42852664  0.38874287
   0.59564233  0.96021623  0.57147336
   0.77900858  0.81467662  0.01698800
   0.77900858  0.20231038  0.18532238
   0.77900858  0.98301200  0.79768962
   0.67572639  0.71403348  0.92569216
   0.67572639  0.21165969  0.28596652
   0.67572639  0.07430784  0.78834031
   0.65516974  0.77853436  0.91470105
   0.65516974  0.13616669  0.22146564
   0.65516974  0.08529895  0.86383331
   0.72486719  0.92184796  0.98664501
   0.72486719  0.06479605  0.07815204
   0.72486719  0.01335499  0.93520395
   0.72502699  0.98638933  0.06608445
   0.72502699  0.07969611  0.01361067
   0.72502699  0.93391555  0.92030389
   0.83870429  0.51330622  0.87450753
   0.83870429  0.36120231  0.48669378
   0.83870429  0.12549247  0.63879769
   0.99506558  0.54110159  0.94834413
   0.99506558  0.40724254  0.45889841
   0.99506558  0.05165587  0.59275746
   0.01860572  0.47201244  0.87652938
   0.01860672  0.40451694  0.52798756
   0.01860572  0.12347062  0.59548306
   0.90906114  0.39307235  0.74722960
   0.90906114  0.35415725  0.60692765
   0.90906114  0.25277040  0.64584275
   0.90890813  0.31210893  0.72777669
   0.90890813  0.41566776  0.68789107
   0.90890813  0.27222331  0.58433224
   0.88742137  0.09921757  0.31953831
   0.88742137  0.22032074  0.90078243
   0.88742137  0.68046169  0.77967926
   0.98241762  0.12266351  0.28148685
   0.98241762  0.15882333  0.87733649
   0.98241762  0.71851315  0.84117667
   0.03814218  0.19734016  0.32688360
   0.03814218  0.12954343  0.80265984
   0.03814218  0.67311640  0.87045657
   0.01466763  0.07225014  0.20032959
   0.01466763  0.12807944  0.92774986
   0.01466763  0.79967041  0.87192056
   0.10042233  0.09657962  0.16546663
   0.10042233  0.06888701  0.90342038
   0.10042233  0.83453337  0.93111299
   0.12223376  0.22219871  0.29180015
   0.12223376  0.06960144  0.77780129
   0.12223376  0.70819985  0.93039856
   0.15493685  0.17244991  0.21028989
   0.15493685  0.03783998  0.82755009
   0.15493685  0.78971011  0.96216002
   0.24433171  0.20074969  0.17478899
   0.24433171  0.97403931  0.79925031
   0.24433171  0.82521101  0.02596069
   0.25001460  0.28331254  0.19826144
   0.25001460  0.91494889  0.71668746
   0.25001460  0.80173856  0.08505111
   0.32663118  0.14763430  0.11889252
   0.32663118  0.97125922  0.85236570
   0.32663118  0.88110748  0.02874078
   0.41314588  0.17674243  0.08903499
   0.41314588  0.91229256  0.82325757
   0.41314588  0.91096501  0.08770744
   0.33550138  0.31219119  0.16789943
   0.33550138  0.85570823  0.68780881
   0.33550138  0.83210057  0.14429177
   0.41863033  0.25934567  0.11347100
   0.41863133  0.85412533  0.74065433
   0.41863133  0.88652900  0.14587467
   0.51047190  0.29319201  0.08333129
   0.51047190  0.79014028  0.70680799
   0.51047190  0.91666871  0.20985972
   0.74367107  0.46254597  0.15096532
   0.74367107  0.68841935  0.53745403
   0.74367107  0.84903468  0.31158065
   0.83262977  0.45359552  0.04554072
   0.83262977  0.59194520  0.54640448
   0.83262977  0.95445928  0.40805480
   0.85943574  0.52833611  0.10939257
   0.85943574  0.58105646  0.47166389
   0.85943574  0.89060743  0.41894354
   0.80374168  0.60055842  0.25568692
   0.80374168  0.65512850  0.39944158
   0.80374168  0.74431308  0.34487150
   0.80378065  0.58773666  0.32157782
   0.80378065  0.73384116  0.41226334
   0.80378065  0.67842218  0.26615884
   0.51430110  0.38210963  0.94556858
   0.51430110  0.56345895  0.61789037
   0.51430110  0.05443142  0.43654105
   0.48897457  0.39607531  0.88348536
   0.48897457  0.48740905  0.60392469
   0.48897457  0.11651464  0.51259095
   0.62844448  0.30296384  0.84503005
   0.62844448  0.54206621  0.69703616
   0.62844448  0.15496995  0.45793379
   0.56435416  0.33887018  0.74220975
   0.56435416  0.40333956  0.66112982
   0.56435416  0.25779025  0.59666044
   0.56429165  0.26257867  0.67237551
   0.56429165  0.40979684  0.73742133
   0.56429165  0.32762449  0.59020316
   0.75334326  0.73733868  0.98918528
   0.75334326  0.25184659  0.26266132
   0.75334326  0.01081472  0.74815341
   0.72106861  0.84180005  0.97308292
   0.72106861  0.13128288  0.15819995
   0.72106861  0.02691708  0.86871712
   0.88296390  0.56558030  0.94607350
   0.88296390  0.38049320  0.43441970
   0.88296390  0.05392650  0.61950680
   0.91852392  0.45515274  0.83007165
   0.91852392  0.37491891  0.54484726
   0.91852392  0.16992835  0.62508109
   0.76022700  0.41391429  0.07237002
   0.76022700  0.65845473  0.58608571
   0.76022700  0.92762998  0.34154527
   0.80302348  0.53307506  0.17602363
   0.80302348  0.64294957  0.46692494
   0.80302348  0.82397637  0.35705043
   0.60175730  0.32464133  0.92081236
   0.60175730  0.59617103  0.67535867
   0.60175730  0.07918764  0.40382897
   0.56113493  0.34506529  0.81949816
   0.56113393  0.47443386  0.65493571
   0.56113393  0.18050184  0.52556614
   0.67836057  0.65201348  0.09006737
   0.67836057  0.43805289  0.34798652
   0.67836057  0.90993263  0.56194711
   0.59886845  0.58435862  0.96467931
   0.59886845  0.38032069  0.41564138
   0.59886845  0.03532069  0.61967931
   0.94451522  0.41748502  0.30930383
   0.94451522  0.89181881  0.58251598
   0.94451522  0.69069617  0.10818119
   0.89120563  0.33703930  0.17934547
   0.89120563  0.84230617  0.66296070
   0.89120563  0.82065453  0.15769383
   0.50952878  0.36652880  0.10320486
   0.50952878  0.73667506  0.63347120
   0.50952878  0.89679514  0.26332494
   0.58983512  0.24257897  0.03591508
   0.58983512  0.79333610  0.75742103
   0.58983512  0.96408492  0.20666390
   0.82560024  0.03834012  0.26866064
   0.82560024  0.23032052  0.96165988
   0.82560024  0.73133936  0.76967948
   0.87166194  0.13859937  0.39508305
   0.87166194  0.25648368  0.86140063
   0.87166194  0.60491695  0.74351632
unknown system                          
           1
    -0.000000   -0.000000  -11.514890
    -9.534556  -16.514336    0.000000
    -9.534556   16.514336   -0.000000
   Zn   H    C    N    O 
   6  96 144  24  24
Direct configuration=    18
   0.80977039  0.67040256  0.03510920
   0.80977039  0.36470665  0.32959744
   0.80977039  0.96489080  0.63529335
   0.69186428  0.30393585  0.00155019
   0.69186428  0.69761534  0.69606415
   0.69186428  0.99844981  0.30238466
   0.09764802  0.51667066  0.33057452
   0.09764802  0.81390387  0.48332934
   0.09764802  0.66942548  0.18609613
   0.01269800  0.35305295  0.08147842
   0.01269800  0.72842546  0.64694705
   0.01269900  0.91852158  0.27157454
   0.16641471  0.41600361  0.03830873
   0.16641471  0.62230411  0.58399639
   0.16641471  0.96169127  0.37769589
   0.24913311  0.58060975  0.28894766
   0.24913311  0.70833791  0.41939025
   0.24913311  0.71105234  0.29166209
   0.42887927  0.55678637  0.22968799
   0.42887927  0.67290162  0.44321363
   0.42887927  0.77031201  0.32709838
   0.21147437  0.53128363  0.03456030
   0.21147437  0.50327567  0.46871637
   0.21147437  0.96543970  0.49672433
   0.37607979  0.57775842  0.98205788
   0.37607979  0.40429946  0.42224158
   0.37607979  0.01794212  0.59570154
   0.58826069  0.60890238  0.18004816
   0.58826069  0.57114578  0.39109762
   0.58826069  0.81995184  0.42885422
   0.83662203  0.85049545  0.06734157
   0.83662203  0.21684612  0.14950455
   0.83662203  0.93265843  0.78315388
   0.63763585  0.65413065  0.89585391
   0.63763585  0.24172326  0.34586935
   0.63763585  0.10414609  0.75827674
   0.60167484  0.78600432  0.87194402
   0.60167484  0.08593969  0.21399568
   0.60167484  0.12805598  0.91406031
   0.72148213  0.97610289  0.11733978
   0.72148213  0.14123688  0.02389711
   0.72148213  0.88266022  0.85876312
   0.75085443  0.51473670  0.85505311
   0.75085443  0.34031641  0.48526330
   0.75085443  0.14494689  0.65968359
   0.04910737  0.57580494  0.00120721
   0.04910737  0.42540227  0.42419506
   0.04910737  0.99879279  0.57459773
   0.09500053  0.43401566  0.85341249
   0.09500053  0.41939683  0.56598434
   0.09500053  0.14658751  0.58060317
   0.91090331  0.29508563  0.77487566
   0.91090331  0.47979003  0.70491437
   0.91090331  0.22512434  0.52020997
   0.01364013  0.23565545  0.39014187
   0.01364013  0.15448742  0.76434455
   0.01364013  0.60985813  0.84551258
   0.97143226  0.01401067  0.16528990
   0.97143226  0.15127824  0.98598933
   0.97143226  0.83471110  0.84872176
   0.12423323  0.05699529  0.10215736
   0.12423323  0.04516207  0.94300471
   0.12423323  0.89784264  0.95483793
   0.16520967  0.28060868  0.32793615
   0.16520967  0.04732747  0.71939132
   0.16520967  0.67206385  0.95267253
   0.18520674  0.32501358  0.23985619
   0.18520674  0.91484360  0.67498642
   0.18520674  0.76014381  0.08515640
   0.32485119  0.08357326  0.10103550
   0.32485119  0.01746224  0.91642674
   0.32485119  0.89896450  0.98253776
   0.47852752  0.13591022  0.04717299
   0.47852752  0.91126276  0.86408978
   0.47852752  0.95282701  0.08873724
   0.33926355  0.37602358  0.18558657
   0.33926355  0.80956399  0.62397642
   0.33926355  0.81441343  0.19043601
   0.68862431  0.45014125  0.18955585
   0.68862431  0.73941561  0.54985875
   0.68862431  0.81044415  0.26058439
   0.86078866  0.42470379  0.98292908
   0.86078866  0.55822529  0.57529621
   0.86078866  0.01707092  0.44177471
   0.91205573  0.57797730  0.11462477
   0.91205573  0.53664647  0.42202270
   0.91205573  0.88537623  0.46335353
   0.80303344  0.52687653  0.31304417
   0.80303344  0.78616764  0.47312347
   0.80303344  0.68695583  0.21383236
   0.47805034  0.40872762  0.00606564
   0.47805034  0.59733902  0.59127238
   0.47805034  0.99393436  0.40266198
   0.42888953  0.43715295  0.87874686
   0.42888953  0.44159291  0.56284705
   0.42888953  0.12125314  0.55840709
   0.69951717  0.26299897  0.81107945
   0.69951717  0.54807949  0.73700103
   0.69951717  0.18892055  0.45192051
   0.56147170  0.20746970  0.67631714
   0.56147170  0.46884744  0.79253030
   0.56147170  0.32368286  0.53115256
   0.95426853  0.39117909  0.23167381
   0.95426853  0.84049472  0.60882091
   0.95426853  0.76832619  0.15950528
   0.04566458  0.43112131  0.20819742
   0.04566458  0.77707711  0.56887869
   0.04566458  0.79180258  0.22292289
   0.11255513  0.49523299  0.26661568
   0.11255513  0.77138269  0.50476701
   0.11255513  0.73338432  0.22861731
   0.06490582  0.40341593  0.12596036
   0.06490582  0.72254444  0.59658407
   0.06490582  0.87403964  0.27745556
   0.14960965  0.43941649  0.10254098
   0.14960965  0.66312449  0.56058351
   0.14960965  0.89745902  0.33687551
   0.19757057  0.53085036  0.24302050
   0.19757057  0.71217013  0.46914964
   0.19757057  0.75697950  0.28782987
   0.21733711  0.50362031  0.16054577
   0.21733711  0.65692546  0.49637969
   0.21733711  0.83945423  0.34307454
   0.30932758  0.53939831  0.13482893
   0.30932758  0.59543062  0.46060169
   0.30932758  0.86517107  0.40456938
   0.41528529  0.56386332  0.17694012
   0.41528529  0.61307680  0.43613668
   0.41528529  0.82305988  0.38692320
   0.29504441  0.54709670  0.06570030
   0.29504441  0.51860460  0.45290330
   0.29504441  0.93429970  0.48139540
   0.38592422  0.57332378  0.03657115
   0.38592422  0.46324737  0.42667622
   0.38592422  0.96342885  0.53675263
   0.50529319  0.59154836  0.14854828
   0.50529319  0.55699992  0.40845164
   0.50529319  0.85145172  0.44300008
   0.49300044  0.59382876  0.07664126
   0.49300044  0.48281250  0.40617124
   0.49300044  0.92335874  0.51718750
   0.59562315  0.61123635  0.03976218
   0.59562315  0.42852583  0.38876365
   0.59562315  0.96023782  0.57147417
   0.77898853  0.81467315  0.01696888
   0.77898853  0.20229473  0.18532585
   0.77898853  0.98303112  0.79770527
   0.67569022  0.71402468  0.92570091
   0.67569022  0.21167723  0.28597532
   0.67569022  0.07429909  0.78832277
   0.65511977  0.77852359  0.91470078
   0.65511977  0.13617719  0.22147641
   0.65511977  0.08529922  0.86382281
   0.72481314  0.92184639  0.98663992
   0.72481314  0.06479253  0.07815361
   0.72481314  0.01336008  0.93520747
   0.72497408  0.98637650  0.06607201
   0.72497408  0.07969651  0.01362350
   0.72497408  0.93392799  0.92030349
   0.83872291  0.51332152  0.87449774
   0.83872291  0.36117722  0.48667848
   0.83872291  0.12550226  0.63882278
   0.99504543  0.54106701  0.94838492
   0.99504543  0.40731791  0.45893299
   0.99504543  0.05161508  0.59268209
   0.01859808  0.47196323  0.87657717
   0.01859908  0.40461394  0.52803677
   0.01859808  0.12342283  0.59538606
   0.90911244  0.39307044  0.74723142
   0.90911244  0.35416098  0.60692956
   0.90911244  0.25276858  0.64583902
   0.90896417  0.31209145  0.72776456
   0.90896417  0.41567311  0.68790855
   0.90896417  0.27223544  0.58432689
   0.88743198  0.09925705  0.31957620
   0.88743198  0.22031915  0.90074295
   0.88743198  0.68042380  0.77968085
   0.98246103  0.12270501  0.28152477
   0.98246103  0.15881976  0.87729499
   0.98246103  0.71847523  0.84118024
   0.03817150  0.19737543  0.32695237
   0.03817150  0.12957694  0.80262457
   0.03817150  0.67304763  0.87042306
   0.01469236  0.07227768  0.20038231
   0.01469236  0.12810462  0.92772232
   0.01469236  0.79961769  0.87189538
   0.10044930  0.09662597  0.16552243
   0.10044930  0.06889646  0.90337403
   0.10044930  0.83447757  0.93110354
   0.12229109  0.22220846  0.29187458
   0.12229109  0.06966613  0.77779154
   0.12229109  0.70812542  0.93033387
   0.15499756  0.17248266  0.21034083
   0.15499756  0.03785817  0.82751734
   0.15499756  0.78965917  0.96214183
   0.24437547  0.20077229  0.17483424
   0.24437547  0.97406196  0.79922771
   0.24437547  0.82516576  0.02593804
   0.25008199  0.28332546  0.19828254
   0.25008199  0.91495708  0.71667454
   0.25008199  0.80171746  0.08504292
   0.32664295  0.14766276  0.11892489
   0.32664295  0.97126313  0.85233724
   0.32664295  0.88107511  0.02873687
   0.41316285  0.17676534  0.08906582
   0.41316285  0.91230048  0.82323466
   0.41316285  0.91093418  0.08769952
   0.33553739  0.31220637  0.16790466
   0.33553739  0.85569829  0.68779363
   0.33553739  0.83209534  0.14430171
   0.41866484  0.25935256  0.11348560
   0.41866584  0.85413304  0.74064744
   0.41866584  0.88651440  0.14586696
   0.51050358  0.29321074  0.08336527
   0.51050358  0.79015553  0.70678926
   0.51050358  0.91663473  0.20984447
   0.74368018  0.46254009  0.15096499
   0.74368018  0.68842490  0.53745991
   0.74368018  0.84903501  0.31157510
   0.83263596  0.45357793  0.04554408
   0.83263596  0.59196615  0.54642207
   0.83263596  0.95445592  0.40803385
   0.85943151  0.52833519  0.10939634
   0.85943151  0.58106115  0.47166481
   0.85943151  0.89060366  0.41893885
   0.80371859  0.60055930  0.25568969
   0.80371859  0.65513038  0.39944070
   0.80371859  0.74431031  0.34486962
   0.80375773  0.58774062  0.32157486
   0.80375773  0.73383424  0.41225938
   0.80375773  0.67842514  0.26616576
   0.51428725  0.38209335  0.94557473
   0.51428725  0.56348139  0.61790665
   0.51428725  0.05442527  0.43651861
   0.48894126  0.39606548  0.88349820
   0.48894126  0.48743171  0.60393452
   0.48894126  0.11650180  0.51256829
   0.62844635  0.30295986  0.84502604
   0.62844635  0.54206618  0.69704014
   0.62844635  0.15497396  0.45793382
   0.56431101  0.33884914  0.74219645
   0.56431101  0.40334730  0.66115086
   0.56431101  0.25780355  0.59665270
   0.56424884  0.26258640  0.67238644
   0.56424884  0.40980004  0.73741360
   0.56424884  0.32761356  0.59019996
   0.75331739  0.73734366  0.98918191
   0.75331739  0.25183825  0.26265634
   0.75331739  0.01081809  0.74816175
   0.72103209  0.84179364  0.97307226
   0.72103209  0.13127861  0.15820636
   0.72103209  0.02692774  0.86872139
   0.88296749  0.56558460  0.94607635
   0.88296749  0.38049175  0.43441540
   0.88296749  0.05392365  0.61950825
   0.91853813  0.45514151  0.83008256
   0.91853813  0.37494105  0.54485849
   0.91853813  0.16991744  0.62505895
   0.76025501  0.41391434  0.07237225
   0.76025501  0.65845691  0.58608566
   0.76025501  0.92762775  0.34154309
   0.80300674  0.53306874  0.17602654
   0.80300674  0.64295880  0.46693126
   0.80300674  0.82397346  0.35704120
   0.60175193  0.32462972  0.92080120
   0.60175193  0.59617149  0.67537028
   0.60175193  0.07919880  0.40382851
   0.56111383  0.34504927  0.81949315
   0.56111283  0.47444488  0.65495173
   0.56111283  0.18050685  0.52555512
   0.67832418  0.65203098  0.09005666
   0.67832418  0.43802468  0.34796902
   0.67832418  0.90994334  0.56197532
   0.59885631  0.58430000  0.96466242
   0.59885631  0.38036242  0.41570000
   0.59885631  0.03533758  0.61963758
   0.94446336  0.41747488  0.30927253
   0.94446336  0.89179766  0.58252612
   0.94446336  0.69072747  0.10820234
   0.89127073  0.33697632  0.17928989
   0.89127073  0.84231357  0.66302368
   0.89127073  0.82071011  0.15768643
   0.50955788  0.36653070  0.10322900
   0.50955788  0.73669731  0.63346930
   0.50955788  0.89677100  0.26330269
   0.58988299  0.24258716  0.03594916
   0.58988299  0.79336200  0.75741284
   0.58988299  0.96405084  0.20663800
   0.82556998  0.03839706  0.26868417
   0.82556998  0.23028711  0.96160294
   0.82556998  0.73131583  0.76971289
   0.87168971  0.13862252  0.39512713
   0.87168971  0.25650461  0.86137748
   0.87168971  0.60487287  0.74349539
unknown system                          
           1
    -0.000000   -0.000000  -11.514011
    -9.534430  -16.514118    0.000000
    -9.534430   16.514118   -0.000000
   Zn   H    C    N    O 
   6  96 144  24  24
Direct configuration=    19
   0.80974741  0.67039633  0.03511644
   0.80974741  0.36472011  0.32960367
   0.80974741  0.96488356  0.63527989
   0.69187965  0.30389011  0.00153415
   0.69187965  0.69764504  0.69610989
   0.69187965  0.99846585  0.30235496
   0.09762453  0.51663693  0.33054109
   0.09762453  0.81390417  0.48336307
   0.09762453  0.66945891  0.18609583
   0.01269013  0.35303142  0.08143181
   0.01269013  0.72840039  0.64696858
   0.01269113  0.91856819  0.27159961
   0.16645460  0.41596741  0.03827614
   0.16645460  0.62230773  0.58403259
   0.16645460  0.96172386  0.37769227
   0.24902984  0.58063361  0.28890609
   0.24902984  0.70827248  0.41936639
   0.24902984  0.71109391  0.29172752
   0.42885791  0.55671640  0.22963303
   0.42885791  0.67291663  0.44328360
   0.42885791  0.77036697  0.32708337
   0.21145508  0.53131167  0.03457953
   0.21145508  0.50326686  0.46868833
   0.21145508  0.96542047  0.49673314
   0.37606035  0.57770393  0.98199245
   0.37606035  0.40428852  0.42229607
   0.37606035  0.01800755  0.59571248
   0.58821524  0.60889603  0.18003407
   0.58821524  0.57113803  0.39110397
   0.58821524  0.81996593  0.42886197
   0.83664353  0.85051105  0.06731640
   0.83664353  0.21680536  0.14948895
   0.83664353  0.93268360  0.78319464
   0.63758722  0.65413518  0.89588522
   0.63758722  0.24175005  0.34586482
   0.63758722  0.10411478  0.75824995
   0.60161563  0.78598029  0.87195251
   0.60161563  0.08597222  0.21401971
   0.60161563  0.12804749  0.91402778
   0.72141410  0.97607936  0.11732010
   0.72141410  0.14124073  0.02392064
   0.72141410  0.88267990  0.85875927
   0.75092050  0.51478361  0.85497702
   0.75092050  0.34019341  0.48521639
   0.75092050  0.14502298  0.65980659
   0.04903374  0.57572993  0.00129599
   0.04903374  0.42556606  0.42427007
   0.04903374  0.99870401  0.57443394
   0.09494594  0.43391436  0.85351617
   0.09494594  0.41960181  0.56608564
   0.09494594  0.14648383  0.58039819
   0.91097494  0.29504980  0.77484904
   0.91097494  0.47979924  0.70495020
   0.91097494  0.22515096  0.52020076
   0.01371014  0.23570426  0.39023714
   0.01371014  0.15453388  0.76429574
   0.01371014  0.60976286  0.84546612
   0.97148433  0.01404258  0.16535352
   0.97148433  0.15130994  0.98595742
   0.97148433  0.83464748  0.84869006
   0.12424838  0.05707320  0.10223274
   0.12424838  0.04515954  0.94292680
   0.12424838  0.89776726  0.95484046
   0.16536443  0.28059609  0.32803832
   0.16536443  0.04744223  0.71940391
   0.16536443  0.67196168  0.95255777
   0.18532919  0.32504257  0.23992969
   0.18532919  0.91488812  0.67495743
   0.18532919  0.76007031  0.08511188
   0.32486029  0.08360759  0.10107678
   0.32486029  0.01746919  0.91639241
   0.32486029  0.89892322  0.98253081
   0.47857910  0.13591675  0.04722082
   0.47857910  0.91130407  0.86408325
   0.47857910  0.95277918  0.08869593
   0.33928446  0.37605694  0.18558529
   0.33928446  0.80952935  0.62394306
   0.33928446  0.81441471  0.19047065
   0.68861216  0.45012512  0.18956920
   0.68861216  0.73944509  0.54987488
   0.68861216  0.81043080  0.26055491
   0.86081154  0.42469778  0.98296003
   0.86081154  0.55826225  0.57530222
   0.86081154  0.01703997  0.44173775
   0.91203761  0.57796611  0.11463783
   0.91203761  0.53667071  0.42203389
   0.91203761  0.88536317  0.46332929
   0.80302979  0.52687968  0.31304122
   0.80302979  0.78616154  0.47312032
   0.80302979  0.68695878  0.21383846
   0.47804238  0.40869200  0.00605968
   0.47804238  0.59736868  0.59130800
   0.47804238  0.99394032  0.40263232
   0.42885668  0.43712116  0.87875595
   0.42885668  0.44163378  0.56287884
   0.42885668  0.12124405  0.55836622
   0.69954230  0.26300073  0.81105583
   0.69954230  0.54805410  0.73699927
   0.69954230  0.18894417  0.45194590
   0.56141722  0.20746390  0.67630391
   0.56141722  0.46884001  0.79253610
   0.56141722  0.32369609  0.53115999
   0.95429184  0.39114085  0.23162214
   0.95429184  0.84048129  0.60885915
   0.95429184  0.76837786  0.15951871
   0.04563961  0.43108152  0.20816866
   0.04563961  0.77708814  0.56891848
   0.04563961  0.79183134  0.22291186
   0.11250841  0.49519806  0.26658263
   0.11250841  0.77138458  0.50480194
   0.11250841  0.73341737  0.22861542
   0.06490855  0.40339666  0.12592019
   0.06490855  0.72252353  0.59660334
   0.06490855  0.87407981  0.27747647
   0.14960474  0.43937604  0.10248617
   0.14960474  0.66311013  0.56062396
   0.14960474  0.89751383  0.33688987
   0.19751092  0.53082990  0.24296737
   0.19751092  0.71213748  0.46917010
   0.19751092  0.75703263  0.28786252
   0.21731122  0.50360549  0.16050427
   0.21731122  0.65689878  0.49639451
   0.21731122  0.83949573  0.34310122
   0.30931168  0.53939660  0.13481842
   0.30931168  0.59542182  0.46060340
   0.30931168  0.86518158  0.40457818
   0.41523527  0.56383298  0.17691119
   0.41523527  0.61307820  0.43616702
   0.41523527  0.82308881  0.38692180
   0.29502802  0.54709671  0.06568986
   0.29502802  0.51859415  0.45290329
   0.29502802  0.93431014  0.48140585
   0.38587556  0.57329693  0.03654403
   0.38587556  0.46324710  0.42670307
   0.38587556  0.96345597  0.53675290
   0.50523395  0.59153937  0.14853774
   0.50523395  0.55699837  0.40846063
   0.50523395  0.85146226  0.44300163
   0.49296446  0.59381124  0.07661483
   0.49296446  0.48280360  0.40618876
   0.49296446  0.92338517  0.51719640
   0.59560454  0.61120540  0.03974037
   0.59560454  0.42853497  0.38879460
   0.59560454  0.96025963  0.57146503
   0.77896297  0.81467877  0.01694666
   0.77896297  0.20226688  0.18532023
   0.77896297  0.98305334  0.79773312
   0.67561706  0.71402092  0.92570014
   0.67561706  0.21168022  0.28597908
   0.67561706  0.07429986  0.78831978
   0.65503719  0.77849635  0.91468793
   0.65503719  0.13619158  0.22150365
   0.65503719  0.08531207  0.86380842
   0.72474622  0.92183410  0.98662198
   0.72474622  0.06478688  0.07816590
   0.72474622  0.01337802  0.93521312
   0.72489720  0.98637245  0.06606713
   0.72489720  0.07969568  0.01362755
   0.72489720  0.93393287  0.92030432
   0.83876455  0.51333831  0.87447479
   0.83876455  0.36113748  0.48666169
   0.83876455  0.12552521  0.63886252
   0.99501677  0.54101060  0.94843487
   0.99501677  0.40742427  0.45898940
   0.99501677  0.05156513  0.59257573
   0.01856130  0.47190651  0.87665267
   0.01856230  0.40474615  0.52809349
   0.01856130  0.12334733  0.59525385
   0.90919288  0.39305057  0.74723774
   0.90919288  0.35418717  0.60694943
   0.90919288  0.25276226  0.64581283
   0.90902784  0.31207316  0.72775052
   0.90902784  0.41567736  0.68792684
   0.90902784  0.27224948  0.58432264
   0.88744479  0.09930578  0.31961970
   0.88744479  0.22031392  0.90069422
   0.88744479  0.68038030  0.77968608
   0.98250696  0.12276553  0.28159895
   0.98250696  0.15883341  0.87723447
   0.98250696  0.71840105  0.84116659
   0.03824842  0.19743022  0.32704689
   0.03824842  0.12961667  0.80256978
   0.03824842  0.67295311  0.87038333
   0.01475951  0.07233552  0.20045094
   0.01475951  0.12811542  0.92766448
   0.01475951  0.79954906  0.87188458
   0.10048785  0.09668080  0.16559600
   0.10048785  0.06891520  0.90331920
   0.10048785  0.83440400  0.93108480
   0.12239640  0.22224018  0.29196752
   0.12239640  0.06972734  0.77775982
   0.12239640  0.70803248  0.93027266
   0.15505166  0.17251895  0.21043773
   0.15505166  0.03791878  0.82748105
   0.15505166  0.78956227  0.96208122
   0.24442875  0.20080634  0.17489513
   0.24442875  0.97408879  0.79919366
   0.24442875  0.82510487  0.02591121
   0.25017283  0.28335622  0.19832849
   0.25017283  0.91497227  0.71664378
   0.25017283  0.80167151  0.08502773
   0.32668169  0.14768459  0.11896366
   0.32668169  0.97128007  0.85231541
   0.32668169  0.88103634  0.02871993
   0.41320303  0.17678606  0.08910224
   0.41320303  0.91231617  0.82321394
   0.41320303  0.91089776  0.08768383
   0.33557545  0.31222974  0.16792340
   0.33557545  0.85569365  0.68777026
   0.33557545  0.83207660  0.14430635
   0.41872266  0.25938565  0.11351290
   0.41872366  0.85412725  0.74061435
   0.41872366  0.88648710  0.14587275
   0.51055940  0.29320318  0.08340382
   0.51055940  0.79020165  0.70679682
   0.51055940  0.91659618  0.20979835
   0.74368127  0.46253157  0.15096933
   0.74368127  0.68843776  0.53746843
   0.74368127  0.84903067  0.31156224
   0.83267016  0.45358061  0.04554567
   0.83267016  0.59196506  0.54641939
   0.83267016  0.95445433  0.40803494
   0.85943585  0.52832911  0.10938544
   0.85943585  0.58105633  0.47167089
   0.85943585  0.89061456  0.41894367
   0.80368746  0.60055566  0.25568087
   0.80368746  0.65512521  0.39944434
   0.80368746  0.74431913  0.34487479
   0.80372568  0.58774274  0.32157793
   0.80372568  0.73383518  0.41225726
   0.80372568  0.67842207  0.26616482
   0.51425317  0.38207684  0.94557591
   0.51425317  0.56349907  0.61792316
   0.51425317  0.05442409  0.43650093
   0.48889766  0.39604595  0.88350991
   0.48889766  0.48746296  0.60395405
   0.48889766  0.11649009  0.51253704
   0.62843465  0.30295366  0.84501174
   0.62843465  0.54205808  0.69704634
   0.62843465  0.15498826  0.45794192
   0.56424976  0.33885918  0.74220433
   0.56424976  0.40334514  0.66114082
   0.56424976  0.25779567  0.59665486
   0.56419270  0.26258358  0.67237143
   0.56419270  0.40978785  0.73741642
   0.56419270  0.32762857  0.59021215
   0.75326706  0.73733838  0.98915687
   0.75326706  0.25181849  0.26266162
   0.75326706  0.01084313  0.74818151
   0.72096301  0.84177797  0.97304315
   0.72096301  0.13126518  0.15822203
   0.72096301  0.02695685  0.86873482
   0.88298197  0.56558068  0.94608285
   0.88298197  0.38050217  0.43441932
   0.88298197  0.05391715  0.61949783
   0.91857694  0.45512359  0.83010045
   0.91857694  0.37497687  0.54487641
   0.91857694  0.16989955  0.62502313
   0.76031126  0.41391080  0.07237003
   0.76031126  0.65845823  0.58608920
   0.76031126  0.92762997  0.34154177
   0.80300744  0.53307126  0.17602344
   0.80300744  0.64295318  0.46692874
   0.80300744  0.82397656  0.35704682
   0.60172588  0.32463316  0.92080129
   0.60172588  0.59616813  0.67536684
   0.60172588  0.07919871  0.40383187
   0.56107373  0.34503570  0.81948975
   0.56107273  0.47445505  0.65496530
   0.56107273  0.18051025  0.52554495
   0.67827447  0.65205397  0.09003618
   0.67827447  0.43798121  0.34794603
   0.67827447  0.90996382  0.56201879
   0.59884889  0.58422143  0.96462548
   0.59884889  0.38040405  0.41577857
   0.59884889  0.03537452  0.61959595
   0.94437845  0.41744217  0.30919676
   0.94437845  0.89175459  0.58255883
   0.94437845  0.69080324  0.10824541
   0.89136986  0.33689479  0.17923009
   0.89136986  0.84233529  0.66310521
   0.89136986  0.82076991  0.15766471
   0.50960110  0.36653723  0.10325813
   0.50960110  0.73671990  0.63346277
   0.50960110  0.89674187  0.26328010
   0.58993955  0.24262107  0.03599969
   0.58993955  0.79337862  0.75737893
   0.58993955  0.96400031  0.20662138
   0.82552836  0.03848247  0.26873335
   0.82552836  0.23025088  0.96151753
   0.82552836  0.73126665  0.76974912
   0.87172819  0.13865054  0.39518267
   0.87172819  0.25653213  0.86134946
   0.87172819  0.60481733  0.74346787
unknown system                          
           1
    -0.000000   -0.000000  -11.511575
    -9.534081  -16.513514    0.000000
    -9.534081   16.513514   -0.000000
   Zn   H    C    N    O 
   6  96 144  24  24
Direct configuration=    20
   0.80968373  0.67037908  0.03513650
   0.80968373  0.36475742  0.32962092
   0.80968373  0.96486350  0.63524258
   0.69192222  0.30376339  0.00148971
   0.69192222  0.69772732  0.69623661
   0.69192222  0.99851029  0.30227268
   0.09755947  0.51654349  0.33044849
   0.09755947  0.81390500  0.48345651
   0.09755947  0.66955151  0.18609500
   0.01266833  0.35297177  0.08130271
   0.01266833  0.72833094  0.64702823
   0.01266933  0.91869729  0.27166906
   0.16656511  0.41586713  0.03818588
   0.16656511  0.62231775  0.58413287
   0.16656511  0.96181412  0.37768225
   0.24874376  0.58069969  0.28879093
   0.24874376  0.70809124  0.41930031
   0.24874376  0.71120907  0.29190876
   0.42879875  0.55652259  0.22948078
   0.42879875  0.67295819  0.44347741
   0.42879875  0.77051922  0.32704181
   0.21140162  0.53138934  0.03463279
   0.21140162  0.50324245  0.46861066
   0.21140162  0.96536721  0.49675755
   0.37600650  0.57755300  0.98181119
   0.37600650  0.40425820  0.42244700
   0.37600650  0.01818881  0.59574280
   0.58808932  0.60887847  0.17999503
   0.58808932  0.57111657  0.39112153
   0.58808932  0.82000497  0.42888343
   0.83670310  0.85055426  0.06724670
   0.83670310  0.21669244  0.14944574
   0.83670310  0.93275330  0.78330756
   0.63745249  0.65414772  0.89597197
   0.63745249  0.24182425  0.34585228
   0.63745249  0.10402803  0.75817575
   0.60145162  0.78591373  0.87197605
   0.60145162  0.08606232  0.21408627
   0.60145162  0.12802395  0.91393768
   0.72122564  0.97601419  0.11726558
   0.72122564  0.14125139  0.02398581
   0.72122564  0.88273442  0.85874861
   0.75110352  0.51491354  0.85476626
   0.75110352  0.33985272  0.48508646
   0.75110352  0.14523374  0.66014728
   0.04882977  0.57552215  0.00154193
   0.04882977  0.42601978  0.42447785
   0.04882977  0.99845807  0.57398022
   0.09479473  0.43363373  0.85380337
   0.09479473  0.42016965  0.56636627
   0.09479473  0.14619663  0.57983035
   0.91117335  0.29495054  0.77477529
   0.91117335  0.47982476  0.70504946
   0.91117335  0.22522471  0.52017524
   0.01390409  0.23583947  0.39050105
   0.01390409  0.15466258  0.76416053
   0.01390409  0.60949895  0.84533742
   0.97162857  0.01413097  0.16552974
   0.97162857  0.15139777  0.98586903
   0.97162857  0.83447126  0.84860223
   0.12429036  0.05728901  0.10244155
   0.12429036  0.04515253  0.94271099
   0.12429036  0.89755845  0.95484747
   0.16579317  0.28056124  0.32832135
   0.16579317  0.04776011  0.71943876
   0.16579317  0.67167865  0.95223989
   0.18566840  0.32512286  0.24013331
   0.18566840  0.91501144  0.67487714
   0.18566840  0.75986669  0.08498856
   0.32488552  0.08370269  0.10119112
   0.32488552  0.01748843  0.91629731
   0.32488552  0.89880888  0.98251157
   0.47872200  0.13593481  0.04735332
   0.47872200  0.91141850  0.86406519
   0.47872200  0.95264668  0.08858150
   0.33934239  0.37614933  0.18558173
   0.33934239  0.80943341  0.62385067
   0.33934239  0.81441827  0.19056659
   0.68857852  0.45008044  0.18960619
   0.68857852  0.73952675  0.54991956
   0.68857852  0.81039381  0.26047325
   0.86087492  0.42468115  0.98304577
   0.86087492  0.55836462  0.57531885
   0.86087492  0.01695423  0.44163538
   0.91198741  0.57793513  0.11467400
   0.91198741  0.53673787  0.42206487
   0.91198741  0.88532700  0.46326213
   0.80301967  0.52688840  0.31303306
   0.80301967  0.78614466  0.47311160
   0.80301967  0.68696694  0.21385534
   0.47802033  0.40859333  0.00604317
   0.47802033  0.59745084  0.59140667
   0.47802033  0.99395683  0.40255016
   0.42876567  0.43703310  0.87878112
   0.42876567  0.44174702  0.56296690
   0.42876567  0.12121888  0.55825298
   0.69961194  0.26300563  0.81099040
   0.69961194  0.54798377  0.73699437
   0.69961194  0.18900960  0.45201623
   0.56126627  0.20744784  0.67626727
   0.56126627  0.46881943  0.79255216
   0.56126627  0.32373273  0.53118057
   0.95435641  0.39103491  0.23147901
   0.95435641  0.84044410  0.60896509
   0.95435641  0.76852099  0.15955590
   0.04557045  0.43097128  0.20808899
   0.04557045  0.77711871  0.56902872
   0.04557045  0.79191101  0.22288129
   0.11237898  0.49510129  0.26649108
   0.11237898  0.77138979  0.50489871
   0.11237898  0.73350892  0.22861021
   0.06491610  0.40334328  0.12580890
   0.06491610  0.72246562  0.59665672
   0.06491610  0.87419110  0.27753438
   0.14959113  0.43926397  0.10233434
   0.14959113  0.66307037  0.56073603
   0.14959113  0.89766566  0.33692963
   0.19734568  0.53077319  0.24282021
   0.19734568  0.71204701  0.46922681
   0.19734568  0.75717979  0.28795299
   0.21723950  0.50356443  0.16038932
   0.21723950  0.65682489  0.49643557
   0.21723950  0.83961068  0.34317511
   0.30926762  0.53939186  0.13478929
   0.30926762  0.59539743  0.46060814
   0.30926762  0.86521071  0.40460257
   0.41509668  0.56374894  0.17683104
   0.41509668  0.61308210  0.43625106
   0.41509668  0.82316896  0.38691790
   0.29498261  0.54709673  0.06566093
   0.29498261  0.51856521  0.45290327
   0.29498261  0.93433907  0.48143479
   0.38574076  0.57322256  0.03646891
   0.38574076  0.46324636  0.42677744
   0.38574076  0.96353109  0.53675364
   0.50506984  0.59151447  0.14850853
   0.50506984  0.55699406  0.40848553
   0.50506984  0.85149147  0.44300594
   0.49286480  0.59376271  0.07654164
   0.49286480  0.48277893  0.40623729
   0.49286480  0.92345836  0.51722107
   0.59555299  0.61111966  0.03967996
   0.59555299  0.42856031  0.38888034
   0.59555299  0.96032004  0.57143969
   0.77889216  0.81469435  0.01688509
   0.77889216  0.20218973  0.18530465
   0.77889216  0.98311491  0.79781027
   0.67541439  0.71401048  0.92569801
   0.67541439  0.21168853  0.28598952
   0.67541439  0.07430199  0.78831147
   0.65480844  0.77842090  0.91465231
   0.65480844  0.13623142  0.22157910
   0.65480844  0.08534769  0.86376858
   0.72456082  0.92180006  0.98657228
   0.72456082  0.06477122  0.07819994
   0.72456082  0.01342772  0.93522878
   0.72468420  0.98636121  0.06605359
   0.72468420  0.07969339  0.01363879
   0.72468420  0.93394641  0.92030661
   0.83887993  0.51338480  0.87441120
   0.83887993  0.36102741  0.48661520
   0.83887993  0.12558880  0.63897259
   0.99493738  0.54085435  0.94857324
   0.99493738  0.40771889  0.45914565
   0.99493738  0.05142676  0.59228111
   0.01845942  0.47174940  0.87686181
   0.01846042  0.40511241  0.52825060
   0.01845942  0.12313819  0.59488759
   0.90941571  0.39299555  0.74725524
   0.90941571  0.35425970  0.60700445
   0.90941571  0.25274476  0.64574030
   0.90920422  0.31202249  0.72771162
   0.90920422  0.41568912  0.68797751
   0.90920422  0.27228838  0.58431088
   0.88748029  0.09944078  0.31974020
   0.88748029  0.22029942  0.90055922
   0.88748029  0.68025980  0.77970058
   0.98263420  0.12293319  0.28180440
   0.98263420  0.15887121  0.87706681
   0.98263420  0.71819560  0.84112879
   0.03846152  0.19758199  0.32730872
   0.03846152  0.12972672  0.80241801
   0.03846152  0.67269128  0.87027328
   0.01494555  0.07249572  0.20064106
   0.01494555  0.12814534  0.92750428
   0.01494555  0.79935894  0.87185466
   0.10059465  0.09683266  0.16579977
   0.10059465  0.06896711  0.90316734
   0.10059465  0.83420023  0.93103289
   0.12268814  0.22232805  0.29222496
   0.12268814  0.06989690  0.77767195
   0.12268814  0.70777504  0.93010310
   0.15520154  0.17261948  0.21070614
   0.15520154  0.03808666  0.82738052
   0.15520154  0.78929386  0.96191334
   0.24457634  0.20090067  0.17506378
   0.24457634  0.97416312  0.79909933
   0.24457634  0.82493622  0.02583688
   0.25042449  0.28344142  0.19845578
   0.25042449  0.91501437  0.71655858
   0.25042449  0.80154422  0.08498563
   0.32678901  0.14774505  0.11907104
   0.32678901  0.97132699  0.85225495
   0.32678901  0.88092896  0.02867301
   0.41331433  0.17684348  0.08920312
   0.41331433  0.91235963  0.82315652
   0.41331433  0.91079688  0.08764037
   0.33568087  0.31229448  0.16797529
   0.33568087  0.85568081  0.68770552
   0.33568087  0.83202471  0.14431919
   0.41888282  0.25947731  0.11358852
   0.41888382  0.85411121  0.74052269
   0.41888382  0.88641148  0.14588879
   0.51071404  0.29318222  0.08351062
   0.51071404  0.79032940  0.70681778
   0.51071404  0.91648938  0.20967060
   0.74368431  0.46250798  0.15098135
   0.74368431  0.68847337  0.53749202
   0.74368431  0.84901865  0.31152663
   0.83276491  0.45358804  0.04555006
   0.83276491  0.59196202  0.54641196
   0.83276491  0.95444994  0.40803798
   0.85944786  0.52831227  0.10935525
   0.85944786  0.58104298  0.47168773
   0.85944786  0.89064475  0.41895702
   0.80360121  0.60054558  0.25565646
   0.80360121  0.65511088  0.39945442
   0.80360121  0.74434354  0.34488912
   0.80363690  0.58774864  0.32158643
   0.80363690  0.73383779  0.41225136
   0.80363690  0.67841357  0.26616221
   0.51415876  0.38203114  0.94557918
   0.51415876  0.56354805  0.61796886
   0.51415876  0.05442082  0.43645195
   0.48877689  0.39599183  0.88354236
   0.48877689  0.48754953  0.60400817
   0.48877689  0.11645764  0.51245047
   0.62840224  0.30293651  0.84497214
   0.62840224  0.54203562  0.69706349
   0.62840224  0.15502786  0.45796438
   0.56408008  0.33888699  0.74222615
   0.56408008  0.40333917  0.66111301
   0.56408008  0.25777385  0.59666083
   0.56403719  0.26257578  0.67232986
   0.56403719  0.40975408  0.73742422
   0.56403719  0.32767014  0.59024592
   0.75312762  0.73732374  0.98908751
   0.75312762  0.25176377  0.26267626
   0.75312762  0.01091249  0.74823623
   0.72077167  0.84173455  0.97296252
   0.72077167  0.13122797  0.15826545
   0.72077167  0.02703748  0.86877203
   0.88302208  0.56556982  0.94610087
   0.88302208  0.38053104  0.43443018
   0.88302208  0.05389913  0.61946896
   0.91868444  0.45507393  0.83015002
   0.91868444  0.37507609  0.54492607
   0.91868444  0.16984998  0.62492391
   0.76046708  0.41390100  0.07236387
   0.76046708  0.65846188  0.58609900
   0.76046708  0.92763613  0.34153812
   0.80300939  0.53307822  0.17601484
   0.80300939  0.64293762  0.46692178
   0.80300939  0.82398516  0.35706238
   0.60165370  0.32464269  0.92080152
   0.60165370  0.59615883  0.67535731
   0.60165370  0.07919848  0.40384117
   0.56096265  0.34499809  0.81948034
   0.56096165  0.47448325  0.65500291
   0.56096165  0.18051966  0.52551675
   0.67813675  0.65211765  0.08997944
   0.67813675  0.43786078  0.34788235
   0.67813675  0.91002056  0.56213922
   0.59882835  0.58400380  0.96452317
   0.59882835  0.38051936  0.41599620
   0.59882835  0.03547683  0.61948064
   0.94414323  0.41735157  0.30898685
   0.94414323  0.89163529  0.58264943
   0.94414323  0.69101315  0.10836471
   0.89164448  0.33666897  0.17906443
   0.89164448  0.84239546  0.66333103
   0.89164448  0.82093557  0.15760454
   0.50972086  0.36655533  0.10333881
   0.50972086  0.73678248  0.63344467
   0.50972086  0.89666119  0.26321752
   0.59009623  0.24271501  0.03613966
   0.59009623  0.79342465  0.75728499
   0.59009623  0.96386034  0.20657535
   0.82541307  0.03871905  0.26886958
   0.82541307  0.23015052  0.96128095
   0.82541307  0.73113042  0.76984948
   0.87183481  0.13872815  0.39533650
   0.87183481  0.25660834  0.86127185
   0.87183481  0.60466350  0.74339166
unknown system                          
           1
    -0.000000   -0.000000  -11.512177
    -9.534168  -16.513663    0.000000
    -9.534168   16.513663   -0.000000
   Zn   H    C    N    O 
   6  96 144  24  24
Direct configuration=    21
   0.80969948  0.67038335  0.03513154
   0.80969948  0.36474819  0.32961665
   0.80969948  0.96486846  0.63525181
   0.69191169  0.30379473  0.00150070
   0.69191169  0.69770697  0.69620527
   0.69191169  0.99849930  0.30229303
   0.09757557  0.51656660  0.33047139
   0.09757557  0.81390480  0.48343340
   0.09757557  0.66952861  0.18609520
   0.01267372  0.35298652  0.08133464
   0.01267372  0.72834812  0.64701348
   0.01267472  0.91866536  0.27165188
   0.16653778  0.41589193  0.03820820
   0.16653778  0.62231527  0.58410807
   0.16653778  0.96179180  0.37768473
   0.24881453  0.58068335  0.28881941
   0.24881453  0.70813606  0.41931665
   0.24881453  0.71118059  0.29186394
   0.42881339  0.55657052  0.22951843
   0.42881339  0.67294791  0.44342948
   0.42881339  0.77048157  0.32705209
   0.21141484  0.53137013  0.03461962
   0.21141484  0.50324849  0.46862987
   0.21141484  0.96538038  0.49675151
   0.37601982  0.57759033  0.98185602
   0.37601982  0.40426570  0.42240967
   0.37601982  0.01814398  0.59573530
   0.58812047  0.60888281  0.18000469
   0.58812047  0.57112188  0.39111719
   0.58812047  0.81999531  0.42887812
   0.83668836  0.85054357  0.06726394
   0.83668836  0.21672037  0.14945643
   0.83668836  0.93273606  0.78327963
   0.63748582  0.65414462  0.89595051
   0.63748582  0.24180590  0.34585538
   0.63748582  0.10404949  0.75819410
   0.60149219  0.78593019  0.87197023
   0.60149219  0.08604004  0.21406981
   0.60149219  0.12802977  0.91395996
   0.72127225  0.97603031  0.11727906
   0.72127225  0.14124876  0.02396969
   0.72127225  0.88272094  0.85875124
   0.75105825  0.51488140  0.85481838
   0.75105825  0.33993698  0.48511860
   0.75105825  0.14518162  0.66006302
   0.04888023  0.57557354  0.00148111
   0.04888023  0.42590757  0.42442646
   0.04888023  0.99851889  0.57409243
   0.09483214  0.43370313  0.85373234
   0.09483214  0.42002921  0.56629687
   0.09483214  0.14626766  0.57997079
   0.91112427  0.29497509  0.77479353
   0.91112427  0.47981845  0.70502491
   0.91112427  0.22520647  0.52018155
   0.01385611  0.23580603  0.39043578
   0.01385611  0.15463075  0.76419397
   0.01385611  0.60956422  0.84536925
   0.97159289  0.01410911  0.16548615
   0.97159289  0.15137605  0.98589089
   0.97159289  0.83451485  0.84862395
   0.12427997  0.05723564  0.10238990
   0.12427997  0.04515427  0.94276436
   0.12427997  0.89761010  0.95484573
   0.16568712  0.28056986  0.32825135
   0.16568712  0.04768149  0.71943014
   0.16568712  0.67174865  0.95231851
   0.18558449  0.32510301  0.24008295
   0.18558449  0.91498094  0.67489699
   0.18558449  0.75991705  0.08501906
   0.32487928  0.08367917  0.10116284
   0.32487928  0.01748367  0.91632083
   0.32487928  0.89883716  0.98251633
   0.47868665  0.13593035  0.04732055
   0.47868665  0.91139020  0.86406965
   0.47868665  0.95267945  0.08860980
   0.33932806  0.37612648  0.18558261
   0.33932806  0.80945713  0.62387352
   0.33932806  0.81441739  0.19054287
   0.68858684  0.45009149  0.18959704
   0.68858684  0.73950655  0.54990851
   0.68858684  0.81040296  0.26049345
   0.86085924  0.42468527  0.98302457
   0.86085924  0.55833930  0.57531473
   0.86085924  0.01697543  0.44166070
   0.91199983  0.57794279  0.11466505
   0.91199983  0.53672126  0.42205721
   0.91199983  0.88533595  0.46327874
   0.80302217  0.52688624  0.31303508
   0.80302217  0.78614883  0.47311376
   0.80302217  0.68696492  0.21385117
   0.47802578  0.40861774  0.00604725
   0.47802578  0.59743052  0.59138226
   0.47802578  0.99395275  0.40257048
   0.42878818  0.43705488  0.87877489
   0.42878818  0.44171901  0.56294512
   0.42878818  0.12122511  0.55828099
   0.69959472  0.26300442  0.81100658
   0.69959472  0.54800116  0.73699558
   0.69959472  0.18899342  0.45199884
   0.56130361  0.20745181  0.67627633
   0.56130361  0.46882452  0.79254819
   0.56130361  0.32372367  0.53117548
   0.95434043  0.39106111  0.23151441
   0.95434043  0.84045330  0.60893889
   0.95434043  0.76848559  0.15954670
   0.04558756  0.43099855  0.20810870
   0.04558756  0.77711115  0.56900145
   0.04558756  0.79189130  0.22288885
   0.11241100  0.49512522  0.26651372
   0.11241100  0.77138850  0.50487478
   0.11241100  0.73348628  0.22861150
   0.06491423  0.40335648  0.12583643
   0.06491423  0.72247994  0.59664352
   0.06491423  0.87416357  0.27752006
   0.14959450  0.43929169  0.10237189
   0.14959450  0.66308020  0.56070831
   0.14959450  0.89762811  0.33691980
   0.19738656  0.53078722  0.24285660
   0.19738656  0.71206939  0.46921278
   0.19738656  0.75714340  0.28793061
   0.21725724  0.50357458  0.16041775
   0.21725724  0.65684317  0.49642542
   0.21725724  0.83958225  0.34315683
   0.30927852  0.53939304  0.13479650
   0.30927852  0.59540346  0.46060696
   0.30927852  0.86520350  0.40459654
   0.41513096  0.56376973  0.17685086
   0.41513096  0.61308113  0.43623027
   0.41513096  0.82314914  0.38691887
   0.29499384  0.54709672  0.06566809
   0.29499384  0.51857236  0.45290328
   0.29499384  0.93433191  0.48142764
   0.38577410  0.57324095  0.03648749
   0.38577410  0.46324654  0.42675905
   0.38577410  0.96351251  0.53675346
   0.50511043  0.59152063  0.14851576
   0.50511043  0.55699513  0.40847937
   0.50511043  0.85148424  0.44300487
   0.49288945  0.59377471  0.07655974
   0.49288945  0.48278503  0.40622529
   0.49288945  0.92344026  0.51721497
   0.59556574  0.61114086  0.03969490
   0.59556574  0.42855404  0.38885914
   0.59556574  0.96030510  0.57144596
   0.77890968  0.81469050  0.01690031
   0.77890968  0.20220881  0.18530850
   0.77890968  0.98309969  0.79779119
   0.67546452  0.71401306  0.92569854
   0.67546452  0.21168647  0.28598694
   0.67546452  0.07430146  0.78831353
   0.65486503  0.77843956  0.91466112
   0.65486503  0.13622156  0.22156044
   0.65486503  0.08533888  0.86377844
   0.72460668  0.92180848  0.98658457
   0.72460668  0.06477509  0.07819152
   0.72460668  0.01341543  0.93522491
   0.72473689  0.98636399  0.06605694
   0.72473689  0.07969395  0.01363601
   0.72473689  0.93394306  0.92030605
   0.83885139  0.51337330  0.87442693
   0.83885139  0.36105463  0.48662670
   0.83885139  0.12557307  0.63894537
   0.99495702  0.54089299  0.94853902
   0.99495702  0.40764603  0.45910701
   0.99495702  0.05146098  0.59235397
   0.01848462  0.47178825  0.87681008
   0.01848562  0.40502183  0.52821175
   0.01848462  0.12318992  0.59497817
   0.90936059  0.39300915  0.74725091
   0.90936059  0.35424176  0.60699085
   0.90936059  0.25274909  0.64575824
   0.90916059  0.31203502  0.72772124
   0.90916059  0.41568621  0.68796498
   0.90916059  0.27227876  0.58431379
   0.88747151  0.09940739  0.31971040
   0.88747151  0.22030301  0.90059261
   0.88747151  0.68028960  0.77969699
   0.98260273  0.12289173  0.28175359
   0.98260273  0.15886186  0.87710827
   0.98260273  0.71824641  0.84113814
   0.03840880  0.19754446  0.32724396
   0.03840880  0.12969951  0.80245554
   0.03840880  0.67275604  0.87030049
   0.01489953  0.07245610  0.20059404
   0.01489953  0.12813794  0.92754390
   0.01489953  0.79940596  0.87186206
   0.10056823  0.09679510  0.16574938
   0.10056823  0.06895427  0.90320490
   0.10056823  0.83425062  0.93104573
   0.12261597  0.22230632  0.29216129
   0.12261597  0.06985497  0.77769368
   0.12261597  0.70783871  0.93014503
   0.15516447  0.17259461  0.21063975
   0.15516447  0.03804514  0.82740539
   0.15516447  0.78936025  0.96195486
   0.24453983  0.20087734  0.17502207
   0.24453983  0.97414474  0.79912266
   0.24453983  0.82497793  0.02585526
   0.25036224  0.28342034  0.19842430
   0.25036224  0.91500396  0.71657966
   0.25036224  0.80157570  0.08499604
   0.32676246  0.14773009  0.11904448
   0.32676246  0.97131539  0.85226991
   0.32676246  0.88095552  0.02868461
   0.41328680  0.17682928  0.08917817
   0.41328680  0.91234888  0.82317072
   0.41328680  0.91082183  0.08765112
   0.33565479  0.31227847  0.16796246
   0.33565479  0.85568399  0.68772153
   0.33565479  0.83203754  0.14431601
   0.41884320  0.25945464  0.11356982
   0.41884420  0.85411518  0.74054536
   0.41884420  0.88643018  0.14588482
   0.51067579  0.29318741  0.08348421
   0.51067579  0.79029780  0.70681259
   0.51067579  0.91651579  0.20970220
   0.74368356  0.46251381  0.15097838
   0.74368356  0.68846457  0.53748619
   0.74368356  0.84902162  0.31153543
   0.83274147  0.45358620  0.04554897
   0.83274147  0.59196277  0.54641380
   0.83274147  0.95445103  0.40803723
   0.85944489  0.52831644  0.10936272
   0.85944489  0.58104628  0.47168356
   0.85944489  0.89063728  0.41895372
   0.80362254  0.60054808  0.25566250
   0.80362254  0.65511442  0.39945192
   0.80362254  0.74433750  0.34488558
   0.80365886  0.58774718  0.32158432
   0.80365886  0.73383714  0.41225282
   0.80365886  0.67841568  0.26616286
   0.51418211  0.38204244  0.94557837
   0.51418211  0.56353593  0.61795756
   0.51418211  0.05442163  0.43646407
   0.48880677  0.39600521  0.88353433
   0.48880677  0.48752812  0.60399479
   0.48880677  0.11646567  0.51247188
   0.62841026  0.30294076  0.84498193
   0.62841026  0.54204118  0.69705924
   0.62841026  0.15501807  0.45795882
   0.56412205  0.33888011  0.74222075
   0.56412205  0.40334064  0.66111989
   0.56412205  0.25777925  0.59665936
   0.56407566  0.26257771  0.67234014
   0.56407566  0.40976243  0.73742229
   0.56407566  0.32765986  0.59023757
   0.75316211  0.73732736  0.98910467
   0.75316211  0.25177731  0.26267264
   0.75316211  0.01089533  0.74822269
   0.72081900  0.84174528  0.97298246
   0.72081900  0.13123717  0.15825472
   0.72081900  0.02701754  0.86876283
   0.88301216  0.56557251  0.94609641
   0.88301216  0.38052390  0.43442749
   0.88301216  0.05390359  0.61947610
   0.91865785  0.45508621  0.83013776
   0.91865785  0.37505155  0.54491379
   0.91865785  0.16986224  0.62494845
   0.76042854  0.41390342  0.07236540
   0.76042854  0.65846097  0.58609658
   0.76042854  0.92763460  0.34153903
   0.80300891  0.53307650  0.17601697
   0.80300891  0.64294147  0.46692350
   0.80300891  0.82398303  0.35705853
   0.60167155  0.32464034  0.92080146
   0.60167155  0.59616113  0.67535966
   0.60167155  0.07919854  0.40383887
   0.56099012  0.34500739  0.81948267
   0.56098912  0.47447628  0.65499361
   0.56098912  0.18051733  0.52552372
   0.67817082  0.65210190  0.08999347
   0.67817082  0.43789057  0.34789810
   0.67817082  0.91000653  0.56210943
   0.59883343  0.58405763  0.96454847
   0.59883343  0.38049084  0.41594237
   0.59883343  0.03545153  0.61950916
   0.94420141  0.41737397  0.30903877
   0.94420141  0.89166479  0.58262703
   0.94420141  0.69096123  0.10833521
   0.89157655  0.33672482  0.17910540
   0.89157655  0.84238058  0.66327518
   0.89157655  0.82089460  0.15761942
   0.50969123  0.36655085  0.10331885
   0.50969123  0.73676700  0.63344915
   0.50969123  0.89668115  0.26323300
   0.59005747  0.24269177  0.03610504
   0.59005747  0.79341327  0.75730823
   0.59005747  0.96389496  0.20658673
   0.82544159  0.03866054  0.26883588
   0.82544159  0.23017535  0.96133946
   0.82544159  0.73116412  0.76982465
   0.87180844  0.13870896  0.39529845
   0.87180844  0.25658949  0.86129104
   0.87180844  0.60470155  0.74341051
unknown system                          
           1
    -0.000000   -0.000000  -11.512146
    -9.534339  -16.513959    0.000000
    -9.534339   16.513959   -0.000000
   Zn   H    C    N    O 
   6  96 144  24  24
Direct configuration=    22
   0.80969249  0.67038323  0.03512946
   0.80969249  0.36474623  0.32961677
   0.80969249  0.96487054  0.63525377
   0.69192704  0.30375793  0.00148435
   0.69192704  0.69772742  0.69624207
   0.69192704  0.99851565  0.30227258
   0.09753123  0.51653937  0.33045096
   0.09753123  0.81391159  0.48346063
   0.09753123  0.66954904  0.18608841
   0.01268382  0.35296325  0.08129265
   0.01268382  0.72832940  0.64703675
   0.01268482  0.91870735  0.27167060
   0.16657447  0.41583971  0.03814821
   0.16657447  0.62230751  0.58416029
   0.16657447  0.96185179  0.37769249
   0.24868466  0.58068907  0.28876331
   0.24868466  0.70807424  0.41931093
   0.24868466  0.71123669  0.29192576
   0.42878453  0.55649893  0.22946126
   0.42878453  0.67296233  0.44350107
   0.42878453  0.77053874  0.32703767
   0.21137899  0.53139401  0.03462555
   0.21137899  0.50323054  0.46860599
   0.21137899  0.96537445  0.49676946
   0.37599128  0.57754098  0.98179815
   0.37599128  0.40425717  0.42245902
   0.37599128  0.01820185  0.59574383
   0.58808643  0.60887549  0.17999318
   0.58808643  0.57111769  0.39112451
   0.58808643  0.82000682  0.42888231
   0.83670461  0.85055655  0.06723422
   0.83670461  0.21667767  0.14944345
   0.83670461  0.93276578  0.78332233
   0.63741674  0.65413510  0.89598310
   0.63741674  0.24184800  0.34586490
   0.63741674  0.10401690  0.75815200
   0.60141163  0.78590023  0.87197974
   0.60141163  0.08607951  0.21409977
   0.60141163  0.12802026  0.91392049
   0.72118436  0.97600348  0.11727057
   0.72118436  0.14126709  0.02399652
   0.72118436  0.88272943  0.85873291
   0.75115864  0.51493880  0.85473464
   0.75115864  0.33979584  0.48506120
   0.75115864  0.14526536  0.66020416
   0.04879033  0.57548501  0.00158007
   0.04879033  0.42609506  0.42451499
   0.04879033  0.99841993  0.57390494
   0.09473901  0.43359592  0.85386705
   0.09473901  0.42027113  0.56640408
   0.09473901  0.14613295  0.57972887
   0.91120744  0.29494541  0.77476792
   0.91120744  0.47982251  0.70505459
   0.91120744  0.22523208  0.52017749
   0.01393415  0.23586310  0.39055437
   0.01393415  0.15469226  0.76413690
   0.01393415  0.60944563  0.84530774
   0.97166061  0.01417685  0.16557234
   0.97166061  0.15139450  0.98582315
   0.97166061  0.83442866  0.84860550
   0.12430160  0.05732724  0.10248142
   0.12430160  0.04515418  0.94267276
   0.12430160  0.89751858  0.95484582
   0.16586555  0.28056288  0.32837109
   0.16586555  0.04780821  0.71943712
   0.16586555  0.67162891  0.95219179
   0.18571446  0.32514609  0.24016758
   0.18571446  0.91502249  0.67485391
   0.18571446  0.75983242  0.08497751
   0.32489345  0.08371073  0.10121414
   0.32489345  0.01750341  0.91628927
   0.32489345  0.89878586  0.98249659
   0.47872856  0.13594211  0.04737513
   0.47872856  0.91143303  0.86405789
   0.47872856  0.95262487  0.08856697
   0.33935871  0.37615310  0.18558311
   0.33935871  0.80943101  0.62384690
   0.33935871  0.81441689  0.19056899
   0.68856618  0.45007107  0.18961028
   0.68856618  0.73954021  0.54992893
   0.68856618  0.81038972  0.26045979
   0.86090189  0.42466652  0.98303176
   0.86090189  0.55836524  0.57533348
   0.86090189  0.01696824  0.44163476
   0.91197205  0.57792749  0.11467804
   0.91197205  0.53674955  0.42207251
   0.91197205  0.88532296  0.46325045
   0.80301139  0.52688378  0.31303813
   0.80301139  0.78615435  0.47311622
   0.80301139  0.68696187  0.21384565
   0.47800739  0.40858165  0.00606054
   0.47800739  0.59747989  0.59141835
   0.47800739  0.99393946  0.40252111
   0.42875264  0.43700935  0.87879092
   0.42875264  0.44178057  0.56299065
   0.42875264  0.12120908  0.55821943
   0.69961532  0.26300847  0.81098649
   0.69961532  0.54797702  0.73699153
   0.69961532  0.18901351  0.45202298
   0.56123952  0.20743713  0.67625732
   0.56123952  0.46882018  0.79256287
   0.56123952  0.32374268  0.53117982
   0.95432750  0.39099906  0.23145666
   0.95432750  0.84045761  0.60900094
   0.95432750  0.76854334  0.15954239
   0.04557556  0.43095874  0.20805786
   0.04557556  0.77710012  0.56904126
   0.04557556  0.79194214  0.22289988
   0.11238181  0.49508458  0.26646334
   0.11238181  0.77137877  0.50491542
   0.11238181  0.73353666  0.22862123
   0.06489201  0.40330548  0.12576201
   0.06489201  0.72245652  0.59669452
   0.06489201  0.87423799  0.27754348
   0.14958574  0.43924644  0.10231498
   0.14958574  0.66306854  0.56075356
   0.14958574  0.89768502  0.33693146
   0.19733899  0.53079319  0.24282113
   0.19733899  0.71202794  0.46920681
   0.19733899  0.75717887  0.28797206
   0.21719718  0.50356582  0.16040297
   0.21719718  0.65683716  0.49643418
   0.21719718  0.83959703  0.34316284
   0.30924555  0.53938864  0.13476414
   0.30924555  0.59537550  0.46061136
   0.30924555  0.86523586  0.40462450
   0.41510407  0.56373366  0.17684100
   0.41510407  0.61310735  0.43626634
   0.41510407  0.82315900  0.38689265
   0.29493785  0.54708042  0.06564364
   0.29493785  0.51856422  0.45291958
   0.29493785  0.93435636  0.48143578
   0.38572362  0.57321488  0.03641175
   0.38572362  0.46319686  0.42678512
   0.38572362  0.96358825  0.53680314
   0.50509134  0.59152591  0.14849408
   0.50509134  0.55696816  0.40847409
   0.50509134  0.85150592  0.44303184
   0.49284512  0.59374686  0.07655579
   0.49284512  0.48280893  0.40625314
   0.49284512  0.92344421  0.51719107
   0.59553957  0.61109849  0.03965700
   0.59553957  0.42855851  0.38890151
   0.59553957  0.96034300  0.57144149
   0.77887796  0.81468724  0.01687461
   0.77887796  0.20218637  0.18531176
   0.77887796  0.98312539  0.79781363
   0.67536695  0.71401028  0.92568874
   0.67536695  0.21167946  0.28598972
   0.67536695  0.07431126  0.78832054
   0.65477794  0.77842788  0.91465436
   0.65477794  0.13622647  0.22157212
   0.65477794  0.08534564  0.86377353
   0.72453125  0.92179722  0.98656473
   0.72453125  0.06476651  0.07820278
   0.72453125  0.01343527  0.93523349
   0.72465114  0.98635074  0.06605201
   0.72465114  0.07970227  0.01364926
   0.72465114  0.93394799  0.92029773
   0.83892350  0.51339009  0.87439467
   0.83892350  0.36100559  0.48660991
   0.83892350  0.12560533  0.63899441
   0.99491627  0.54085159  0.94862694
   0.99491627  0.40777535  0.45914841
   0.99491627  0.05137306  0.59222465
   0.01846196  0.47169928  0.87687349
   0.01846296  0.40517421  0.52830072
   0.01846196  0.12312651  0.59482579
   0.90945450  0.39298540  0.74726995
   0.90945450  0.35428455  0.60701460
   0.90945450  0.25273005  0.64571545
   0.90922533  0.31200894  0.72770378
   0.90922533  0.41569484  0.68799106
   0.90922533  0.27229622  0.58430516
   0.88748573  0.09947675  0.31978275
   0.88748573  0.22030600  0.90052325
   0.88748573  0.68021725  0.77969400
   0.98264082  0.12295873  0.28185851
   0.98264082  0.15889978  0.87704127
   0.98264082  0.71814149  0.84110022
   0.03852300  0.19759357  0.32734315
   0.03852300  0.12974958  0.80240643
   0.03852300  0.67265685  0.87025042
   0.01494318  0.07250820  0.20067119
   0.01494318  0.12816299  0.92749180
   0.01494318  0.79932881  0.87183701
   0.10063314  0.09684969  0.16582561
   0.10063314  0.06897592  0.90315031
   0.10063314  0.83417439  0.93102408
   0.12275384  0.22235573  0.29225721
   0.12275384  0.06990148  0.77764427
   0.12275384  0.70774279  0.93009852
   0.15524345  0.17264397  0.21075260
   0.15524345  0.03810863  0.82735603
   0.15524345  0.78924740  0.96189137
   0.24459435  0.20091145  0.17509223
   0.24459435  0.97418078  0.79908855
   0.24459435  0.82490777  0.02581922
   0.25041845  0.28345833  0.19851206
   0.25041845  0.91505373  0.71654167
   0.25041845  0.80148794  0.08494627
   0.32682046  0.14775577  0.11909441
   0.32682046  0.97133964  0.85224423
   0.32682046  0.88090559  0.02866036
   0.41336828  0.17685046  0.08921216
   0.41336828  0.91236170  0.82314954
   0.41336828  0.91078784  0.08763830
   0.33571676  0.31234297  0.16799904
   0.33571676  0.85565606  0.68765703
   0.33571676  0.83200096  0.14434394
   0.41888324  0.25946648  0.11361142
   0.41888424  0.85414494  0.74053352
   0.41888424  0.88638858  0.14585506
   0.51074602  0.29322910  0.08353419
   0.51074602  0.79030609  0.70677090
   0.51074602  0.91646581  0.20969391
   0.74368689  0.46250064  0.15097490
   0.74368689  0.68847425  0.53749936
   0.74368689  0.84902510  0.31152575
   0.83278730  0.45361871  0.04557026
   0.83278730  0.59195155  0.54638129
   0.83278730  0.95442974  0.40804845
   0.85944730  0.52831929  0.10936626
   0.85944730  0.58104697  0.47168071
   0.85944730  0.89063374  0.41895303
   0.80359419  0.60055004  0.25565707
   0.80359419  0.65510703  0.39944996
   0.80359419  0.74434293  0.34489297
   0.80362373  0.58774281  0.32158315
   0.80362373  0.73384033  0.41225719
   0.80362373  0.67841685  0.26615967
   0.51413702  0.38202410  0.94556739
   0.51413702  0.56354330  0.61797590
   0.51413702  0.05443261  0.43645670
   0.48876988  0.39596478  0.88350945
   0.48876988  0.48754367  0.60403522
   0.48876988  0.11649055  0.51245633
   0.62838657  0.30292974  0.84497350
   0.62838657  0.54204376  0.69707026
   0.62838657  0.15502650  0.45795624
   0.56405660  0.33889803  0.74223750
   0.56405660  0.40333948  0.66110197
   0.56405660  0.25776250  0.59666052
   0.56401263  0.26256144  0.67232353
   0.56401263  0.40976210  0.73743856
   0.56401263  0.32767647  0.59023790
   0.75313085  0.73732667  0.98908714
   0.75313085  0.25176046  0.26267333
   0.75313085  0.01091286  0.74823954
   0.72073227  0.84172629  0.97294400
   0.72073227  0.13121771  0.15827371
   0.72073227  0.02705600  0.86878229
   0.88301500  0.56555064  0.94609412
   0.88301500  0.38054348  0.43444936
   0.88301500  0.05390588  0.61945652
   0.91869747  0.45505918  0.83015198
   0.91869747  0.37509279  0.54494082
   0.91869747  0.16984802  0.62490721
   0.76046848  0.41387144  0.07236849
   0.76046848  0.65849605  0.58612856
   0.76046848  0.92763151  0.34150395
   0.80302224  0.53307378  0.17599660
   0.80302224  0.64292382  0.46692622
   0.80302224  0.82400340  0.35707618
   0.60166912  0.32463596  0.92080002
   0.60166912  0.59616406  0.67536404
   0.60166912  0.07919998  0.40383594
   0.56091557  0.34501731  0.81949312
   0.56091457  0.47447681  0.65498369
   0.56091457  0.18050688  0.52552319
   0.67811341  0.65212342  0.08997098
   0.67811341  0.43784656  0.34787658
   0.67811341  0.91002902  0.56215344
   0.59884398  0.58397925  0.96450351
   0.59884398  0.38052426  0.41602075
   0.59884398  0.03549649  0.61947574
   0.94410718  0.41734665  0.30897173
   0.94410718  0.89162508  0.58265435
   0.94410718  0.69102827  0.10837492
   0.89166993  0.33660809  0.17902296
   0.89166993  0.84241486  0.66339191
   0.89166993  0.82097704  0.15758514
   0.50974275  0.36653984  0.10334240
   0.50974275  0.73680156  0.63346016
   0.50974275  0.89665760  0.26319844
   0.59014360  0.24270711  0.03613963
   0.59014360  0.79343251  0.75729289
   0.59014360  0.96386037  0.20656749
   0.82541442  0.03876305  0.26889668
   0.82541442  0.23013363  0.96123695
   0.82541442  0.73110332  0.76986637
   0.87185402  0.13872796  0.39533918
   0.87185402  0.25661122  0.86127204
   0.87185402  0.60466082  0.74338878
unknown system                          
           1
    -0.000000   -0.000000  -11.512129
    -9.534434  -16.514124    0.000000
    -9.534434   16.514124   -0.000000
   Zn   H    C    N    O 
   6  96 144  24  24
Direct configuration=    23
   0.80968860  0.67038317  0.03512831
   0.80968860  0.36474514  0.32961683
   0.80968860  0.96487169  0.63525486
   0.69193557  0.30373750  0.00147527
   0.69193557  0.69773878  0.69626250
   0.69193557  0.99852473  0.30226122
   0.09750660  0.51652425  0.33043962
   0.09750660  0.81391537  0.48347575
   0.09750660  0.66956038  0.18608463
   0.01268943  0.35295033  0.08126934
   0.01268943  0.72831901  0.64704967
   0.01269043  0.91873066  0.27168099
   0.16659485  0.41581071  0.03811490
   0.16659485  0.62230319  0.58418929
   0.16659485  0.96188510  0.37769681
   0.24861253  0.58069225  0.28873216
   0.24861253  0.70803991  0.41930775
   0.24861253  0.71126784  0.29196009
   0.42876850  0.55645917  0.22942950
   0.42876850  0.67297033  0.44354083
   0.42876850  0.77057050  0.32702967
   0.21135909  0.53140728  0.03462884
   0.21135909  0.50322056  0.46859272
   0.21135909  0.96537116  0.49677944
   0.37597542  0.57751358  0.98176601
   0.37597542  0.40425243  0.42248642
   0.37597542  0.01823399  0.59574857
   0.58806752  0.60887143  0.17998679
   0.58806752  0.57111537  0.39112857
   0.58806752  0.82001321  0.42888463
   0.83671363  0.85056376  0.06721772
   0.83671363  0.21665396  0.14943624
   0.83671363  0.93278228  0.78334604
   0.63737838  0.65412981  0.89600119
   0.63737838  0.24187138  0.34587019
   0.63737838  0.10399881  0.75812862
   0.60136689  0.78588359  0.87198502
   0.60136689  0.08610143  0.21411641
   0.60136689  0.12801498  0.91389857
   0.72113555  0.97598858  0.11726585
   0.72113555  0.14127727  0.02401142
   0.72113555  0.88273415  0.85872273
   0.75121440  0.51497068  0.85468814
   0.75121440  0.33971746  0.48502932
   0.75121440  0.14531186  0.66028254
   0.04874041  0.57543584  0.00163502
   0.04874041  0.42619919  0.42456416
   0.04874041  0.99836498  0.57380081
   0.09468730  0.43353638  0.85394186
   0.09468730  0.42040548  0.56646362
   0.09468730  0.14605814  0.57959452
   0.91125363  0.29492894  0.77475370
   0.91125363  0.47982476  0.70507106
   0.91125363  0.22524630  0.52017524
   0.01397749  0.23589480  0.39062022
   0.01397749  0.15472642  0.76410520
   0.01397749  0.60937978  0.84527358
   0.97169822  0.01421446  0.16562020
   0.97169822  0.15140474  0.98578554
   0.97169822  0.83438080  0.84859526
   0.12431361  0.05737811  0.10253224
   0.12431361  0.04515413  0.94262189
   0.12431361  0.89746776  0.95484587
   0.16596463  0.28055901  0.32843758
   0.16596463  0.04787857  0.71944099
   0.16596463  0.67156242  0.95212143
   0.18578664  0.32517001  0.24021458
   0.18578664  0.91504556  0.67482999
   0.18578664  0.75978542  0.08495444
   0.32490132  0.08372826  0.10124263
   0.32490132  0.01751437  0.91627174
   0.32490132  0.89875737  0.98248563
   0.47875183  0.13594864  0.04740545
   0.47875183  0.91145681  0.86405136
   0.47875183  0.95259455  0.08854319
   0.33937574  0.37616789  0.18558339
   0.33937574  0.80941650  0.62383211
   0.33937574  0.81441661  0.19058350
   0.68855471  0.45005973  0.18961764
   0.68855471  0.73955890  0.54994027
   0.68855471  0.81038236  0.26044110
   0.86092558  0.42465611  0.98303575
   0.86092558  0.55837964  0.57534389
   0.86092558  0.01696425  0.44162036
   0.91195662  0.57791899  0.11468525
   0.91195662  0.53676526  0.42208101
   0.91195662  0.88531575  0.46323474
   0.80300541  0.52688241  0.31303983
   0.80300541  0.78615742  0.47311759
   0.80300541  0.68696017  0.21384258
   0.47799717  0.40856161  0.00606792
   0.47799717  0.59750731  0.59143839
   0.47799717  0.99393208  0.40249369
   0.42873291  0.43698406  0.87879982
   0.42873291  0.44181476  0.56301594
   0.42873291  0.12120018  0.55818524
   0.69962677  0.26301072  0.81097533
   0.69962677  0.54796361  0.73698928
   0.69962677  0.18902467  0.45203639
   0.56120392  0.20742898  0.67624676
   0.56120392  0.46881777  0.79257102
   0.56120392  0.32375324  0.53118223
   0.95432032  0.39096460  0.23142460
   0.95432032  0.84046000  0.60903540
   0.95432032  0.76857540  0.15954000
   0.04556890  0.43093664  0.20802963
   0.04556890  0.77709399  0.56906336
   0.04556890  0.79197037  0.22290601
   0.11236560  0.49506201  0.26643536
   0.11236560  0.77137336  0.50493799
   0.11236560  0.73356464  0.22862664
   0.06487967  0.40327716  0.12572068
   0.06487967  0.72244352  0.59672284
   0.06487967  0.87427932  0.27755648
   0.14958087  0.43922131  0.10228337
   0.14958087  0.66306206  0.56077869
   0.14958087  0.89771663  0.33693794
   0.19731258  0.53079650  0.24280143
   0.19731258  0.71200493  0.46920350
   0.19731258  0.75719857  0.28799507
   0.21716382  0.50356095  0.16039477
   0.21716382  0.65683382  0.49643905
   0.21716382  0.83960523  0.34316618
   0.30922724  0.53938620  0.13474618
   0.30922724  0.59535997  0.46061380
   0.30922724  0.86525382  0.40464003
   0.41508914  0.56371362  0.17683553
   0.41508914  0.61312190  0.43628638
   0.41508914  0.82316447  0.38687810
   0.29490676  0.54707137  0.06563007
   0.29490676  0.51855970  0.45292863
   0.29490676  0.93436993  0.48144030
   0.38569558  0.57320041  0.03636969
   0.38569558  0.46316928  0.42679959
   0.38569558  0.96363031  0.53683072
   0.50508074  0.59152885  0.14848204
   0.50508074  0.55695319  0.40847115
   0.50508074  0.85151796  0.44304681
   0.49282050  0.59373139  0.07655359
   0.49282050  0.48282220  0.40626861
   0.49282050  0.92344641  0.51717780
   0.59552504  0.61107496  0.03963595
   0.59552504  0.42856099  0.38892504
   0.59552504  0.96036405  0.57143901
   0.77886034  0.81468543  0.01686034
   0.77886034  0.20217391  0.18531357
   0.77886034  0.98313966  0.79782609
   0.67531277  0.71400874  0.92568331
   0.67531277  0.21167557  0.28599126
   0.67531277  0.07431669  0.78832443
   0.65472957  0.77842140  0.91465060
   0.65472957  0.13622920  0.22157860
   0.65472957  0.08534940  0.86377080
   0.72448935  0.92179097  0.98655372
   0.72448935  0.06476174  0.07820903
   0.72448935  0.01344628  0.93523826
   0.72460352  0.98634339  0.06604927
   0.72460352  0.07970688  0.01365661
   0.72460352  0.93395073  0.92029312
   0.83896355  0.51339941  0.87437676
   0.83896355  0.36097835  0.48660059
   0.83896355  0.12562324  0.63902165
   0.99489364  0.54082860  0.94867577
   0.99489364  0.40784717  0.45917140
   0.99489364  0.05132423  0.59215283
   0.01844938  0.47164987  0.87690871
   0.01845038  0.40525883  0.52835013
   0.01844938  0.12309129  0.59474117
   0.90950665  0.39297221  0.74728053
   0.90950665  0.35430832  0.60702779
   0.90950665  0.25271947  0.64569168
   0.90926128  0.31199445  0.72769408
   0.90926128  0.41569963  0.68800555
   0.90926128  0.27230592  0.58430037
   0.88749364  0.09951527  0.31982293
   0.88749364  0.22030766  0.90048473
   0.88749364  0.68017707  0.77969234
   0.98266198  0.12299594  0.28191678
   0.98266198  0.15892083  0.87700406
   0.98266198  0.71808322  0.84107917
   0.03858642  0.19762084  0.32739824
   0.03858642  0.12977740  0.80237916
   0.03858642  0.67260176  0.87022260
   0.01496742  0.07253713  0.20071403
   0.01496742  0.12817691  0.92746287
   0.01496742  0.79928597  0.87182309
   0.10066918  0.09688000  0.16586794
   0.10066918  0.06898794  0.90312000
   0.10066918  0.83413206  0.93101206
   0.12283041  0.22238317  0.29231048
   0.12283041  0.06992731  0.77761683
   0.12283041  0.70768952  0.93007269
   0.15528731  0.17267138  0.21081526
   0.15528731  0.03814388  0.82732862
   0.15528731  0.78918474  0.96185612
   0.24462464  0.20093039  0.17513119
   0.24462464  0.97420080  0.79906961
   0.24462464  0.82486881  0.02579920
   0.25044967  0.28347943  0.19856079
   0.25044967  0.91508136  0.71652057
   0.25044967  0.80143921  0.08491864
   0.32685267  0.14777003  0.11912213
   0.32685267  0.97135311  0.85222997
   0.32685267  0.88087787  0.02864689
   0.41341354  0.17686222  0.08923104
   0.41341354  0.91236882  0.82313778
   0.41341354  0.91076896  0.08763118
   0.33575118  0.31237879  0.16801935
   0.33575118  0.85564056  0.68762121
   0.33575118  0.83198065  0.14435944
   0.41890548  0.25947305  0.11363452
   0.41890648  0.85416147  0.74052695
   0.41890648  0.88636548  0.14583853
   0.51078502  0.29325225  0.08356194
   0.51078502  0.79031069  0.70674775
   0.51078502  0.91643806  0.20968931
   0.74368874  0.46249333  0.15097296
   0.74368874  0.68847963  0.53750667
   0.74368874  0.84902704  0.31152037
   0.83281275  0.45363676  0.04558209
   0.83281275  0.59194533  0.54636324
   0.83281275  0.95441791  0.40805467
   0.85944864  0.52832088  0.10936823
   0.85944864  0.58104735  0.47167912
   0.85944864  0.89063177  0.41895265
   0.80357844  0.60055113  0.25565405
   0.80357844  0.65510292  0.39944887
   0.80357844  0.74434595  0.34489708
   0.80360423  0.58774039  0.32158249
   0.80360423  0.73384210  0.41225961
   0.80360423  0.67841751  0.26615790
   0.51411197  0.38201391  0.94556130
   0.51411197  0.56354739  0.61798609
   0.51411197  0.05443870  0.43645261
   0.48874939  0.39594232  0.88349563
   0.48874939  0.48755231  0.60405768
   0.48874939  0.11650437  0.51244769
   0.62837342  0.30292362  0.84496881
   0.62837342  0.54204519  0.69707638
   0.62837342  0.15503119  0.45795481
   0.56402025  0.33890797  0.74224681
   0.56402025  0.40333883  0.66109203
   0.56402025  0.25775319  0.59666117
   0.56397763  0.26255240  0.67231431
   0.56397763  0.40976191  0.73744760
   0.56397763  0.32768569  0.59023809
   0.75311349  0.73732629  0.98907740
   0.75311349  0.25175111  0.26267371
   0.75311349  0.01092260  0.74824889
   0.72068410  0.84171575  0.97292265
   0.72068410  0.13120690  0.15828425
   0.72068410  0.02707735  0.86879310
   0.88301657  0.56553850  0.94609284
   0.88301657  0.38055435  0.43446150
   0.88301657  0.05390716  0.61944565
   0.91871947  0.45504417  0.83015987
   0.91871947  0.37511570  0.54495583
   0.91871947  0.16984013  0.62488430
   0.76049066  0.41385368  0.07237021
   0.76049066  0.65851553  0.58614632
   0.76049066  0.92762979  0.34148447
   0.80302964  0.53307228  0.17598529
   0.80302964  0.64291401  0.46692772
   0.80302964  0.82401471  0.35708599
   0.60166777  0.32463353  0.92079922
   0.60166777  0.59616569  0.67536647
   0.60166777  0.07920078  0.40383431
   0.56087417  0.34502282  0.81949893
   0.56087317  0.47447711  0.65497818
   0.56087317  0.18050107  0.52552289
   0.67808153  0.65213537  0.08995849
   0.67808153  0.43782212  0.34786463
   0.67808153  0.91004151  0.56217788
   0.59884984  0.58393573  0.96447854
   0.59884984  0.38054282  0.41606427
   0.59884984  0.03552146  0.61945718
   0.94405485  0.41733148  0.30893451
   0.94405485  0.89160303  0.58266952
   0.94405485  0.69106549  0.10839697
   0.89172179  0.33654327  0.17897717
   0.89172179  0.84243390  0.66345673
   0.89172179  0.82102283  0.15756610
   0.50977135  0.36653373  0.10335547
   0.50977135  0.73682075  0.63346627
   0.50977135  0.89664453  0.26317925
   0.59019143  0.24271563  0.03615883
   0.59019143  0.79344320  0.75728437
   0.59019143  0.96384117  0.20655680
   0.82539933  0.03881997  0.26893044
   0.82539933  0.23011046  0.96118003
   0.82539933  0.73106956  0.76988954
   0.87187933  0.13873851  0.39536180
   0.87187933  0.25662329  0.86126149
   0.87187933  0.60463820  0.74337671
unknown system                          
           1
    -0.000000   -0.000000  -11.512762
    -9.534818  -16.514788    0.000000
    -9.534818   16.514788   -0.000000
   Zn   H    C    N    O 
   6  96 144  24  24
Direct configuration=    24
   0.80969369  0.67039075  0.03510805
   0.80969369  0.36471730  0.32960925
   0.80969369  0.96489195  0.63528270
   0.69195541  0.30372149  0.00145857
   0.69195541  0.69773808  0.69627851
   0.69195541  0.99854143  0.30226192
   0.09744717  0.51649803  0.33041036
   0.09744717  0.81391233  0.48350197
   0.09744717  0.66958964  0.18608767
   0.01269424  0.35290121  0.08121476
   0.01269424  0.72831355  0.64709879
   0.01269524  0.91878524  0.27168645
   0.16662251  0.41574942  0.03803648
   0.16662251  0.62228606  0.58425058
   0.16662251  0.96196352  0.37771394
   0.24849222  0.58069905  0.28868706
   0.24849222  0.70798801  0.41930095
   0.24849222  0.71131294  0.29201199
   0.42873826  0.55639279  0.22939515
   0.42873826  0.67300236  0.44360721
   0.42873826  0.77060485  0.32699764
   0.21127642  0.53141502  0.03460815
   0.21127642  0.50319213  0.46858498
   0.21127642  0.96539185  0.49680787
   0.37593720  0.57747948  0.98170257
   0.37593720  0.40422309  0.42252052
   0.37593720  0.01829743  0.59577791
   0.58805896  0.60886611  0.17997833
   0.58805896  0.57111222  0.39113389
   0.58805896  0.82002167  0.42888778
   0.83670309  0.85056125  0.06717058
   0.83670309  0.21660933  0.14943875
   0.83670309  0.93282942  0.78339067
   0.63728736  0.65410459  0.89602845
   0.63728736  0.24192385  0.34589541
   0.63728736  0.10397155  0.75807615
   0.60124854  0.78585376  0.87197915
   0.60124854  0.08612539  0.21414624
   0.60124854  0.12802085  0.91387461
   0.72103263  0.97596133  0.11726729
   0.72103263  0.14130596  0.02403867
   0.72103263  0.88273271  0.85869404
   0.75136139  0.51503369  0.85460747
   0.75136139  0.33957378  0.48496631
   0.75136139  0.14539253  0.66042622
   0.04865156  0.57535086  0.00174902
   0.04865156  0.42639817  0.42464914
   0.04865156  0.99825098  0.57360183
   0.09459370  0.43341478  0.85408634
   0.09459370  0.42067156  0.56658522
   0.09459370  0.14591366  0.57932844
   0.91133903  0.29490604  0.77473274
   0.91133903  0.47982670  0.70509396
   0.91133903  0.22526726  0.52017330
   0.01407011  0.23594489  0.39073426
   0.01407011  0.15479037  0.76405511
   0.01407011  0.60926574  0.84520963
   0.97176255  0.01430423  0.16571534
   0.97176255  0.15141011  0.98569577
   0.97176255  0.83428566  0.84858989
   0.12435079  0.05746383  0.10261377
   0.12435079  0.04514994  0.94253617
   0.12435079  0.89738623  0.95485006
   0.16616708  0.28058185  0.32857431
   0.16616708  0.04799246  0.71941815
   0.16616708  0.67142569  0.95200754
   0.18587892  0.32524078  0.24032169
   0.18587892  0.91508190  0.67475922
   0.18587892  0.75967831  0.08491810
   0.32492405  0.08374877  0.10129851
   0.32492405  0.01754975  0.91625123
   0.32492405  0.89870149  0.98245025
   0.47879847  0.13595769  0.04744994
   0.47879847  0.91149225  0.86404231
   0.47879847  0.95255006  0.08850775
   0.33941873  0.37620706  0.18559335
   0.33941873  0.80938729  0.62379294
   0.33941873  0.81440665  0.19061271
   0.68854984  0.45004399  0.18961520
   0.68854984  0.73957221  0.54995601
   0.68854984  0.81038480  0.26042779
   0.86098735  0.42463402  0.98302422
   0.86098735  0.55839020  0.57536598
   0.86098735  0.01697578  0.44160980
   0.91194259  0.57792161  0.11469801
   0.91194259  0.53677540  0.42207839
   0.91194259  0.88530299  0.46322460
   0.80298694  0.52687326  0.31304866
   0.80298694  0.78617540  0.47312674
   0.80298694  0.68695134  0.21382460
   0.47797191  0.40852571  0.00608655
   0.47797191  0.59756183  0.59147429
   0.47797191  0.99391345  0.40243917
   0.42867642  0.43694027  0.87881777
   0.42867642  0.44187650  0.56305973
   0.42867642  0.12118223  0.55812350
   0.69961882  0.26302829  0.81097073
   0.69961882  0.54794143  0.73697171
   0.69961882  0.18902927  0.45205857
   0.56113580  0.20740417  0.67622463
   0.56113580  0.46882046  0.79259583
   0.56113580  0.32377537  0.53117954
   0.95427766  0.39087946  0.23135186
   0.95427766  0.84047240  0.60912054
   0.95427766  0.76864814  0.15952760
   0.04557000  0.43089242  0.20794383
   0.04557000  0.77705241  0.56910758
   0.04557000  0.79205617  0.22294759
   0.11236239  0.49503637  0.26639409
   0.11236239  0.77135772  0.50496363
   0.11236239  0.73360591  0.22864228
   0.06486154  0.40322817  0.12565608
   0.06486154  0.72242791  0.59677183
   0.06486154  0.87434392  0.27757209
   0.14956988  0.43918292  0.10224062
   0.14956988  0.66305770  0.56081708
   0.14956988  0.89775938  0.33694230
   0.19723458  0.53080253  0.24278434
   0.19723458  0.71198181  0.46919747
   0.19723458  0.75721566  0.28801819
   0.21709121  0.50355202  0.16037312
   0.21709121  0.65682110  0.49644798
   0.21709121  0.83962688  0.34317890
   0.30917663  0.53937157  0.13471937
   0.30917663  0.59534780  0.46062843
   0.30917663  0.86528063  0.40465220
   0.41510253  0.56368926  0.17680030
   0.41510253  0.61311103  0.43631074
   0.41510253  0.82319970  0.38688897
   0.29486782  0.54705853  0.06557442
   0.29486782  0.51851689  0.45294147
   0.29486782  0.93442558  0.48148311
   0.38566119  0.57317061  0.03631854
   0.38566119  0.46314793  0.42682939
   0.38566119  0.96368146  0.53685207
   0.50506504  0.59152758  0.14848474
   0.50506504  0.55695717  0.40847242
   0.50506504  0.85151526  0.44304283
   0.49275754  0.59369430  0.07651304
   0.49275754  0.48281874  0.40630570
   0.49275754  0.92348696  0.51718126
   0.59549704  0.61103108  0.03959185
   0.59549704  0.42856076  0.38896892
   0.59549704  0.96040815  0.57143924
   0.77882136  0.81467572  0.01682884
   0.77882136  0.20215212  0.18532328
   0.77882136  0.98317116  0.79784788
   0.67522857  0.71400231  0.92568465
   0.67522857  0.21168334  0.28599769
   0.67522857  0.07431535  0.78831666
   0.65465023  0.77842752  0.91465694
   0.65465023  0.13622942  0.22157248
   0.65465023  0.08534306  0.86377058
   0.72440541  0.92178796  0.98653727
   0.72440541  0.06474831  0.07821204
   0.72440541  0.01346273  0.93525169
   0.72451974  0.98631265  0.06603914
   0.72451974  0.07972749  0.01368735
   0.72451974  0.93396086  0.92027251
   0.83904529  0.51341017  0.87433311
   0.83904529  0.36092393  0.48658983
   0.83904529  0.12566689  0.63907607
   0.99482782  0.54075201  0.94873319
   0.99482782  0.40798118  0.45924799
   0.99482782  0.05126681  0.59201882
   0.01839561  0.47159187  0.87700507
   0.01839661  0.40541320  0.52840813
   0.01839561  0.12299493  0.59458680
   0.90959260  0.39295300  0.74729207
   0.90959260  0.35433907  0.60704700
   0.90959260  0.25270793  0.64566093
   0.90933091  0.31195473  0.72766268
   0.90933091  0.41570795  0.68804527
   0.90933091  0.27233732  0.58429205
   0.88751520  0.09958090  0.31988641
   0.88751520  0.22030551  0.90041910
   0.88751520  0.68011359  0.77969449
   0.98272150  0.12305559  0.28201308
   0.98272150  0.15895749  0.87694441
   0.98272150  0.71798692  0.84104251
   0.03871324  0.19766164  0.32750419
   0.03871324  0.12984255  0.80233836
   0.03871324  0.67249581  0.87015745
   0.01499749  0.07261023  0.20081873
   0.01499749  0.12820851  0.92738977
   0.01499749  0.79918127  0.87179149
   0.10072709  0.09694249  0.16597784
   0.10072709  0.06903535  0.90305751
   0.10072709  0.83402216  0.93096465
   0.12295258  0.22242474  0.29241263
   0.12295258  0.06998789  0.77757526
   0.12295258  0.70758737  0.93001211
   0.15540813  0.17271907  0.21089987
   0.15540813  0.03818080  0.82728093
   0.15540813  0.78910013  0.96181920
   0.24469454  0.20096494  0.17520638
   0.24469454  0.97424145  0.79903506
   0.24469454  0.82479362  0.02575855
   0.25054133  0.28352775  0.19864731
   0.25054133  0.91511956  0.71647225
   0.25054133  0.80135269  0.08488044
   0.32692782  0.14781449  0.11918345
   0.32692782  0.97136996  0.85218551
   0.32692782  0.88081655  0.02863004
   0.41347641  0.17687923  0.08928493
   0.41347641  0.91240570  0.82312077
   0.41347641  0.91071507  0.08759430
   0.33578315  0.31241026  0.16807771
   0.33578315  0.85566745  0.68758974
   0.33578315  0.83192229  0.14433255
   0.41894288  0.25949177  0.11369027
   0.41894388  0.85419850  0.74050823
   0.41894388  0.88630973  0.14580150
   0.51086458  0.29326268  0.08359043
   0.51086458  0.79032875  0.70673732
   0.51086458  0.91640957  0.20967125
   0.74369393  0.46247469  0.15096643
   0.74369393  0.68849174  0.53752531
   0.74369393  0.84903357  0.31150826
   0.83283173  0.45363068  0.04558388
   0.83283173  0.59195320  0.54636932
   0.83283173  0.95441612  0.40804680
   0.85944433  0.52833946  0.10939752
   0.85944433  0.58105806  0.47166054
   0.85944433  0.89060248  0.41894194
   0.80355815  0.60055378  0.25565066
   0.80355815  0.65509688  0.39944622
   0.80355815  0.74434934  0.34490312
   0.80357159  0.58773163  0.32157073
   0.80357159  0.73383910  0.41226837
   0.80357159  0.67842927  0.26616090
   0.51407373  0.38198879  0.94555377
   0.51407373  0.56356497  0.61801121
   0.51407373  0.05444623  0.43643503
   0.48870537  0.39589677  0.88346515
   0.48870537  0.48756739  0.60410323
   0.48870537  0.11653485  0.51243261
   0.62834184  0.30291274  0.84496527
   0.62834184  0.54205254  0.69708726
   0.62834184  0.15503473  0.45794746
   0.56395700  0.33889819  0.74224274
   0.56395700  0.40334454  0.66110181
   0.56395700  0.25775726  0.59665546
   0.56391273  0.26255175  0.67233154
   0.56391273  0.40977979  0.73744825
   0.56391273  0.32766846  0.59022021
   0.75309664  0.73732858  0.98906413
   0.75309664  0.25173555  0.26267142
   0.75309664  0.01093587  0.74826445
   0.72061612  0.84170833  0.97290340
   0.72061612  0.13119506  0.15829167
   0.72061612  0.02709660  0.86880494
   0.88301529  0.56551146  0.94609270
   0.88301529  0.38058125  0.43448854
   0.88301529  0.05390730  0.61941875
   0.91877229  0.45500958  0.83017492
   0.91877229  0.37516534  0.54499042
   0.91877229  0.16982508  0.62483466
   0.76052947  0.41382088  0.07237997
   0.76052947  0.65855809  0.58617912
   0.76052947  0.92762003  0.34144191
   0.80302067  0.53306582  0.17598468
   0.80302067  0.64291986  0.46693418
   0.80302067  0.82401532  0.35708014
   0.60168318  0.32462239  0.92078896
   0.60168318  0.59616657  0.67537761
   0.60168318  0.07921104  0.40383343
   0.56081833  0.34502001  0.81949714
   0.56081733  0.47447813  0.65498099
   0.56081733  0.18050286  0.52552187
   0.67801133  0.65214433  0.08992811
   0.67801133  0.43778278  0.34785567
   0.67801133  0.91007189  0.56221722
   0.59887564  0.58386810  0.96443936
   0.59887564  0.38057126  0.41613190
   0.59887564  0.03556064  0.61942874
   0.94396315  0.41732178  0.30889988
   0.94396315  0.89157810  0.58267922
   0.94396315  0.69110012  0.10842190
   0.89179263  0.33639329  0.17887311
   0.89179263  0.84247982  0.66360671
   0.89179263  0.82112689  0.15752018
   0.50982737  0.36656932  0.10338857
   0.50982737  0.73681825  0.63343068
   0.50982737  0.89661143  0.26318175
   0.59027986  0.24271877  0.03618449
   0.59027986  0.79346572  0.75728123
   0.59027986  0.96381551  0.20653428
   0.82539652  0.03892863  0.26899099
   0.82539652  0.23006236  0.96107137
   0.82539652  0.73100901  0.76993764
   0.87191583  0.13877305  0.39543416
   0.87191583  0.25666111  0.86122695
   0.87191583  0.60456584  0.74333889
unknown system                          
           1
    -0.000000   -0.000000  -11.513457
    -9.535238  -16.515517    0.000000
    -9.535238   16.515517   -0.000000
   Zn   H    C    N    O 
   6  96 144  24  24
Direct configuration=    25
   0.80969927  0.67039906  0.03508584
   0.80969927  0.36468678  0.32960094
   0.80969927  0.96491416  0.63531322
   0.69197715  0.30370395  0.00144027
   0.69197715  0.69773732  0.69629605
   0.69197715  0.99855973  0.30226268
   0.09738202  0.51646929  0.33037829
   0.09738202  0.81390901  0.48353071
   0.09738202  0.66962171  0.18609099
   0.01269951  0.35284738  0.08115494
   0.01269951  0.72830757  0.64715262
   0.01270051  0.91884506  0.27169243
   0.16665283  0.41568225  0.03795052
   0.16665283  0.62226727  0.58431775
   0.16665283  0.96204948  0.37773273
   0.24836034  0.58070651  0.28863763
   0.24836034  0.70793112  0.41929349
   0.24836034  0.71136237  0.29206888
   0.42870512  0.55632003  0.22935749
   0.42870512  0.67303746  0.44367997
   0.42870512  0.77064251  0.32696254
   0.21118581  0.53142350  0.03458546
   0.21118581  0.50316096  0.46857650
   0.21118581  0.96541454  0.49683904
   0.37589530  0.57744210  0.98163303
   0.37589530  0.40419093  0.42255790
   0.37589530  0.01836697  0.59581007
   0.58804959  0.60886028  0.17996904
   0.58804959  0.57110877  0.39113972
   0.58804959  0.82003096  0.42889123
   0.83669153  0.85055851  0.06711891
   0.83669153  0.21656040  0.14944149
   0.83669153  0.93288109  0.78343960
   0.63718759  0.65407695  0.89605832
   0.63718759  0.24198137  0.34592305
   0.63718759  0.10394168  0.75801863
   0.60111882  0.78582107  0.87197272
   0.60111882  0.08615166  0.21417893
   0.60111882  0.12802728  0.91384834
   0.72091983  0.97593146  0.11726887
   0.72091983  0.14133741  0.02406854
   0.72091983  0.88273113  0.85866259
   0.75152252  0.51510276  0.85451904
   0.75152252  0.33941628  0.48489724
   0.75152252  0.14548096  0.66058372
   0.04855416  0.57525770  0.00187398
   0.04855416  0.42661628  0.42474230
   0.04855416  0.99812602  0.57338372
   0.09449110  0.43328148  0.85424472
   0.09449110  0.42096323  0.56671852
   0.09449110  0.14575528  0.57903677
   0.91143263  0.29488094  0.77470976
   0.91143263  0.47982882  0.70511906
   0.91143263  0.22529024  0.52017118
   0.01417164  0.23599980  0.39085926
   0.01417164  0.15486046  0.76400020
   0.01417164  0.60914074  0.84513954
   0.97183307  0.01440263  0.16581962
   0.97183307  0.15141599  0.98559737
   0.97183307  0.83418138  0.84858401
   0.12439155  0.05755780  0.10270314
   0.12439155  0.04514534  0.94244220
   0.12439155  0.89729686  0.95485466
   0.16638899  0.28060689  0.32872418
   0.16638899  0.04811729  0.71939311
   0.16638899  0.67127582  0.95188271
   0.18598007  0.32531836  0.24043910
   0.18598007  0.91512174  0.67468164
   0.18598007  0.75956090  0.08487826
   0.32494897  0.08377125  0.10135977
   0.32494897  0.01758852  0.91622875
   0.32494897  0.89864023  0.98241148
   0.47884960  0.13596762  0.04749872
   0.47884960  0.91153109  0.86403238
   0.47884960  0.95250128  0.08846891
   0.33946585  0.37624999  0.18560427
   0.33946585  0.80935527  0.62375001
   0.33946585  0.81439573  0.19064473
   0.68854451  0.45002674  0.18961253
   0.68854451  0.73958679  0.54997326
   0.68854451  0.81038747  0.26041321
   0.86105506  0.42460980  0.98301157
   0.86105506  0.55840177  0.57539020
   0.86105506  0.01698843  0.44159823
   0.91192720  0.57792448  0.11471200
   0.91192720  0.53678651  0.42207552
   0.91192720  0.88528900  0.46321349
   0.80296669  0.52686322  0.31305833
   0.80296669  0.78619511  0.47313678
   0.80296669  0.68694167  0.21380489
   0.47794422  0.40848637  0.00610697
   0.47794422  0.59762160  0.59151363
   0.47794422  0.99389303  0.40237940
   0.42861450  0.43689226  0.87883745
   0.42861450  0.44194419  0.56310774
   0.42861450  0.12116255  0.55805581
   0.69961010  0.26304756  0.81096568
   0.69961010  0.54791712  0.73695244
   0.69961010  0.18903432  0.45208288
   0.56106114  0.20737697  0.67620038
   0.56106114  0.46882341  0.79262303
   0.56106114  0.32379962  0.53117659
   0.95423090  0.39078614  0.23127214
   0.95423090  0.84048600  0.60921386
   0.95423090  0.76872786  0.15951400
   0.04557121  0.43084394  0.20784978
   0.04557121  0.77700684  0.56915606
   0.04557121  0.79215022  0.22299316
   0.11235888  0.49500827  0.26634884
   0.11235888  0.77134057  0.50499173
   0.11235888  0.73365116  0.22865943
   0.06484167  0.40317446  0.12558526
   0.06484167  0.72241080  0.59682554
   0.06484167  0.87441474  0.27758920
   0.14955783  0.43914083  0.10219376
   0.14955783  0.66305293  0.56085917
   0.14955783  0.89780624  0.33694707
   0.19714908  0.53080914  0.24276562
   0.19714908  0.71195648  0.46919086
   0.19714908  0.75723438  0.28804352
   0.21701163  0.50354223  0.16034940
   0.21701163  0.65680716  0.49645777
   0.21701163  0.83965060  0.34319284
   0.30912116  0.53935552  0.13468998
   0.30912116  0.59533446  0.46064448
   0.30912116  0.86531002  0.40466554
   0.41511722  0.56366256  0.17676168
   0.41511722  0.61309912  0.43633744
   0.41511722  0.82323832  0.38690088
   0.29482513  0.54704445  0.06551341
   0.29482513  0.51846996  0.45295555
   0.29482513  0.93448659  0.48153004
   0.38562349  0.57313795  0.03626247
   0.38562349  0.46312452  0.42686205
   0.38562349  0.96373753  0.53687548
   0.50504782  0.59152619  0.14848771
   0.50504782  0.55696153  0.40847381
   0.50504782  0.85151229  0.44303847
   0.49268854  0.59365365  0.07646859
   0.49268854  0.48281494  0.40634635
   0.49268854  0.92353141  0.51718506
   0.59546635  0.61098299  0.03954350
   0.59546635  0.42856051  0.38901701
   0.59546635  0.96045650  0.57143949
   0.77877864  0.81466507  0.01679432
   0.77877864  0.20212824  0.18533393
   0.77877864  0.98320568  0.79787176
   0.67513627  0.71399527  0.92568612
   0.67513627  0.21169186  0.28600473
   0.67513627  0.07431388  0.78830814
   0.65456327  0.77843422  0.91466388
   0.65456327  0.13622967  0.22156578
   0.65456327  0.08533612  0.86377033
   0.72431339  0.92178466  0.98651925
   0.72431339  0.06473359  0.07821534
   0.72431339  0.01348075  0.93526641
   0.72442790  0.98627897  0.06602804
   0.72442790  0.07975008  0.01372103
   0.72442790  0.93397196  0.92024992
   0.83913489  0.51342197  0.87428525
   0.83913489  0.36086428  0.48657803
   0.83913489  0.12571475  0.63913572
   0.99475568  0.54066806  0.94879613
   0.99475568  0.40812807  0.45933194
   0.99475568  0.05120387  0.59187193
   0.01833666  0.47152829  0.87711071
   0.01833766  0.40558242  0.52847171
   0.01833666  0.12288929  0.59441758
   0.90968682  0.39293195  0.74730473
   0.90968682  0.35437278  0.60706805
   0.90968682  0.25269527  0.64562722
   0.90940722  0.31191119  0.72762826
   0.90940722  0.41571707  0.68808881
   0.90940722  0.27237174  0.58428293
   0.88753883  0.09965284  0.31995599
   0.88753883  0.22030316  0.90034716
   0.88753883  0.68004401  0.77969684
   0.98278675  0.12312096  0.28211864
   0.98278675  0.15899767  0.87687904
   0.98278675  0.71788136  0.84100233
   0.03885225  0.19770636  0.32762033
   0.03885225  0.12991396  0.80229364
   0.03885225  0.67237967  0.87008604
   0.01503045  0.07269036  0.20093350
   0.01503045  0.12824314  0.92730964
   0.01503045  0.79906650  0.87175686
   0.10079058  0.09701098  0.16609831
   0.10079058  0.06908733  0.90298902
   0.10079058  0.83390169  0.93091267
   0.12308650  0.22247030  0.29252459
   0.12308650  0.07005429  0.77752970
   0.12308650  0.70747541  0.92994571
   0.15554055  0.17277134  0.21099262
   0.15554055  0.03822128  0.82722866
   0.15554055  0.78900738  0.96177872
   0.24477116  0.20100281  0.17528881
   0.24477116  0.97428600  0.79899719
   0.24477116  0.82471119  0.02571400
   0.25064180  0.28358071  0.19874215
   0.25064180  0.91516144  0.71641929
   0.25064180  0.80125785  0.08483856
   0.32701019  0.14786322  0.11925066
   0.32701019  0.97138844  0.85213678
   0.32701019  0.88074934  0.02861156
   0.41354532  0.17689788  0.08934400
   0.41354532  0.91244613  0.82310212
   0.41354532  0.91065600  0.08755387
   0.33581820  0.31244475  0.16814168
   0.33581820  0.85569693  0.68755525
   0.33581820  0.83185832  0.14430307
   0.41898387  0.25951229  0.11375138
   0.41898487  0.85423909  0.74048771
   0.41898487  0.88624862  0.14576091
   0.51095178  0.29327410  0.08362165
   0.51095178  0.79034854  0.70672590
   0.51095178  0.91637835  0.20965146
   0.74369961  0.46245425  0.15095927
   0.74369961  0.68850502  0.53754575
   0.74369961  0.84904073  0.31149498
   0.83285253  0.45362401  0.04558584
   0.83285253  0.59196183  0.54637599
   0.83285253  0.95441416  0.40803817
   0.85943961  0.52835982  0.10942962
   0.85943961  0.58106980  0.47164018
   0.85943961  0.89057038  0.41893020
   0.80353590  0.60055667  0.25564693
   0.80353590  0.65509026  0.39944333
   0.80353590  0.74435307  0.34490974
   0.80353582  0.58772203  0.32155783
   0.80353582  0.73383580  0.41227797
   0.80353582  0.67844217  0.26616420
   0.51403182  0.38196126  0.94554551
   0.51403182  0.56358425  0.61803874
   0.51403182  0.05445449  0.43641575
   0.48865711  0.39584683  0.88343174
   0.48865711  0.48758391  0.60415317
   0.48865711  0.11656826  0.51241609
   0.62830722  0.30290081  0.84496140
   0.62830722  0.54206059  0.69709919
   0.62830722  0.15503860  0.45793941
   0.56388767  0.33888747  0.74223827
   0.56388767  0.40335080  0.66111253
   0.56388767  0.25776173  0.59664920
   0.56384160  0.26255104  0.67235042
   0.56384160  0.40979938  0.73744896
   0.56384160  0.32764958  0.59020062
   0.75307816  0.73733110  0.98904958
   0.75307816  0.25171848  0.26266890
   0.75307816  0.01095042  0.74828152
   0.72054161  0.84170021  0.97288229
   0.72054161  0.13118209  0.15829979
   0.72054161  0.02711771  0.86881791
   0.88301388  0.56548182  0.94609255
   0.88301388  0.38061073  0.43451818
   0.88301388  0.05390745  0.61938927
   0.91883018  0.45497166  0.83019142
   0.91883018  0.37521977  0.54502834
   0.91883018  0.16980858  0.62478023
   0.76057201  0.41378492  0.07239066
   0.76057201  0.65860474  0.58621508
   0.76057201  0.92760934  0.34139526
   0.80301085  0.53305873  0.17598400
   0.80301085  0.64292627  0.46694127
   0.80301085  0.82401600  0.35707373
   0.60170008  0.32461018  0.92077771
   0.60170008  0.59616754  0.67538982
   0.60170008  0.07922229  0.40383246
   0.56075712  0.34501693  0.81949518
   0.56075612  0.47447925  0.65498407
   0.56075612  0.18050482  0.52552075
   0.67793438  0.65215415  0.08989481
   0.67793438  0.43773966  0.34784585
   0.67793438  0.91010519  0.56226034
   0.59890393  0.58379398  0.96439641
   0.59890393  0.38060243  0.41620602
   0.59890393  0.03560359  0.61939757
   0.94386264  0.41731114  0.30886192
   0.94386264  0.89155078  0.58268986
   0.94386264  0.69113808  0.10844922
   0.89187027  0.33622889  0.17875905
   0.89187027  0.84253015  0.66377111
   0.89187027  0.82124095  0.15746985
   0.50988878  0.36660834  0.10342486
   0.50988878  0.73681552  0.63339166
   0.50988878  0.89657514  0.26318448
   0.59037680  0.24272221  0.03621261
   0.59037680  0.79349040  0.75727779
   0.59037680  0.96378739  0.20650960
   0.82539345  0.03904774  0.26905736
   0.82539345  0.23000962  0.96095226
   0.82539345  0.73094264  0.76999038
   0.87195585  0.13881092  0.39551349
   0.87195585  0.25670257  0.86118908
   0.87195585  0.60448651  0.74329743
unknown system                          
           1
    -0.000000   -0.000000  -11.514194
    -9.534944  -16.515008    0.000000
    -9.534944   16.515008   -0.000000
   Zn   H    C    N    O 
   6  96 144  24  24
Direct configuration=    26
   0.80970014  0.67040552  0.03504825
   0.80970014  0.36464272  0.32959448
   0.80970014  0.96495175  0.63535728
   0.69200789  0.30370678  0.00142047
   0.69200789  0.69771469  0.69629322
   0.69200789  0.99857953  0.30228531
   0.09731623  0.51643463  0.33031880
   0.09731623  0.81388417  0.48356537
   0.09731623  0.66968120  0.18611583
   0.01269266  0.35276882  0.08108286
   0.01269266  0.72831404  0.64723118
   0.01269366  0.91891714  0.27168596
   0.16666466  0.41563127  0.03789903
   0.16666466  0.62226676  0.58436873
   0.16666466  0.96210097  0.37773324
   0.24827062  0.58073282  0.28862093
   0.24827062  0.70788811  0.41926718
   0.24827062  0.71137907  0.29211189
   0.42867360  0.55626552  0.22932400
   0.42867360  0.67305848  0.44373448
   0.42867360  0.77067600  0.32694152
   0.21108455  0.53141987  0.03454449
   0.21108455  0.50312362  0.46858013
   0.21108455  0.96545551  0.49687638
   0.37585662  0.57742165  0.98157788
   0.37585662  0.40415623  0.42257835
   0.37585662  0.01842212  0.59584477
   0.58805913  0.60885692  0.17995991
   0.58805913  0.57110299  0.39114308
   0.58805913  0.82004009  0.42889701
   0.83665118  0.85053841  0.06705169
   0.83665118  0.21651328  0.14946159
   0.83665118  0.93294831  0.78348672
   0.63709038  0.65406111  0.89608952
   0.63709038  0.24202841  0.34593889
   0.63709038  0.10391048  0.75797159
   0.60097907  0.78579636  0.87196248
   0.60097907  0.08616611  0.21420364
   0.60097907  0.12803752  0.91383389
   0.72080698  0.97590355  0.11726559
   0.72080698  0.14136203  0.02409645
   0.72080698  0.88273441  0.85863797
   0.75169343  0.51516720  0.85443569
   0.75169343  0.33926849  0.48483280
   0.75169343  0.14556431  0.66073151
   0.04843855  0.57515809  0.00197026
   0.04843855  0.42681217  0.42484191
   0.04843855  0.99802974  0.57318783
   0.09438817  0.43315872  0.85440161
   0.09438817  0.42124288  0.56684128
   0.09438817  0.14559839  0.57875712
   0.91151623  0.29485834  0.77468877
   0.91151623  0.47983044  0.70514166
   0.91151623  0.22531123  0.52016956
   0.01428819  0.23603312  0.39095160
   0.01428819  0.15491948  0.76396688
   0.01428819  0.60904840  0.84508052
   0.97187414  0.01449358  0.16591157
   0.97187414  0.15141699  0.98550642
   0.97187414  0.83408943  0.84858301
   0.12443119  0.05764328  0.10279331
   0.12443119  0.04515003  0.94235672
   0.12443119  0.89720669  0.95484997
   0.16659347  0.28064185  0.32886228
   0.16659347  0.04822043  0.71935815
   0.16659347  0.67113772  0.95177957
   0.18605580  0.32539714  0.24055115
   0.18605580  0.91515500  0.67460286
   0.18605580  0.75944885  0.08484500
   0.32498421  0.08380783  0.10142511
   0.32498421  0.01761729  0.91619217
   0.32498421  0.89857489  0.98238271
   0.47889755  0.13597752  0.04753628
   0.47889755  0.91155877  0.86402248
   0.47889755  0.95246372  0.08844123
   0.33951541  0.37627510  0.18561937
   0.33951541  0.80934527  0.62372490
   0.33951541  0.81438063  0.19065473
   0.68856166  0.45001770  0.18959127
   0.68856166  0.73957457  0.54998230
   0.68856166  0.81040873  0.26042543
   0.86112027  0.42459696  0.98300851
   0.86112027  0.55841154  0.57540304
   0.86112027  0.01699149  0.44158846
   0.91193103  0.57795250  0.11472870
   0.91193103  0.53677521  0.42204750
   0.91193103  0.88527230  0.46322479
   0.80294164  0.52685802  0.31306953
   0.80294164  0.78621151  0.47314198
   0.80294164  0.68693047  0.21378849
   0.47792480  0.40844262  0.00610413
   0.47792480  0.59766251  0.59155738
   0.47792480  0.99389587  0.40233849
   0.42852650  0.43685890  0.87885038
   0.42852650  0.44199047  0.56314110
   0.42852650  0.12114962  0.55800953
   0.69957358  0.26307803  0.81097531
   0.69957358  0.54789629  0.73692197
   0.69957358  0.18902469  0.45210371
   0.56099161  0.20735104  0.67618003
   0.56099161  0.46882899  0.79264896
   0.56099161  0.32381997  0.53117101
   0.95420486  0.39070512  0.23119532
   0.95420486  0.84049020  0.60929488
   0.95420486  0.76880468  0.15950980
   0.04554243  0.43080036  0.20779890
   0.04554243  0.77699954  0.56919964
   0.04554243  0.79220110  0.22300046
   0.11231077  0.49497220  0.26631872
   0.11231077  0.77134653  0.50502780
   0.11231077  0.73368128  0.22865347
   0.06484478  0.40313472  0.12552902
   0.06484478  0.72239430  0.59686528
   0.06484478  0.87447098  0.27760570
   0.14956058  0.43910414  0.10212952
   0.14956058  0.66302538  0.56089586
   0.14956058  0.89787048  0.33697462
   0.19705395  0.53080051  0.24273419
   0.19705395  0.71193368  0.46919949
   0.19705395  0.75726581  0.28806632
   0.21695431  0.50353117  0.16030381
   0.21695431  0.65677265  0.49646883
   0.21695431  0.83969619  0.34322735
   0.30909359  0.53934391  0.13465028
   0.30909359  0.59530637  0.46065609
   0.30909359  0.86534972  0.40469363
   0.41508232  0.56362784  0.17672275
   0.41508232  0.61309491  0.43637216
   0.41508232  0.82327725  0.38690509
   0.29477214  0.54702512  0.06547463
   0.29477214  0.51845051  0.45297488
   0.29477214  0.93452537  0.48154949
   0.38560302  0.57310620  0.03622405
   0.38560302  0.46311785  0.42689380
   0.38560302  0.96377595  0.53688215
   0.50503274  0.59151317  0.14846212
   0.50503274  0.55694895  0.40848683
   0.50503274  0.85153788  0.44305105
   0.49266589  0.59362098  0.07641993
   0.49266589  0.48279896  0.40637902
   0.49266589  0.92358007  0.51720104
   0.59543208  0.61094887  0.03951091
   0.59543208  0.42856203  0.38905113
   0.59543208  0.96048909  0.57143797
   0.77874704  0.81466623  0.01676575
   0.77874704  0.20209852  0.18533277
   0.77874704  0.98323425  0.79790148
   0.67507677  0.71398776  0.92570297
   0.67507677  0.21171621  0.28601224
   0.67507677  0.07429703  0.78828379
   0.65447497  0.77842607  0.91466832
   0.65447497  0.13624224  0.22157393
   0.65447497  0.08533168  0.86375776
   0.72422570  0.92178214  0.98649812
   0.72422570  0.06471498  0.07821786
   0.72422570  0.01350188  0.93528502
   0.72434582  0.98625662  0.06602288
   0.72434582  0.07976726  0.01374338
   0.72434582  0.93397712  0.92023274
   0.83923019  0.51342949  0.87424719
   0.83923019  0.36081869  0.48657051
   0.83923019  0.12575281  0.63918131
   0.99469334  0.54060916  0.94888689
   0.99469334  0.40827773  0.45939084
   0.99469334  0.05111311  0.59172227
   0.01830133  0.47144908  0.87719397
   0.01830233  0.40574488  0.52855092
   0.01830133  0.12280603  0.59425512
   0.90976181  0.39290802  0.74730248
   0.90976181  0.35439446  0.60709198
   0.90976181  0.25269752  0.64560554
   0.90948860  0.31188174  0.72760100
   0.90948860  0.41571926  0.68811826
   0.90948860  0.27239900  0.58428074
   0.88757345  0.09973056  0.32003955
   0.88757345  0.22030899  0.90026944
   0.88757345  0.67996045  0.77969101
   0.98286945  0.12318663  0.28221484
   0.98286945  0.15902821  0.87681337
   0.98286945  0.71778516  0.84097179
   0.03897059  0.19774409  0.32773523
   0.03897059  0.12999115  0.80225591
   0.03897059  0.67226477  0.87000885
   0.01508755  0.07279407  0.20105536
   0.01508755  0.12826129  0.92720593
   0.01508755  0.79894464  0.87173871
   0.10085612  0.09707717  0.16621484
   0.10085612  0.06913767  0.90292283
   0.10085612  0.83378516  0.93086233
   0.12321483  0.22250835  0.29263392
   0.12321483  0.07012557  0.77749165
   0.12321483  0.70736608  0.92987443
   0.15564938  0.17281103  0.21107511
   0.15564938  0.03826407  0.82718897
   0.15564938  0.78892489  0.96173593
   0.24488944  0.20105707  0.17536381
   0.24488944  0.97430674  0.79894293
   0.24488944  0.82463619  0.02569326
   0.25071633  0.28363276  0.19883976
   0.25071633  0.91520701  0.71636724
   0.25071633  0.80116024  0.08479299
   0.32706009  0.14788551  0.11932514
   0.32706009  0.97144062  0.85211449
   0.32706009  0.88067486  0.02855938
   0.41359932  0.17692801  0.08941456
   0.41359932  0.91248655  0.82307199
   0.41359932  0.91058544  0.08751345
   0.33587001  0.31246380  0.16820413
   0.33587001  0.85574033  0.68753620
   0.33587001  0.83179587  0.14425967
   0.41905288  0.25954715  0.11380682
   0.41905388  0.85425967  0.74045285
   0.41905388  0.88619318  0.14574033
   0.51101497  0.29329275  0.08364881
   0.51101497  0.79035707  0.70670725
   0.51101497  0.91635119  0.20964293
   0.74370684  0.46243854  0.15096756
   0.74370684  0.68852902  0.53756146
   0.74370684  0.84903244  0.31147098
   0.83285534  0.45359107  0.04558380
   0.83285534  0.59199273  0.54640893
   0.83285534  0.95441620  0.40800727
   0.85940884  0.52833636  0.10943208
   0.85940884  0.58109572  0.47166364
   0.85940884  0.89056792  0.41890428
   0.80351550  0.60055995  0.25564960
   0.80351550  0.65508966  0.39944005
   0.80351550  0.74435040  0.34491034
   0.80351003  0.58771500  0.32155211
   0.80351003  0.73383710  0.41228500
   0.80351003  0.67844789  0.26616290
   0.51401120  0.38192681  0.94554480
   0.51401120  0.56361799  0.61807319
   0.51401120  0.05445520  0.43638201
   0.48860035  0.39580833  0.88344506
   0.48860035  0.48763573  0.60419167
   0.48860035  0.11655494  0.51236427
   0.62827806  0.30289508  0.84494422
   0.62827806  0.54204915  0.69710492
   0.62827806  0.15505578  0.45795085
   0.56382736  0.33887867  0.74222305
   0.56382736  0.40334438  0.66112133
   0.56382736  0.25777695  0.59665562
   0.56377641  0.26255535  0.67235808
   0.56377641  0.40980273  0.73744465
   0.56377641  0.32764192  0.59019727
   0.75304585  0.73732087  0.98902213
   0.75304585  0.25170126  0.26267913
   0.75304585  0.01097787  0.74829874
   0.72049478  0.84170858  0.97288050
   0.72049478  0.13117192  0.15829142
   0.72049478  0.02711950  0.86882808
   0.88299996  0.56545559  0.94608669
   0.88299996  0.38063110  0.43454441
   0.88299996  0.05391331  0.61936890
   0.91887440  0.45493938  0.83020926
   0.91887440  0.37526988  0.54506062
   0.91887440  0.16979074  0.62473012
   0.76063295  0.41377050  0.07239074
   0.76063295  0.65861924  0.58622950
   0.76063295  0.92760926  0.34138076
   0.80297235  0.53305479  0.17601070
   0.80297235  0.64295691  0.46694521
   0.80297235  0.82398930  0.35704309
   0.60169376  0.32460950  0.92077455
   0.60169376  0.59616505  0.67539050
   0.60169376  0.07922545  0.40383495
   0.56075087  0.34497603  0.81946820
   0.56074987  0.47449317  0.65502497
   0.56074987  0.18053180  0.52550683
   0.67785753  0.65214874  0.08985450
   0.67785753  0.43770475  0.34785126
   0.67785753  0.91014550  0.56229525
   0.59893597  0.58373079  0.96435313
   0.59893597  0.38062234  0.41626921
   0.59893597  0.03564687  0.61937766
   0.94377403  0.41729505  0.30880195
   0.94377403  0.89150689  0.58270595
   0.94377403  0.69119805  0.10849311
   0.89193773  0.33607479  0.17866603
   0.89193773  0.84259124  0.66392521
   0.89193773  0.82133397  0.15740876
   0.50995550  0.36662014  0.10344476
   0.50995550  0.73682362  0.63337986
   0.50995550  0.89655524  0.26317638
   0.59043314  0.24273420  0.03624790
   0.59043314  0.79351370  0.75726580
   0.59043314  0.96375210  0.20648630
   0.82539749  0.03914650  0.26910559
   0.82539749  0.22995909  0.96085350
   0.82539749  0.73089441  0.77004091
   0.87198615  0.13885438  0.39560087
   0.87198615  0.25674649  0.86114562
   0.87198615  0.60439913  0.74325351
unknown system                          
           1
    -0.000000   -0.000000  -11.515338
    -9.534488  -16.514218    0.000000
    -9.534488   16.514218   -0.000000
   Zn   H    C    N    O 
   6  96 144  24  24
Direct configuration=    27
   0.80970148  0.67041556  0.03498989
   0.80970148  0.36457433  0.32958444
   0.80970148  0.96501011  0.63542567
   0.69205562  0.30371117  0.00138973
   0.69205562  0.69767956  0.69628883
   0.69205562  0.99861027  0.30232044
   0.09721411  0.51638083  0.33022644
   0.09721411  0.81384561  0.48361917
   0.09721411  0.66977356  0.18615439
   0.01268203  0.35264686  0.08097095
   0.01268203  0.72832409  0.64735314
   0.01268303  0.91902905  0.27167591
   0.16668303  0.41555213  0.03781910
   0.16668303  0.62226597  0.58444787
   0.16668303  0.96218090  0.37773403
   0.24813133  0.58077368  0.28859501
   0.24813133  0.70782133  0.41922632
   0.24813133  0.71140499  0.29217867
   0.42862468  0.55618088  0.22927200
   0.42862468  0.67309112  0.44381912
   0.42862468  0.77072800  0.32690888
   0.21092734  0.53141423  0.03448088
   0.21092734  0.50306565  0.46858577
   0.21092734  0.96551912  0.49693435
   0.37579657  0.57738990  0.98149226
   0.37579657  0.40410237  0.42261010
   0.37579657  0.01850774  0.59589863
   0.58807394  0.60885171  0.17994574
   0.58807394  0.57109403  0.39114829
   0.58807394  0.82005426  0.42890597
   0.83658855  0.85050721  0.06694733
   0.83658855  0.21644013  0.14949279
   0.83658855  0.93305267  0.78355987
   0.63693947  0.65403651  0.89613795
   0.63693947  0.24210145  0.34596349
   0.63693947  0.10386205  0.75789855
   0.60076212  0.78575801  0.87194657
   0.60076212  0.08618856  0.21424199
   0.60076212  0.12805343  0.91381144
   0.72063178  0.97586022  0.11726048
   0.72063178  0.14140026  0.02413978
   0.72063178  0.88273952  0.85859974
   0.75195877  0.51526725  0.85430628
   0.75195877  0.33903903  0.48473275
   0.75195877  0.14569372  0.66096097
   0.04825906  0.57500345  0.00211974
   0.04825906  0.42711629  0.42499655
   0.04825906  0.99788026  0.57288371
   0.09422838  0.43296813  0.85464519
   0.09422838  0.42167706  0.56703187
   0.09422838  0.14535481  0.57832294
   0.91164601  0.29482325  0.77465619
   0.91164601  0.47983294  0.70517675
   0.91164601  0.22534381  0.52016706
   0.01446912  0.23608487  0.39109497
   0.01446912  0.15501110  0.76391513
   0.01446912  0.60890503  0.84498890
   0.97193790  0.01463480  0.16605433
   0.97193790  0.15141853  0.98536520
   0.97193790  0.83394667  0.84858147
   0.12449274  0.05777599  0.10293331
   0.12449274  0.04515732  0.94222401
   0.12449274  0.89706669  0.95484268
   0.16691091  0.28069612  0.32907668
   0.16691091  0.04838056  0.71930388
   0.16691091  0.67092332  0.95161944
   0.18617338  0.32551947  0.24072513
   0.18617338  0.91520666  0.67448053
   0.18617338  0.75927487  0.08479334
   0.32503892  0.08386462  0.10152656
   0.32503892  0.01766195  0.91613538
   0.32503892  0.89847344  0.98233805
   0.47897199  0.13599288  0.04759461
   0.47897199  0.91160173  0.86400712
   0.47897199  0.95240539  0.08839827
   0.33959236  0.37631407  0.18564281
   0.33959236  0.80932974  0.62368593
   0.33959236  0.81435719  0.19067026
   0.68858829  0.45000365  0.18955826
   0.68858829  0.73955561  0.54999635
   0.68858829  0.81044174  0.26044439
   0.86122151  0.42457703  0.98300375
   0.86122151  0.55842672  0.57542297
   0.86122151  0.01699625  0.44157328
   0.91193698  0.57799599  0.11475464
   0.91193698  0.53675765  0.42200401
   0.91193698  0.88524636  0.46324235
   0.80290274  0.52684994  0.31308691
   0.80290274  0.78623698  0.47315006
   0.80290274  0.68691309  0.21376302
   0.47789464  0.40837469  0.00609972
   0.47789464  0.59772603  0.59162531
   0.47789464  0.99390028  0.40227497
   0.42838988  0.43680711  0.87887045
   0.42838988  0.44206234  0.56319289
   0.42838988  0.12112955  0.55793766
   0.69951689  0.26312533  0.81099027
   0.69951689  0.54786394  0.73687467
   0.69951689  0.18900973  0.45213606
   0.56088366  0.20731078  0.67614842
   0.56088366  0.46883765  0.79268922
   0.56088366  0.32385158  0.53116235
   0.95416443  0.39057933  0.23107606
   0.95416443  0.84049673  0.60942067
   0.95416443  0.76892394  0.15950327
   0.04549776  0.43073269  0.20771992
   0.04549776  0.77698822  0.56926731
   0.04549776  0.79228008  0.22301178
   0.11223610  0.49491619  0.26627196
   0.11223610  0.77135577  0.50508381
   0.11223610  0.73372804  0.22864423
   0.06484961  0.40307302  0.12544170
   0.06484961  0.72236868  0.59692698
   0.06484961  0.87455830  0.27763132
   0.14956485  0.43904717  0.10202979
   0.14956485  0.66298261  0.56095283
   0.14956485  0.89797021  0.33701739
   0.19690627  0.53078712  0.24268539
   0.19690627  0.71189827  0.46921288
   0.19690627  0.75731461  0.28810173
   0.21686532  0.50351399  0.16023304
   0.21686532  0.65671906  0.49648601
   0.21686532  0.83976696  0.34328094
   0.30905079  0.53932589  0.13458864
   0.30905079  0.59526276  0.46067411
   0.30905079  0.86541136  0.40473724
   0.41502815  0.56357394  0.17666230
   0.41502815  0.61308837  0.43642606
   0.41502815  0.82333770  0.38691163
   0.29468988  0.54699510  0.06541441
   0.29468988  0.51842031  0.45300490
   0.29468988  0.93458559  0.48157969
   0.38557125  0.57305691  0.03616441
   0.38557125  0.46310749  0.42694309
   0.38557125  0.96383559  0.53689251
   0.50500932  0.59149297  0.14842239
   0.50500932  0.55692942  0.40850703
   0.50500932  0.85157761  0.44307058
   0.49263074  0.59357024  0.07634438
   0.49263074  0.48277414  0.40642976
   0.49263074  0.92365562  0.51722586
   0.59537888  0.61089591  0.03946030
   0.59537888  0.42856440  0.38910409
   0.59537888  0.96053970  0.57143560
   0.77869799  0.81466802  0.01672139
   0.77869799  0.20205237  0.18533098
   0.77869799  0.98327861  0.79794763
   0.67498439  0.71397611  0.92572914
   0.67498439  0.21175402  0.28602389
   0.67498439  0.07427086  0.78824598
   0.65433788  0.77841343  0.91467520
   0.65433788  0.13626177  0.22158657
   0.65433788  0.08532480  0.86373823
   0.72408958  0.92177822  0.98646531
   0.72408958  0.06468609  0.07822178
   0.72408958  0.01353469  0.93531391
   0.72421840  0.98622193  0.06601487
   0.72421840  0.07979394  0.01377807
   0.72421840  0.93398513  0.92020606
   0.83937816  0.51344118  0.87418809
   0.83937816  0.36074792  0.48655882
   0.83937816  0.12581191  0.63925208
   0.99459656  0.54051771  0.94902780
   0.99459656  0.40851010  0.45948229
   0.99459656  0.05097220  0.59148990
   0.01824647  0.47132611  0.87732323
   0.01824747  0.40599712  0.52867389
   0.01824647  0.12267677  0.59400288
   0.90987822  0.39287087  0.74729899
   0.90987822  0.35442812  0.60712913
   0.90987822  0.25270101  0.64557188
   0.90961493  0.31183601  0.72755868
   0.90961493  0.41572267  0.68816399
   0.90961493  0.27244132  0.58427733
   0.88762720  0.09985123  0.32016928
   0.88762720  0.22031805  0.90014877
   0.88762720  0.67983072  0.77968195
   0.98299784  0.12328857  0.28236420
   0.98299784  0.15907563  0.87671143
   0.98299784  0.71763580  0.84092437
   0.03915430  0.19780266  0.32791364
   0.03915430  0.13011098  0.80219734
   0.03915430  0.67208636  0.86988902
   0.01517619  0.07295510  0.20124457
   0.01517619  0.12828947  0.92704490
   0.01517619  0.79875543  0.87171053
   0.10095788  0.09717994  0.16639578
   0.10095788  0.06921583  0.90282006
   0.10095788  0.83360422  0.93078417
   0.12341407  0.22256743  0.29280366
   0.12341407  0.07023622  0.77743257
   0.12341407  0.70719634  0.92976378
   0.15581832  0.17287267  0.21120319
   0.15581832  0.03833052  0.82712733
   0.15581832  0.78879681  0.96166948
   0.24507307  0.20114131  0.17548026
   0.24507307  0.97433895  0.79885869
   0.24507307  0.82451974  0.02566105
   0.25083205  0.28371356  0.19899132
   0.25083205  0.91527776  0.71628644
   0.25083205  0.80100868  0.08472224
   0.32713756  0.14792013  0.11944077
   0.32713756  0.97152163  0.85207987
   0.32713756  0.88055923  0.02847837
   0.41368315  0.17697480  0.08952410
   0.41368315  0.91254930  0.82302520
   0.41368315  0.91047590  0.08745070
   0.33595044  0.31249337  0.16830109
   0.33595044  0.85580772  0.68750663
   0.33595044  0.83169891  0.14419228
   0.41916001  0.25960126  0.11389289
   0.41916101  0.85429162  0.74039874
   0.41916101  0.88610711  0.14570838
   0.51111307  0.29332170  0.08369100
   0.51111307  0.79037030  0.70667830
   0.51111307  0.91630900  0.20962970
   0.74371807  0.46241414  0.15098042
   0.74371807  0.68856628  0.53758586
   0.74371807  0.84901958  0.31143372
   0.83285970  0.45353993  0.04558063
   0.83285970  0.59204069  0.54646007
   0.83285970  0.95441937  0.40795931
   0.85936107  0.52829995  0.10943591
   0.85936107  0.58113596  0.47170005
   0.85936107  0.89056409  0.41886404
   0.80348382  0.60056503  0.25565375
   0.80348382  0.65508872  0.39943497
   0.80348382  0.74434625  0.34491128
   0.80346998  0.58770410  0.32154322
   0.80346998  0.73383913  0.41229590
   0.80346998  0.67845678  0.26616087
   0.51397918  0.38187331  0.94554370
   0.51397918  0.56367038  0.61812669
   0.51397918  0.05445630  0.43632962
   0.48851224  0.39574856  0.88346573
   0.48851224  0.48771617  0.60425144
   0.48851224  0.11653427  0.51228383
   0.62823278  0.30288618  0.84491756
   0.62823278  0.54203138  0.69711382
   0.62823278  0.15508244  0.45796862
   0.56373374  0.33886501  0.74219943
   0.56373374  0.40333441  0.66113499
   0.56373374  0.25780057  0.59666559
   0.56367522  0.26256205  0.67236998
   0.56367522  0.40980793  0.73743795
   0.56367522  0.32763002  0.59019207
   0.75299569  0.73730498  0.98897951
   0.75299569  0.25167453  0.26269502
   0.75299569  0.01102049  0.74832547
   0.72042207  0.84172158  0.97287772
   0.72042207  0.13115614  0.15827842
   0.72042207  0.02712228  0.86884386
   0.88297836  0.56541486  0.94607758
   0.88297836  0.38066272  0.43458514
   0.88297836  0.05392242  0.61933728
   0.91894305  0.45488926  0.83023696
   0.91894305  0.37534769  0.54511074
   0.91894305  0.16976304  0.62465231
   0.76072754  0.41374810  0.07239086
   0.76072754  0.65864176  0.58625190
   0.76072754  0.92760914  0.34135824
   0.80291258  0.53304868  0.17605214
   0.80291258  0.64300447  0.46695132
   0.80291258  0.82394786  0.35699553
   0.60168394  0.32460845  0.92076964
   0.60168394  0.59616119  0.67539155
   0.60168394  0.07923036  0.40383881
   0.56074118  0.34491253  0.81942631
   0.56074018  0.47451477  0.65508847
   0.56074018  0.18057369  0.52548523
   0.67773821  0.65214035  0.08979191
   0.67773821  0.43765056  0.34785965
   0.67773821  0.91020809  0.56234944
   0.59898572  0.58363267  0.96428592
   0.59898572  0.38065325  0.41636733
   0.59898572  0.03571408  0.61934675
   0.94363648  0.41727007  0.30870883
   0.94363648  0.89143876  0.58273093
   0.94363648  0.69129117  0.10856124
   0.89204244  0.33583552  0.17852160
   0.89204244  0.84268608  0.66416448
   0.89204244  0.82147840  0.15731392
   0.51005908  0.36663847  0.10347567
   0.51005908  0.73683620  0.63336153
   0.51005908  0.89652433  0.26316380
   0.59052062  0.24275281  0.03630269
   0.59052062  0.79354988  0.75724719
   0.59052062  0.96369731  0.20645012
   0.82540378  0.03929984  0.26918048
   0.82540378  0.22988064  0.96070016
   0.82540378  0.73081952  0.77011936
   0.87203319  0.13892186  0.39573655
   0.87203319  0.25681469  0.86107814
   0.87203319  0.60426345  0.74318531
unknown system                          
           1
    -0.000000    0.000000  -11.515899
    -9.533630  -16.512732    0.000000
    -9.533630   16.512732   -0.000000
   Zn   H    C    N    O 
   6  96 144  24  24
Direct configuration=    28
   0.80968889  0.67041546  0.03494667
   0.80968889  0.36453121  0.32958454
   0.80968889  0.96505333  0.63546879
   0.69209588  0.30371947  0.00136667
   0.69209588  0.69764819  0.69628053
   0.69209588  0.99863333  0.30235181
   0.09714078  0.51634953  0.33017497
   0.09714078  0.81382544  0.48365047
   0.09714078  0.66982503  0.18617456
   0.01269110  0.35257163  0.08090693
   0.01269110  0.72833530  0.64742837
   0.01269210  0.91909307  0.27166470
   0.16668835  0.41550650  0.03777534
   0.16668835  0.62226784  0.58449350
   0.16668835  0.96222466  0.37773216
   0.24804709  0.58079459  0.28858338
   0.24804709  0.70778878  0.41920541
   0.24804709  0.71141662  0.29221122
   0.42858764  0.55613928  0.22922728
   0.42858764  0.67308800  0.44386072
   0.42858764  0.77077272  0.32691200
   0.21085830  0.53140950  0.03444093
   0.21085830  0.50303043  0.46859050
   0.21085830  0.96555907  0.49696957
   0.37576535  0.57737806  0.98146350
   0.37576535  0.40408544  0.42262194
   0.37576535  0.01853650  0.59591556
   0.58806491  0.60884327  0.17992433
   0.58806491  0.57108106  0.39115673
   0.58806491  0.82007567  0.42891894
   0.83655678  0.85049151  0.06689197
   0.83655678  0.21640046  0.14950849
   0.83655678  0.93310803  0.78359954
   0.63685198  0.65404242  0.89617833
   0.63685198  0.24213591  0.34595758
   0.63685198  0.10382167  0.75786409
   0.60063266  0.78573824  0.87195039
   0.60063266  0.08621215  0.21426176
   0.60063266  0.12804961  0.91378785
   0.72051788  0.97583168  0.11724875
   0.72051788  0.14141707  0.02416832
   0.72051788  0.88275125  0.85858293
   0.75212430  0.51532827  0.85421708
   0.75212430  0.33888881  0.48467173
   0.75212430  0.14578292  0.66111119
   0.04814189  0.57490972  0.00221910
   0.04814189  0.42730938  0.42509028
   0.04814189  0.99778090  0.57269062
   0.09414271  0.43283897  0.85479836
   0.09414271  0.42195939  0.56716103
   0.09414271  0.14520164  0.57804061
   0.91172424  0.29479781  0.77463406
   0.91172424  0.47983625  0.70520219
   0.91172424  0.22536594  0.52016375
   0.01459493  0.23611649  0.39118900
   0.01459493  0.15507350  0.76388351
   0.01459493  0.60881100  0.84492650
   0.97196773  0.01473875  0.16615071
   0.97196773  0.15141097  0.98526125
   0.97196773  0.83385029  0.84858903
   0.12452433  0.05786016  0.10303809
   0.12452433  0.04517793  0.94213984
   0.12452433  0.89696191  0.95482207
   0.16709150  0.28072008  0.32919844
   0.16709150  0.04847836  0.71927992
   0.16709150  0.67080156  0.95152164
   0.18625001  0.32558734  0.24082564
   0.18625001  0.91523930  0.67441266
   0.18625001  0.75917436  0.08476070
   0.32507956  0.08389604  0.10159388
   0.32507956  0.01769784  0.91610396
   0.32507956  0.89840612  0.98230216
   0.47900199  0.13601400  0.04763816
   0.47900199  0.91162416  0.86398600
   0.47900199  0.95236184  0.08837584
   0.33964204  0.37631439  0.18566106
   0.33964204  0.80934767  0.62368561
   0.33964204  0.81433894  0.19065233
   0.68859233  0.44998997  0.18954125
   0.68859233  0.73955228  0.55001003
   0.68859233  0.81045875  0.26044772
   0.86127717  0.42457393  0.98301861
   0.86127717  0.55844467  0.57542607
   0.86127717  0.01698139  0.44155533
   0.91190965  0.57800076  0.11476895
   0.91190965  0.53676719  0.42199924
   0.91190965  0.88523205  0.46323281
   0.80287392  0.52684962  0.31309720
   0.80287392  0.78624758  0.47315038
   0.80287392  0.68690280  0.21375242
   0.47787965  0.40832780  0.00608431
   0.47787965  0.59775752  0.59167220
   0.47787965  0.99391569  0.40224348
   0.42829947  0.43676989  0.87887929
   0.42829947  0.44210840  0.56323011
   0.42829947  0.12112071  0.55789160
   0.69948846  0.26314749  0.81099690
   0.69948846  0.54784840  0.73685251
   0.69948846  0.18900310  0.45215160
   0.56081795  0.20729786  0.67613186
   0.56081795  0.46883400  0.79270214
   0.56081795  0.32386814  0.53116600
   0.95415123  0.39050171  0.23099648
   0.95415123  0.84049477  0.60949829
   0.95415123  0.76900352  0.15950523
   0.04544703  0.43068314  0.20768631
   0.04544703  0.77700416  0.56931686
   0.04544703  0.79231369  0.22299584
   0.11215446  0.49486580  0.26621580
   0.11215446  0.77135000  0.50513420
   0.11215446  0.73378420  0.22865000
   0.06484733  0.40302272  0.12538097
   0.06484733  0.72235825  0.59697728
   0.06484733  0.87461903  0.27764175
   0.14955867  0.43901651  0.10197560
   0.14955867  0.66295909  0.56098349
   0.14955867  0.89802440  0.33704091
   0.19683218  0.53078094  0.24264536
   0.19683218  0.71186442  0.46921906
   0.19683218  0.75735464  0.28813558
   0.21683035  0.50350597  0.16018476
   0.21683035  0.65667879  0.49649403
   0.21683035  0.83981524  0.34332121
   0.30901795  0.53930931  0.13454836
   0.30901795  0.59523905  0.46069069
   0.30901795  0.86545164  0.40476095
   0.41498805  0.56354147  0.17662979
   0.41498805  0.61308832  0.43645853
   0.41498805  0.82337021  0.38691168
   0.29462077  0.54697416  0.06537380
   0.29462077  0.51840064  0.45302584
   0.29462077  0.93462620  0.48159936
   0.38553794  0.57302385  0.03611393
   0.38553794  0.46309008  0.42697615
   0.38553794  0.96388607  0.53690992
   0.50499370  0.59146556  0.14838000
   0.50499370  0.55691444  0.40853444
   0.50499370  0.85162000  0.44308556
   0.49263063  0.59354155  0.07631115
   0.49263063  0.48276960  0.40645845
   0.49263063  0.92368885  0.51723040
   0.59535101  0.61086519  0.03941330
   0.59535101  0.42854811  0.38913481
   0.59535101  0.96058670  0.57145189
   0.77865582  0.81465280  0.01667704
   0.77865582  0.20202324  0.18534620
   0.77865582  0.98332296  0.79797676
   0.67491643  0.71396104  0.92573335
   0.67491643  0.21177331  0.28603896
   0.67491643  0.07426665  0.78822669
   0.65424072  0.77840074  0.91467521
   0.65424072  0.13627448  0.22159926
   0.65424072  0.08532479  0.86372552
   0.72400984  0.92177803  0.98645287
   0.72400984  0.06467384  0.07822197
   0.72400984  0.01354713  0.93532616
   0.72413656  0.98621367  0.06601309
   0.72413656  0.07980042  0.01378633
   0.72413656  0.93398691  0.92019958
   0.83946244  0.51344514  0.87415529
   0.83946244  0.36071115  0.48655486
   0.83946244  0.12584471  0.63928885
   0.99451305  0.54044052  0.94909303
   0.99451305  0.40865251  0.45955948
   0.99451305  0.05090697  0.59134749
   0.01820155  0.47125688  0.87741767
   0.01820255  0.40616079  0.52874312
   0.01820155  0.12258233  0.59383921
   0.90994695  0.39285601  0.74730687
   0.90994695  0.35445086  0.60714399
   0.90994695  0.25269313  0.64554914
   0.90970129  0.31182364  0.72755256
   0.90970129  0.41572891  0.68817636
   0.90970129  0.27244744  0.58427109
   0.88766072  0.09992025  0.32025265
   0.88766072  0.22033240  0.90007975
   0.88766072  0.67974735  0.77966760
   0.98306697  0.12336828  0.28248831
   0.98306697  0.15912004  0.87663172
   0.98306697  0.71751169  0.84087996
   0.03928755  0.19784448  0.32801251
   0.03928755  0.13016804  0.80215552
   0.03928755  0.67198749  0.86983196
   0.01523646  0.07302501  0.20133230
   0.01523646  0.12830729  0.92697499
   0.01523646  0.79866770  0.87169271
   0.10105083  0.09724222  0.16648076
   0.10105083  0.06923853  0.90275778
   0.10105083  0.83351924  0.93076147
   0.12356084  0.22261004  0.29291860
   0.12356084  0.07030856  0.77738996
   0.12356084  0.70708140  0.92969144
   0.15591834  0.17293315  0.21131121
   0.15591834  0.03837806  0.82706685
   0.15591834  0.78868879  0.96162194
   0.24516457  0.20118881  0.17557441
   0.24516457  0.97438560  0.79881119
   0.24516457  0.82442559  0.02561440
   0.25089005  0.28377817  0.19909545
   0.25089005  0.91531728  0.71622183
   0.25089005  0.80090455  0.08468272
   0.32720384  0.14795250  0.11951426
   0.32720384  0.97156276  0.85204750
   0.32720384  0.88048574  0.02843724
   0.41374560  0.17700077  0.08959001
   0.41374560  0.91258923  0.82299923
   0.41374560  0.91040999  0.08741077
   0.33603856  0.31253565  0.16836261
   0.33603856  0.85582696  0.68746435
   0.33603856  0.83163739  0.14417304
   0.41923499  0.25962979  0.11394675
   0.41923599  0.85431695  0.74037021
   0.41923599  0.88605325  0.14568305
   0.51115596  0.29333725  0.08372127
   0.51115596  0.79038502  0.70666275
   0.51115596  0.91627873  0.20961498
   0.74374913  0.46239896  0.15097581
   0.74374913  0.68857684  0.53760104
   0.74374913  0.84902419  0.31142316
   0.83288611  0.45351003  0.04557102
   0.83288611  0.59206099  0.54648997
   0.83288611  0.95442898  0.40793901
   0.85935871  0.52830309  0.10943816
   0.85935871  0.58113507  0.47169691
   0.85935871  0.89056184  0.41886493
   0.80345842  0.60056921  0.25566764
   0.80345842  0.65509843  0.39943079
   0.80345842  0.74433236  0.34490157
   0.80345140  0.58770429  0.32155481
   0.80345140  0.73385051  0.41229571
   0.80345140  0.67844519  0.26614949
   0.51396546  0.38183760  0.94555312
   0.51396546  0.56371552  0.61816240
   0.51396546  0.05444688  0.43628448
   0.48845146  0.39571488  0.88346814
   0.48845146  0.48775226  0.60428512
   0.48845146  0.11653186  0.51224774
   0.62821156  0.30288707  0.84491371
   0.62821156  0.54202663  0.69711293
   0.62821156  0.15508629  0.45797337
   0.56368210  0.33886373  0.74219518
   0.56368210  0.40333145  0.66113627
   0.56368210  0.25780482  0.59666855
   0.56361187  0.26254019  0.67234482
   0.56361187  0.40980463  0.73745981
   0.56361187  0.32765518  0.59019537
   0.75297065  0.73730113  0.98896133
   0.75297065  0.25166020  0.26269887
   0.75297065  0.01103867  0.74833980
   0.72035646  0.84171024  0.97285364
   0.72035646  0.13114340  0.15828976
   0.72035646  0.02714636  0.86885660
   0.88298620  0.56540770  0.94609021
   0.88298620  0.38068251  0.43459230
   0.88298620  0.05390979  0.61931749
   0.91899708  0.45485001  0.83024632
   0.91899708  0.37539632  0.54514999
   0.91899708  0.16975368  0.62460368
   0.76076102  0.41372678  0.07239653
   0.76076102  0.65866876  0.58627322
   0.76076102  0.92760347  0.34133124
   0.80287750  0.53303373  0.17605259
   0.80287750  0.64301986  0.46696627
   0.80287750  0.82394741  0.35698014
   0.60168035  0.32459851  0.92076373
   0.60168035  0.59616522  0.67540149
   0.60168035  0.07923627  0.40383478
   0.56070075  0.34489474  0.81942155
   0.56069975  0.47452781  0.65510626
   0.56069975  0.18057845  0.52547219
   0.67768807  0.65213766  0.08976109
   0.67768807  0.43762243  0.34786234
   0.67768807  0.91023891  0.56237757
   0.59900952  0.58357201  0.96424018
   0.59900952  0.38066817  0.41642799
   0.59900952  0.03575982  0.61933183
   0.94354535  0.41724381  0.30862603
   0.94354535  0.89138222  0.58275719
   0.94354535  0.69137397  0.10861778
   0.89212206  0.33569972  0.17845315
   0.89212206  0.84275343  0.66430028
   0.89212206  0.82154685  0.15724657
   0.51012901  0.36664521  0.10348724
   0.51012901  0.73684103  0.63335479
   0.51012901  0.89651276  0.26315897
   0.59055419  0.24277045  0.03633973
   0.59055419  0.79356928  0.75722955
   0.59055419  0.96366027  0.20643072
   0.82541913  0.03939941  0.26923199
   0.82541913  0.22983258  0.96060059
   0.82541913  0.73076801  0.77016742
   0.87206081  0.13896920  0.39582645
   0.87206081  0.25685725  0.86103080
   0.87206081  0.60417355  0.74314275
unknown system                          
           1
    -0.000000    0.000000  -11.517555
    -9.531099  -16.508347    0.000000
    -9.531099   16.508347   -0.000000
   Zn   H    C    N    O 
   6  96 144  24  24
Direct configuration=    29
   0.80965176  0.67041516  0.03481913
   0.80965176  0.36440397  0.32958484
   0.80965176  0.96518087  0.63559603
   0.69221468  0.30374398  0.00129860
   0.69221468  0.69755561  0.69625602
   0.69221468  0.99870140  0.30244439
   0.09692439  0.51625717  0.33002309
   0.09692439  0.81376592  0.48374283
   0.09692439  0.66997691  0.18623408
   0.01271788  0.35234960  0.08071797
   0.01271788  0.72836838  0.64765040
   0.01271888  0.91928203  0.27163162
   0.16670402  0.41537184  0.03764620
   0.16670402  0.62227336  0.58462816
   0.16670402  0.96235380  0.37772664
   0.24779852  0.58085633  0.28854905
   0.24779852  0.70769272  0.41914367
   0.24779852  0.71145095  0.29230728
   0.42847836  0.55601650  0.22909530
   0.42847836  0.67307880  0.44398350
   0.42847836  0.77090470  0.32692120
   0.21065457  0.53139554  0.03432304
   0.21065457  0.50292650  0.46860446
   0.21065457  0.96567696  0.49707350
   0.37567321  0.57734314  0.98137863
   0.37567321  0.40403549  0.42265686
   0.37567321  0.01862137  0.59596551
   0.58803824  0.60881835  0.17986114
   0.58803824  0.57104278  0.39118165
   0.58803824  0.82013886  0.42895722
   0.83646302  0.85044516  0.06672858
   0.83646302  0.21628341  0.14955484
   0.83646302  0.93327142  0.78371659
   0.63659381  0.65405986  0.89629748
   0.63659381  0.24223762  0.34594014
   0.63659381  0.10370252  0.75776238
   0.60025062  0.78567990  0.87196168
   0.60025062  0.08628178  0.21432010
   0.60025062  0.12803832  0.91371822
   0.72018175  0.97574744  0.11721412
   0.72018175  0.14146668  0.02425256
   0.72018175  0.88278588  0.85853332
   0.75261274  0.51550833  0.85395383
   0.75261274  0.33844549  0.48449167
   0.75261274  0.14604617  0.66155451
   0.04779613  0.57463311  0.00251235
   0.04779613  0.42787924  0.42536689
   0.04779613  0.99748765  0.57212076
   0.09388989  0.43245779  0.85525040
   0.09388989  0.42279261  0.56754221
   0.09388989  0.14474960  0.57720739
   0.91195509  0.29472271  0.77456873
   0.91195509  0.47984602  0.70527729
   0.91195509  0.22543127  0.52015398
   0.01496617  0.23620983  0.39146649
   0.01496617  0.15525766  0.76379017
   0.01496617  0.60853351  0.84474234
   0.97205574  0.01504553  0.16643516
   0.97205574  0.15138864  0.98495447
   0.97205574  0.83356584  0.84861136
   0.12461755  0.05810856  0.10334732
   0.12461755  0.04523875  0.94189144
   0.12461755  0.89665268  0.95476125
   0.16762438  0.28079079  0.32955778
   0.16762438  0.04876699  0.71920921
   0.16762438  0.67044222  0.95123301
   0.18647613  0.32578766  0.24112228
   0.18647613  0.91533563  0.67421234
   0.18647613  0.75887772  0.08466437
   0.32519948  0.08398878  0.10179256
   0.32519948  0.01780378  0.91601122
   0.32519948  0.89820744  0.98219622
   0.47909049  0.13607634  0.04776670
   0.47909049  0.91169037  0.86392366
   0.47909049  0.95223330  0.08830963
   0.33978865  0.37631533  0.18571493
   0.33978865  0.80940060  0.62368467
   0.33978865  0.81428507  0.19059940
   0.68860425  0.44994958  0.18949106
   0.68860425  0.73954247  0.55005042
   0.68860425  0.81050894  0.26045753
   0.86144142  0.42456480  0.98306245
   0.86144142  0.55849765  0.57543520
   0.86144142  0.01693755  0.44150235
   0.91182900  0.57801486  0.11481120
   0.91182900  0.53679534  0.42198514
   0.91182900  0.88518980  0.46320466
   0.80278889  0.52684870  0.31312757
   0.80278889  0.78627887  0.47315130
   0.80278889  0.68687243  0.21372113
   0.47783542  0.40818940  0.00603883
   0.47783542  0.59785043  0.59181060
   0.47783542  0.99396117  0.40215057
   0.42803270  0.43666004  0.87890536
   0.42803270  0.44224431  0.56333996
   0.42803270  0.12109464  0.55775569
   0.69940456  0.26321290  0.81101646
   0.69940456  0.54780256  0.73678710
   0.69940456  0.18898354  0.45219744
   0.56062403  0.20725976  0.67608298
   0.56062403  0.46882322  0.79274024
   0.56062403  0.32391702  0.53117678
   0.95411226  0.39027264  0.23076162
   0.95411226  0.84048898  0.60972736
   0.95411226  0.76923838  0.15951102
   0.04529733  0.43053691  0.20758712
   0.04529733  0.77705121  0.56946309
   0.04529733  0.79241288  0.22294879
   0.11191359  0.49471708  0.26605003
   0.11191359  0.77133295  0.50528292
   0.11191359  0.73394997  0.22866705
   0.06484060  0.40287428  0.12520175
   0.06484060  0.72232747  0.59712572
   0.06484060  0.87479825  0.27767253
   0.14954042  0.43892603  0.10181569
   0.14954042  0.66288967  0.56107397
   0.14954042  0.89818431  0.33711033
   0.19661353  0.53076270  0.24252723
   0.19661353  0.71176453  0.46923730
   0.19661353  0.75747277  0.28823547
   0.21672717  0.50348231  0.16004226
   0.21672717  0.65655994  0.49651769
   0.21672717  0.83995774  0.34344006
   0.30892103  0.53926040  0.13442948
   0.30892103  0.59516908  0.46073960
   0.30892103  0.86557052  0.40483092
   0.41486974  0.56344566  0.17653385
   0.41486974  0.61308819  0.43655434
   0.41486974  0.82346615  0.38691181
   0.29441687  0.54691236  0.06525394
   0.29441687  0.51834258  0.45308764
   0.29441687  0.93474606  0.48165742
   0.38543967  0.57292626  0.03596494
   0.38543967  0.46303868  0.42707374
   0.38543967  0.96403506  0.53696132
   0.50494760  0.59138470  0.14825491
   0.50494760  0.55687021  0.40861530
   0.50494760  0.85174509  0.44312979
   0.49263030  0.59345688  0.07621306
   0.49263030  0.48275618  0.40654312
   0.49263030  0.92378694  0.51724382
   0.59526878  0.61077456  0.03927460
   0.59526878  0.42850005  0.38922544
   0.59526878  0.96072540  0.57149995
   0.77853139  0.81460790  0.01654616
   0.77853139  0.20193726  0.18539110
   0.77853139  0.98345384  0.79806274
   0.67471587  0.71391655  0.92574579
   0.67471587  0.21183024  0.28608345
   0.67471587  0.07425421  0.78816976
   0.65395402  0.77836327  0.91467525
   0.65395402  0.13631198  0.22163673
   0.65395402  0.08532475  0.86368802
   0.72377453  0.92177746  0.98641615
   0.72377453  0.06463769  0.07822254
   0.72377453  0.01358385  0.93536231
   0.72389508  0.98618928  0.06600784
   0.72389508  0.07981956  0.01381072
   0.72389508  0.93399216  0.92018044
   0.83971115  0.51345685  0.87405849
   0.83971115  0.36060264  0.48654315
   0.83971115  0.12594151  0.63939736
   0.99426662  0.54021273  0.94928552
   0.99426662  0.40907280  0.45978727
   0.99426662  0.05071448  0.59092720
   0.01806900  0.47105255  0.87769637
   0.01807000  0.40664382  0.52894745
   0.01806900  0.12230363  0.59335618
   0.91014975  0.39281213  0.74733011
   0.91014975  0.35451798  0.60718787
   0.91014975  0.25266989  0.64548202
   0.90995614  0.31178715  0.72753450
   0.90995614  0.41574734  0.68821285
   0.90995614  0.27246550  0.58425266
   0.88775964  0.10012394  0.32049871
   0.88775964  0.22037477  0.89987606
   0.88775964  0.67950129  0.77962523
   0.98327095  0.12360350  0.28285460
   0.98327095  0.15925110  0.87639650
   0.98327095  0.71714540  0.84074890
   0.03968076  0.19796789  0.32830431
   0.03968076  0.13033642  0.80203211
   0.03968076  0.67169569  0.86966358
   0.01541432  0.07323133  0.20159123
   0.01541432  0.12835991  0.92676867
   0.01541432  0.79840877  0.87164009
   0.10132510  0.09742603  0.16673155
   0.10132510  0.06930552  0.90257397
   0.10132510  0.83326845  0.93069448
   0.12399395  0.22273578  0.29325783
   0.12399395  0.07052205  0.77726422
   0.12399395  0.70674217  0.92947795
   0.15621348  0.17311164  0.21163002
   0.15621348  0.03851838  0.82688836
   0.15621348  0.78836998  0.96148162
   0.24543458  0.20132899  0.17585227
   0.24543458  0.97452328  0.79867101
   0.24543458  0.82414773  0.02547672
   0.25106121  0.28396885  0.19940277
   0.25106121  0.91543393  0.71603115
   0.25106121  0.80059723  0.08456607
   0.32739940  0.14804803  0.11973115
   0.32739940  0.97168412  0.85195197
   0.32739940  0.88026885  0.02831588
   0.41392987  0.17707743  0.08978451
   0.41392987  0.91270709  0.82292257
   0.41392987  0.91021549  0.08729291
   0.33629858  0.31266042  0.16854416
   0.33629858  0.85588374  0.68733958
   0.33629858  0.83145584  0.14411626
   0.41945623  0.25971399  0.11410570
   0.41945723  0.85439172  0.74028601
   0.41945723  0.88589430  0.14560828
   0.51128252  0.29338317  0.08381062
   0.51128252  0.79042846  0.70661683
   0.51128252  0.91618938  0.20957154
   0.74384080  0.46235415  0.15096219
   0.74384080  0.68860803  0.53764585
   0.74384080  0.84903781  0.31139197
   0.83296404  0.45342177  0.04554268
   0.83296404  0.59212091  0.54657823
   0.83296404  0.95445732  0.40787909
   0.85935177  0.52831236  0.10944480
   0.85935177  0.58113245  0.47168764
   0.85935177  0.89055520  0.41886755
   0.80338346  0.60058155  0.25570862
   0.80338346  0.65512707  0.39941845
   0.80338346  0.74429138  0.34487293
   0.80339656  0.58770487  0.32158899
   0.80339656  0.73388411  0.41229513
   0.80339656  0.67841101  0.26611589
   0.51392497  0.38173219  0.94558092
   0.51392497  0.56384873  0.61826781
   0.51392497  0.05441908  0.43615127
   0.48827213  0.39561548  0.88347524
   0.48827213  0.48785876  0.60438452
   0.48827213  0.11652476  0.51214124
   0.62814893  0.30288970  0.84490233
   0.62814893  0.54201263  0.69711030
   0.62814893  0.15509767  0.45798737
   0.56352971  0.33885994  0.74218264
   0.56352971  0.40332270  0.66114006
   0.56352971  0.25781736  0.59667730
   0.56342496  0.26247567  0.67227056
   0.56342496  0.40979489  0.73752433
   0.56342496  0.32772944  0.59020511
   0.75289677  0.73728977  0.98890768
   0.75289677  0.25161791  0.26271023
   0.75289677  0.01109232  0.74838209
   0.72016284  0.84167679  0.97278259
   0.72016284  0.13110580  0.15832321
   0.72016284  0.02721741  0.86889420
   0.88300932  0.56538654  0.94612747
   0.88300932  0.38074093  0.43461346
   0.88300932  0.05387253  0.61925907
   0.91915650  0.45473414  0.83027396
   0.91915650  0.37553981  0.54526586
   0.91915650  0.16972604  0.62446019
   0.76085982  0.41366385  0.07241329
   0.76085982  0.65874844  0.58633615
   0.76085982  0.92758671  0.34125156
   0.80277398  0.53298961  0.17605390
   0.80277398  0.64306529  0.46701039
   0.80277398  0.82394610  0.35693471
   0.60166973  0.32456918  0.92074628
   0.60166973  0.59617710  0.67543082
   0.60166973  0.07925372  0.40382290
   0.56058144  0.34484222  0.81940750
   0.56058044  0.47456628  0.65515878
   0.56058044  0.18059250  0.52543372
   0.67754010  0.65212971  0.08967013
   0.67754010  0.43753941  0.34787029
   0.67754010  0.91032987  0.56246059
   0.59907976  0.58339298  0.96410520
   0.59907976  0.38071221  0.41660702
   0.59907976  0.03589480  0.61928779
   0.94327646  0.41716629  0.30838166
   0.94327646  0.89121537  0.58283471
   0.94327646  0.69161834  0.10878463
   0.89235698  0.33529893  0.17825113
   0.89235698  0.84295220  0.66470107
   0.89235698  0.82174887  0.15704780
   0.51033539  0.36666512  0.10352139
   0.51033539  0.73685527  0.63333488
   0.51033539  0.89647861  0.26314473
   0.59065325  0.24282252  0.03644904
   0.59065325  0.79362652  0.75717748
   0.59065325  0.96355096  0.20637348
   0.82546444  0.03969328  0.26938402
   0.82546444  0.22969074  0.96030672
   0.82546444  0.73061598  0.77030926
   0.87214232  0.13910891  0.39609177
   0.87214232  0.25698286  0.86089109
   0.87214232  0.60390823  0.74301714
unknown system                          
           1
    -0.000000    0.000000  -11.517095
    -9.531802  -16.509565    0.000000
    -9.531802   16.509565   -0.000000
   Zn   H    C    N    O 
   6  96 144  24  24
Direct configuration=    30
   0.80966207  0.67041524  0.03485457
   0.80966207  0.36443933  0.32958476
   0.80966207  0.96514543  0.63556067
   0.69218168  0.30373717  0.00131751
   0.69218168  0.69758134  0.69626283
   0.69218168  0.99868249  0.30241866
   0.09698449  0.51628284  0.33006530
   0.09698449  0.81378246  0.48371716
   0.09698449  0.66993470  0.18621754
   0.01271044  0.35241130  0.08077048
   0.01271044  0.72835918  0.64758870
   0.01271144  0.91922952  0.27164082
   0.16669967  0.41540926  0.03768209
   0.16669967  0.62227182  0.58459074
   0.16669967  0.96231791  0.37772818
   0.24786756  0.58083917  0.28855859
   0.24786756  0.70771942  0.41916083
   0.24786756  0.71144141  0.29228058
   0.42850872  0.55605062  0.22913198
   0.42850872  0.67308135  0.44394938
   0.42850872  0.77086802  0.32691865
   0.21071116  0.53139942  0.03435580
   0.21071116  0.50295538  0.46860058
   0.21071116  0.96564420  0.49704462
   0.37569880  0.57735285  0.98140222
   0.37569880  0.40404937  0.42264715
   0.37569880  0.01859778  0.59595163
   0.58804565  0.60882528  0.17987870
   0.58804565  0.57105342  0.39117472
   0.58804565  0.82012130  0.42894658
   0.83648906  0.85045804  0.06677398
   0.83648906  0.21631594  0.14954196
   0.83648906  0.93322602  0.78368406
   0.63666552  0.65405501  0.89626437
   0.63666552  0.24220936  0.34594499
   0.63666552  0.10373563  0.75779064
   0.60035674  0.78569611  0.87195854
   0.60035674  0.08626243  0.21430389
   0.60035674  0.12804146  0.91373757
   0.72027512  0.97577085  0.11722374
   0.72027512  0.14145289  0.02422915
   0.72027512  0.88277626  0.85854711
   0.75247706  0.51545830  0.85402698
   0.75247706  0.33856869  0.48454170
   0.75247706  0.14597302  0.66143131
   0.04789217  0.57470998  0.00243086
   0.04789217  0.42772088  0.42529002
   0.04789217  0.99756914  0.57227912
   0.09396012  0.43256371  0.85512478
   0.09396012  0.42256107  0.56743629
   0.09396012  0.14487522  0.57743893
   0.91189097  0.29474358  0.77458689
   0.91189097  0.47984330  0.70525642
   0.91189097  0.22541311  0.52015670
   0.01486305  0.23618389  0.39138938
   0.01486305  0.15520649  0.76381611
   0.01486305  0.60861062  0.84479351
   0.97203129  0.01496028  0.16635612
   0.97203129  0.15139484  0.98503972
   0.97203129  0.83364488  0.84860516
   0.12459166  0.05803953  0.10326139
   0.12459166  0.04522185  0.94196047
   0.12459166  0.89673861  0.95477815
   0.16747636  0.28077114  0.32945792
   0.16747636  0.04868678  0.71922886
   0.16747636  0.67054208  0.95131322
   0.18641332  0.32573199  0.24103985
   0.18641332  0.91530886  0.67426801
   0.18641332  0.75896015  0.08469114
   0.32516617  0.08396301  0.10173735
   0.32516617  0.01777434  0.91603699
   0.32516617  0.89826265  0.98222566
   0.47906591  0.13605901  0.04773098
   0.47906591  0.91167197  0.86394099
   0.47906591  0.95226902  0.08832803
   0.33974793  0.37631507  0.18569996
   0.33974793  0.80938589  0.62368493
   0.33974793  0.81430004  0.19061411
   0.68860094  0.44996080  0.18950501
   0.68860094  0.73954520  0.55003920
   0.68860094  0.81049499  0.26045480
   0.86139580  0.42456734  0.98305027
   0.86139580  0.55848293  0.57543266
   0.86139580  0.01694973  0.44151707
   0.91185140  0.57801094  0.11479946
   0.91185140  0.53678751  0.42198906
   0.91185140  0.88520154  0.46321249
   0.80281251  0.52684895  0.31311913
   0.80281251  0.78627018  0.47315105
   0.80281251  0.68688087  0.21372982
   0.47784770  0.40822786  0.00605147
   0.47784770  0.59782461  0.59177214
   0.47784770  0.99394853  0.40217639
   0.42810681  0.43669057  0.87889811
   0.42810681  0.44220654  0.56330943
   0.42810681  0.12110189  0.55779346
   0.69942787  0.26319473  0.81101103
   0.69942787  0.54781530  0.73680527
   0.69942787  0.18898897  0.45218470
   0.56067789  0.20727035  0.67609656
   0.56067789  0.46882622  0.79272965
   0.56067789  0.32390344  0.53117378
   0.95412308  0.39033629  0.23082688
   0.95412308  0.84049059  0.60966371
   0.95412308  0.76917312  0.15950941
   0.04533891  0.43057755  0.20761468
   0.04533891  0.77703813  0.56942245
   0.04533891  0.79238532  0.22296187
   0.11198050  0.49475841  0.26609610
   0.11198050  0.77133769  0.50524159
   0.11198050  0.73390390  0.22866231
   0.06484247  0.40291553  0.12525155
   0.06484247  0.72233602  0.59708447
   0.06484247  0.87474845  0.27766398
   0.14954549  0.43895117  0.10186013
   0.14954549  0.66290896  0.56104883
   0.14954549  0.89813987  0.33709104
   0.19667427  0.53076777  0.24256006
   0.19667427  0.71179229  0.46923223
   0.19667427  0.75743994  0.28820771
   0.21675583  0.50348889  0.16008185
   0.21675583  0.65659297  0.49651111
   0.21675583  0.83991815  0.34340703
   0.30894795  0.53927399  0.13446252
   0.30894795  0.59518853  0.46072601
   0.30894795  0.86553748  0.40481147
   0.41490261  0.56347228  0.17656051
   0.41490261  0.61308823  0.43652772
   0.41490261  0.82343949  0.38691177
   0.29447351  0.54692954  0.06528725
   0.29447351  0.51835871  0.45307046
   0.29447351  0.93471275  0.48164129
   0.38546697  0.57295338  0.03600634
   0.38546697  0.46305296  0.42704662
   0.38546697  0.96399366  0.53694704
   0.50496041  0.59140717  0.14828967
   0.50496041  0.55688250  0.40859283
   0.50496041  0.85171033  0.44311750
   0.49263039  0.59348041  0.07624031
   0.49263039  0.48275991  0.40651959
   0.49263039  0.92375969  0.51724009
   0.59529162  0.61079974  0.03931314
   0.59529162  0.42851340  0.38920026
   0.59529162  0.96068686  0.57148660
   0.77856595  0.81462038  0.01658253
   0.77856595  0.20196115  0.18537862
   0.77856595  0.98341747  0.79803885
   0.67477158  0.71392891  0.92574233
   0.67477158  0.21181442  0.28607109
   0.67477158  0.07425767  0.78818558
   0.65403366  0.77837368  0.91467524
   0.65403366  0.13630156  0.22162632
   0.65403366  0.08532476  0.86369844
   0.72383990  0.92177762  0.98642635
   0.72383990  0.06464774  0.07822238
   0.72383990  0.01357365  0.93535226
   0.72396216  0.98619606  0.06600930
   0.72396216  0.07981424  0.01380394
   0.72396216  0.93399070  0.92018576
   0.83964206  0.51345360  0.87408539
   0.83964206  0.36063279  0.48654640
   0.83964206  0.12591461  0.63936721
   0.99433507  0.54027603  0.94923203
   0.99433507  0.40895600  0.45972397
   0.99433507  0.05076797  0.59104400
   0.01810582  0.47110933  0.87761892
   0.01810682  0.40650959  0.52889067
   0.01810582  0.12238108  0.59349041
   0.91009342  0.39282432  0.74732365
   0.91009342  0.35449933  0.60717568
   0.91009342  0.25267635  0.64550067
   0.90988535  0.31179729  0.72753952
   0.90988535  0.41574222  0.68820271
   0.90988535  0.27246048  0.58425778
   0.88773216  0.10006734  0.32043033
   0.88773216  0.22036300  0.89993266
   0.88773216  0.67956967  0.77963700
   0.98321429  0.12353814  0.28275282
   0.98321429  0.15921468  0.87646186
   0.98321429  0.71724718  0.84078532
   0.03957154  0.19793360  0.32822322
   0.03957154  0.13028963  0.80206640
   0.03957154  0.67177678  0.86971037
   0.01536491  0.07317399  0.20151928
   0.01536491  0.12834529  0.92682601
   0.01536491  0.79848072  0.87165471
   0.10124891  0.09737495  0.16666186
   0.10124891  0.06928691  0.90262505
   0.10124891  0.83333814  0.93071309
   0.12387364  0.22270084  0.29316356
   0.12387364  0.07046272  0.77729916
   0.12387364  0.70683644  0.92953728
   0.15613150  0.17306204  0.21154142
   0.15613150  0.03847939  0.82693796
   0.15613150  0.78845858  0.96152061
   0.24535958  0.20129004  0.17577505
   0.24535958  0.97448502  0.79870996
   0.24535958  0.82422495  0.02551498
   0.25101367  0.28391586  0.19931737
   0.25101367  0.91540151  0.71608414
   0.25101367  0.80068263  0.08459849
   0.32734508  0.14802148  0.11967088
   0.32734508  0.97165039  0.85197852
   0.32734508  0.88032912  0.02834961
   0.41387869  0.17705613  0.08973046
   0.41387869  0.91267434  0.82294387
   0.41387869  0.91026954  0.08732566
   0.33622635  0.31262574  0.16849371
   0.33622635  0.85586796  0.68737426
   0.33622635  0.83150629  0.14413204
   0.41939478  0.25969059  0.11406153
   0.41939578  0.85437094  0.74030941
   0.41939578  0.88593847  0.14562906
   0.51124736  0.29337041  0.08378579
   0.51124736  0.79041639  0.70662959
   0.51124736  0.91621421  0.20958361
   0.74381534  0.46236661  0.15096597
   0.74381534  0.68859936  0.53763339
   0.74381534  0.84903403  0.31140064
   0.83294240  0.45344629  0.04555055
   0.83294240  0.59210426  0.54655371
   0.83294240  0.95444945  0.40789574
   0.85935370  0.52830978  0.10944296
   0.85935370  0.58113317  0.47169022
   0.85935370  0.89055704  0.41886683
   0.80340428  0.60057812  0.25569723
   0.80340428  0.65511911  0.39942188
   0.80340428  0.74430277  0.34488089
   0.80341180  0.58770471  0.32157949
   0.80341180  0.73387478  0.41229529
   0.80341180  0.67842051  0.26612522
   0.51393622  0.38176148  0.94557319
   0.51393622  0.56381171  0.61823852
   0.51393622  0.05442681  0.43618829
   0.48832194  0.39564310  0.88347326
   0.48832194  0.48782916  0.60435690
   0.48832194  0.11652674  0.51217084
   0.62816633  0.30288897  0.84490549
   0.62816633  0.54201652  0.69711103
   0.62816633  0.15509451  0.45798348
   0.56357204  0.33886099  0.74218613
   0.56357204  0.40332513  0.66113901
   0.56357204  0.25781387  0.59667487
   0.56347688  0.26249360  0.67229120
   0.56347688  0.40979760  0.73750640
   0.56347688  0.32770880  0.59020240
   0.75291729  0.73729293  0.98892259
   0.75291729  0.25162966  0.26270707
   0.75291729  0.01107741  0.74837034
   0.72021662  0.84168609  0.97280234
   0.72021662  0.13111625  0.15831391
   0.72021662  0.02719766  0.86888375
   0.88300290  0.56539242  0.94611711
   0.88300290  0.38072470  0.43460758
   0.88300290  0.05388289  0.61927530
   0.91911221  0.45476634  0.83026628
   0.91911221  0.37549994  0.54523366
   0.91911221  0.16973372  0.62450006
   0.76083237  0.41368134  0.07240864
   0.76083237  0.65872630  0.58631866
   0.76083237  0.92759136  0.34127370
   0.80280274  0.53300187  0.17605353
   0.80280274  0.64305266  0.46699813
   0.80280274  0.82394647  0.35694734
   0.60167268  0.32457733  0.92075113
   0.60167268  0.59617380  0.67542267
   0.60167268  0.07924887  0.40382620
   0.56061458  0.34485681  0.81941140
   0.56061358  0.47455559  0.65514419
   0.56061358  0.18058860  0.52544441
   0.67758120  0.65213192  0.08969541
   0.67758120  0.43756248  0.34786808
   0.67758120  0.91030459  0.56243752
   0.59906025  0.58344273  0.96414271
   0.59906025  0.38069998  0.41655727
   0.59906025  0.03585729  0.61930002
   0.94335115  0.41718783  0.30844957
   0.94335115  0.89126174  0.58281317
   0.94335115  0.69155043  0.10873826
   0.89229173  0.33541030  0.17830727
   0.89229173  0.84289697  0.66458970
   0.89229173  0.82169273  0.15710303
   0.51027807  0.36665959  0.10351190
   0.51027807  0.73685131  0.63334041
   0.51027807  0.89648810  0.26314869
   0.59062574  0.24280805  0.03641866
   0.59062574  0.79361061  0.75719195
   0.59062574  0.96358134  0.20638939
   0.82545185  0.03961162  0.26934177
   0.82545185  0.22973016  0.96038838
   0.82545185  0.73065823  0.77026984
   0.87211968  0.13907009  0.39601804
   0.87211968  0.25694796  0.86092991
   0.87211968  0.60398196  0.74305204
unknown system                          
           1
    -0.000000    0.000000  -11.517524
    -9.531058  -16.508277    0.000000
    -9.531058   16.508277   -0.000000
   Zn   H    C    N    O 
   6  96 144  24  24
Direct configuration=    31
   0.80964148  0.67041063  0.03481915
   0.80964148  0.36440852  0.32958937
   0.80964148  0.96518085  0.63559148
   0.69222262  0.30373801  0.00129360
   0.69222262  0.69755659  0.69626199
   0.69222262  0.99870640  0.30244341
   0.09690733  0.51625569  0.33002512
   0.09690733  0.81376943  0.48374431
   0.09690733  0.66997488  0.18623057
   0.01273556  0.35234488  0.08071541
   0.01273556  0.72837053  0.64765512
   0.01273656  0.91928459  0.27162947
   0.16670464  0.41536438  0.03763175
   0.16670464  0.62226637  0.58463562
   0.16670464  0.96236825  0.37773363
   0.24777667  0.58084475  0.28854103
   0.24777667  0.70769628  0.41915525
   0.24777667  0.71145897  0.29230372
   0.42846957  0.55601728  0.22908877
   0.42846957  0.67307149  0.44398272
   0.42846957  0.77091123  0.32692851
   0.21066651  0.53139433  0.03431921
   0.21066651  0.50292388  0.46860567
   0.21066651  0.96568079  0.49707612
   0.37567246  0.57734674  0.98137985
   0.37567246  0.40403311  0.42265326
   0.37567246  0.01862015  0.59596789
   0.58801124  0.60880981  0.17984511
   0.58801124  0.57103530  0.39119019
   0.58801124  0.82015489  0.42896470
   0.83646816  0.85044844  0.06673062
   0.83646816  0.21628218  0.14955156
   0.83646816  0.93326938  0.78371782
   0.63658025  0.65406094  0.89630248
   0.63658025  0.24224153  0.34593906
   0.63658025  0.10369752  0.75775847
   0.60023955  0.78568028  0.87197224
   0.60023955  0.08629196  0.21431972
   0.60023955  0.12802776  0.91370804
   0.72016551  0.97574355  0.11720871
   0.72016551  0.14146515  0.02425645
   0.72016551  0.88279129  0.85853485
   0.75262108  0.51551397  0.85393273
   0.75262108  0.33841876  0.48448603
   0.75262108  0.14606727  0.66158124
   0.04777418  0.57462028  0.00252607
   0.04777418  0.42790579  0.42537972
   0.04777418  0.99747393  0.57209421
   0.09388398  0.43243874  0.85527315
   0.09388398  0.42283441  0.56756126
   0.09388398  0.14472685  0.57716559
   0.91196360  0.29471461  0.77457157
   0.91196360  0.47985696  0.70528539
   0.91196360  0.22542843  0.52014304
   0.01499147  0.23622080  0.39149103
   0.01499147  0.15527123  0.76377920
   0.01499147  0.60850897  0.84472877
   0.97204324  0.01505338  0.16644192
   0.97204324  0.15138754  0.98494662
   0.97204324  0.83355908  0.84861246
   0.12462908  0.05810562  0.10334699
   0.12462908  0.04524136  0.94189438
   0.12462908  0.89665301  0.95475864
   0.16763832  0.28079246  0.32956927
   0.16763832  0.04877681  0.71920754
   0.16763832  0.67043073  0.95122319
   0.18648177  0.32579519  0.24113407
   0.18648177  0.91533988  0.67420481
   0.18648177  0.75886593  0.08466012
   0.32520925  0.08398604  0.10180287
   0.32520925  0.01781683  0.91601396
   0.32520925  0.89819713  0.98218317
   0.47908804  0.13608308  0.04777495
   0.47908804  0.91169187  0.86391692
   0.47908804  0.95222505  0.08830813
   0.33980059  0.37632972  0.18572830
   0.33980059  0.80939958  0.62367028
   0.33980059  0.81427170  0.19060042
   0.68859461  0.44994349  0.18949353
   0.68859461  0.73955104  0.55005651
   0.68859461  0.81050647  0.26044896
   0.86144776  0.42456019  0.98305953
   0.86144776  0.55849934  0.57543981
   0.86144776  0.01694047  0.44150066
   0.91181455  0.57801014  0.11481296
   0.91181455  0.53680182  0.42198986
   0.91181455  0.88518804  0.46319818
   0.80278280  0.52684795  0.31312877
   0.80278280  0.78628083  0.47315205
   0.80278280  0.68687123  0.21371917
   0.47782699  0.40818774  0.00604839
   0.47782699  0.59786165  0.59181226
   0.47782699  0.99395161  0.40213935
   0.42802143  0.43664938  0.87890391
   0.42802143  0.44225353  0.56335062
   0.42802143  0.12109609  0.55774647
   0.69941978  0.26320323  0.81100813
   0.69941978  0.54780389  0.73679677
   0.69941978  0.18899187  0.45219611
   0.56061752  0.20725865  0.67608189
   0.56061752  0.46882323  0.79274135
   0.56061752  0.32391811  0.53117677
   0.95411831  0.39026813  0.23076054
   0.95411831  0.84049241  0.60973187
   0.95411831  0.76923946  0.15950759
   0.04529255  0.43051246  0.20754551
   0.04529255  0.77703404  0.56948754
   0.04529255  0.79245449  0.22296596
   0.11191339  0.49472740  0.26603726
   0.11191339  0.77130986  0.50527260
   0.11191339  0.73396274  0.22869014
   0.06483340  0.40286415  0.12520203
   0.06483340  0.72233788  0.59713585
   0.06483340  0.87479797  0.27766212
   0.14951707  0.43892140  0.10182563
   0.14951707  0.66290424  0.56107860
   0.14951707  0.89817437  0.33709576
   0.19660949  0.53076003  0.24252047
   0.19660949  0.71176044  0.46923997
   0.19660949  0.75747953  0.28823956
   0.21672585  0.50348177  0.16004873
   0.21672585  0.65656697  0.49651823
   0.21672585  0.83995127  0.34343303
   0.30891241  0.53925516  0.13442831
   0.30891241  0.59517315  0.46074484
   0.30891241  0.86557169  0.40482685
   0.41487618  0.56344914  0.17651644
   0.41487618  0.61306730  0.43655086
   0.41487618  0.82348356  0.38693270
   0.29443159  0.54691731  0.06523701
   0.29443159  0.51832070  0.45308269
   0.29443159  0.93476299  0.48167930
   0.38543555  0.57292255  0.03597414
   0.38543555  0.46305159  0.42707745
   0.38543555  0.96402586  0.53694841
   0.50494279  0.59136987  0.14826050
   0.50494279  0.55689063  0.40863013
   0.50494279  0.85173950  0.44310937
   0.49259906  0.59344686  0.07619451
   0.49259906  0.48274765  0.40655314
   0.49259906  0.92380549  0.51725235
   0.59528498  0.61077833  0.03927516
   0.59528498  0.42849683  0.38922167
   0.59528498  0.96072484  0.57150317
   0.77853406  0.81460997  0.01654293
   0.77853406  0.20193195  0.18538903
   0.77853406  0.98345707  0.79806805
   0.67470079  0.71392247  0.92573984
   0.67470079  0.21181837  0.28607753
   0.67470079  0.07426016  0.78818163
   0.65393089  0.77835550  0.91466882
   0.65393089  0.13631331  0.22164450
   0.65393089  0.08533118  0.86368669
   0.72376797  0.92177042  0.98642146
   0.72376797  0.06465004  0.07822958
   0.72376797  0.01357854  0.93534996
   0.72388232  0.98618948  0.06600747
   0.72388232  0.07981898  0.01381052
   0.72388232  0.93399253  0.92018102
   0.83971942  0.51346078  0.87406301
   0.83971942  0.36060323  0.48653922
   0.83971942  0.12593699  0.63939677
   0.99426382  0.54021352  0.94930906
   0.99426382  0.40909554  0.45978648
   0.99426382  0.05069094  0.59090446
   0.01807218  0.47102148  0.87769373
   0.01807318  0.40667226  0.52897852
   0.01807218  0.12230627  0.59332774
   0.91016352  0.39281798  0.74733211
   0.91016352  0.35451413  0.60718202
   0.91016352  0.25266789  0.64548587
   0.90996754  0.31178579  0.72753482
   0.90996754  0.41574903  0.68821421
   0.90996754  0.27246518  0.58425097
   0.88776565  0.10013347  0.32051354
   0.88776565  0.22038007  0.89986653
   0.88776565  0.67948646  0.77961993
   0.98328293  0.12359736  0.28285067
   0.98328293  0.15925331  0.87640264
   0.98328293  0.71714933  0.84074669
   0.03970256  0.19798604  0.32832424
   0.03970256  0.13033820  0.80201396
   0.03970256  0.67167576  0.86966180
   0.01543895  0.07324669  0.20160412
   0.01543895  0.12835744  0.92675331
   0.01543895  0.79839588  0.87164256
   0.10132264  0.09744294  0.16675643
   0.10132264  0.06931349  0.90255706
   0.10132264  0.83324357  0.93068651
   0.12402648  0.22274442  0.29327651
   0.12402648  0.07053210  0.77725558
   0.12402648  0.70672349  0.92946790
   0.15623198  0.17312467  0.21165197
   0.15623198  0.03852730  0.82687533
   0.15623198  0.78834803  0.96147270
   0.24542738  0.20134346  0.17588376
   0.24542738  0.97454030  0.79865654
   0.24542738  0.82411624  0.02545970
   0.25110544  0.28397492  0.19939861
   0.25110544  0.91542369  0.71602508
   0.25110544  0.80060139  0.08457631
   0.32741844  0.14806568  0.11974521
   0.32741844  0.97168053  0.85193432
   0.32741844  0.88025479  0.02831947
   0.41394174  0.17707933  0.08979012
   0.41394174  0.91271079  0.82292067
   0.41394174  0.91020988  0.08728921
   0.33630408  0.31265052  0.16855475
   0.33630408  0.85590423  0.68734948
   0.33630408  0.83144525  0.14409577
   0.41945635  0.25971514  0.11411899
   0.41945735  0.85440385  0.74028486
   0.41945735  0.88588101  0.14559615
   0.51128513  0.29337831  0.08381587
   0.51128513  0.79043856  0.70662169
   0.51128513  0.91618413  0.20956144
   0.74383587  0.46234664  0.15096618
   0.74383587  0.68861955  0.53765336
   0.74383587  0.84903382  0.31138045
   0.83298530  0.45344822  0.04556647
   0.83298530  0.59211825  0.54655178
   0.83298530  0.95443353  0.40788175
   0.85934711  0.52830327  0.10943720
   0.85934711  0.58113392  0.47169673
   0.85934711  0.89056280  0.41886608
   0.80337570  0.60056243  0.25569877
   0.80337570  0.65513633  0.39943757
   0.80337570  0.74430123  0.34486367
   0.80339579  0.58770772  0.32159651
   0.80339579  0.73388879  0.41229228
   0.80339579  0.67840349  0.26611121
   0.51392010  0.38172788  0.94556409
   0.51392010  0.56383621  0.61827212
   0.51392010  0.05443591  0.43616379
   0.48826360  0.39561284  0.88347182
   0.48826360  0.48785798  0.60438716
   0.48826360  0.11652818  0.51214202
   0.62815023  0.30289287  0.84490746
   0.62815023  0.54201460  0.69710713
   0.62815023  0.15509254  0.45798540
   0.56352561  0.33884508  0.74218784
   0.56352561  0.40334276  0.66115492
   0.56352561  0.25781216  0.59665724
   0.56341954  0.26247656  0.67226996
   0.56341954  0.40979340  0.73752344
   0.56341954  0.32773004  0.59020660
   0.75288985  0.73727872  0.98890344
   0.75288985  0.25162472  0.26272128
   0.75288985  0.01109656  0.74837528
   0.72013251  0.84166380  0.97276073
   0.72013251  0.13109693  0.15833620
   0.72013251  0.02723927  0.86890307
   0.88301076  0.56538949  0.94612789
   0.88301076  0.38073840  0.43461051
   0.88301076  0.05387211  0.61926160
   0.91916090  0.45473908  0.83028367
   0.91916090  0.37554458  0.54526092
   0.91916090  0.16971633  0.62445542
   0.76085797  0.41364595  0.07239764
   0.76085797  0.65875069  0.58635405
   0.76085797  0.92760236  0.34124931
   0.80279969  0.53300446  0.17604103
   0.80279969  0.64303757  0.46699554
   0.80279969  0.82395897  0.35696243
   0.60167739  0.32455837  0.92075330
   0.60167739  0.59619493  0.67544163
   0.60167739  0.07924670  0.40380507
   0.56054025  0.34486068  0.81942358
   0.56053925  0.47456390  0.65514032
   0.56053925  0.18057642  0.52543610
   0.67755414  0.65213283  0.08967008
   0.67755414  0.43753625  0.34786717
   0.67755414  0.91032992  0.56246375
   0.59907236  0.58337993  0.96408068
   0.59907236  0.38070075  0.41662007
   0.59907236  0.03591932  0.61929925
   0.94325607  0.41716421  0.30838167
   0.94325607  0.89121746  0.58283679
   0.94325607  0.69161833  0.10878254
   0.89236184  0.33527312  0.17823232
   0.89236184  0.84295920  0.66472688
   0.89236184  0.82176768  0.15704080
   0.51033907  0.36668248  0.10352529
   0.51033907  0.73684181  0.63331752
   0.51033907  0.89647471  0.26315819
   0.59065888  0.24281800  0.03644441
   0.59065888  0.79362641  0.75718200
   0.59065888  0.96355559  0.20637359
   0.82546727  0.03970481  0.26939435
   0.82546727  0.22968954  0.96029519
   0.82546727  0.73060565  0.77031046
   0.87214274  0.13911836  0.39610907
   0.87214274  0.25699072  0.86088164
   0.87214274  0.60389093  0.74300928
unknown system                          
           1
    -0.000000    0.000000  -11.518813
    -9.528827  -16.504413    0.000000
    -9.528827   16.504413   -0.000000
   Zn   H    C    N    O 
   6  96 144  24  24
Direct configuration=    32
   0.80957972  0.67039681  0.03471288
   0.80957972  0.36431607  0.32960319
   0.80957972  0.96528712  0.63568393
   0.69234542  0.30374054  0.00122186
   0.69234542  0.69748232  0.69625946
   0.69234542  0.99877814  0.30251768
   0.09667585  0.51617423  0.32990457
   0.09667585  0.81373035  0.48382577
   0.09667585  0.67009543  0.18626965
   0.01281092  0.35214563  0.08055020
   0.01281092  0.72840457  0.64785437
   0.01281192  0.91944980  0.27159543
   0.16671956  0.41522972  0.03748071
   0.16671956  0.62224999  0.58477028
   0.16671956  0.96251929  0.37775001
   0.24750399  0.58086147  0.28848834
   0.24750399  0.70762687  0.41913853
   0.24750399  0.71151166  0.29237313
   0.42835214  0.55591726  0.22895914
   0.42835214  0.67304188  0.44408274
   0.42835214  0.77104086  0.32695812
   0.21053257  0.53137904  0.03420943
   0.21053257  0.50282940  0.46862096
   0.21053257  0.96579057  0.49717060
   0.37559343  0.57732844  0.98131275
   0.37559343  0.40398431  0.42267156
   0.37559343  0.01868725  0.59601669
   0.58790804  0.60876342  0.17974435
   0.58790804  0.57098094  0.39123658
   0.58790804  0.82025565  0.42901906
   0.83640546  0.85041964  0.06660052
   0.83640546  0.21618088  0.14958036
   0.83640546  0.93339948  0.78381912
   0.63632444  0.65407873  0.89641680
   0.63632444  0.24233807  0.34592127
   0.63632444  0.10358320  0.75766193
   0.59988798  0.78563278  0.87201333
   0.59988798  0.08638055  0.21436722
   0.59988798  0.12798667  0.91361945
   0.71983670  0.97566166  0.11716360
   0.71983670  0.14150195  0.02433834
   0.71983670  0.88283640  0.85849805
   0.75305312  0.51568100  0.85364995
   0.75305312  0.33796896  0.48431900
   0.75305312  0.14635005  0.66203104
   0.04742021  0.57435117  0.00281173
   0.04742021  0.42846056  0.42564883
   0.04742021  0.99718827  0.57153944
   0.09365558  0.43206379  0.85571830
   0.09365558  0.42365451  0.56793621
   0.09365558  0.14428170  0.57634549
   0.91218148  0.29462767  0.77452561
   0.91218148  0.47989793  0.70537233
   0.91218148  0.22547439  0.52010207
   0.01537672  0.23633153  0.39179600
   0.01537672  0.15546547  0.76366847
   0.01537672  0.60820400  0.84453453
   0.97207906  0.01533273  0.16669936
   0.97207906  0.15136563  0.98466727
   0.97207906  0.83330164  0.84863437
   0.12474134  0.05830391  0.10360382
   0.12474134  0.04529991  0.94169609
   0.12474134  0.89639618  0.95470009
   0.16812420  0.28085644  0.32990334
   0.16812420  0.04904691  0.71914356
   0.16812420  0.67009666  0.95095309
   0.18668713  0.32598480  0.24141677
   0.18668713  0.91543297  0.67401520
   0.18668713  0.75858323  0.08456703
   0.32533849  0.08405512  0.10199943
   0.32533849  0.01794430  0.91594488
   0.32533849  0.89800057  0.98205570
   0.47915446  0.13615527  0.04790684
   0.47915446  0.91175157  0.86384473
   0.47915446  0.95209316  0.08824843
   0.33995857  0.37637365  0.18581330
   0.33995857  0.80944065  0.62362635
   0.33995857  0.81418670  0.19055935
   0.68857561  0.44989153  0.18945910
   0.68857561  0.73956857  0.55010847
   0.68857561  0.81054090  0.26043143
   0.86160367  0.42453876  0.98308734
   0.86160367  0.55854858  0.57546124
   0.86160367  0.01691266  0.44145142
   0.91170399  0.57800771  0.11485346
   0.91170399  0.53684475  0.42199229
   0.91170399  0.88514754  0.46315525
   0.80269366  0.52684492  0.31315770
   0.80269366  0.78631278  0.47315508
   0.80269366  0.68684230  0.21368722
   0.47776485  0.40806737  0.00603914
   0.47776485  0.59797276  0.59193263
   0.47776485  0.99396086  0.40202824
   0.42776532  0.43652581  0.87892130
   0.42776532  0.44239449  0.56347419
   0.42776532  0.12107870  0.55760551
   0.69939553  0.26322876  0.81099943
   0.69939553  0.54776966  0.73677124
   0.69939553  0.18900057  0.45223034
   0.56043640  0.20722356  0.67603785
   0.56043640  0.46881429  0.79277644
   0.56043640  0.32396215  0.53118571
   0.95410401  0.39006364  0.23056151
   0.95410401  0.84049787  0.60993636
   0.95410401  0.76943849  0.15950213
   0.04515347  0.43031719  0.20733797
   0.04515347  0.77702178  0.56968281
   0.04515347  0.79266203  0.22297822
   0.11171206  0.49463438  0.26586072
   0.11171206  0.77122635  0.50536562
   0.11171206  0.73413928  0.22877365
   0.06480618  0.40271000  0.12505344
   0.06480618  0.72234344  0.59729000
   0.06480618  0.87494656  0.27765656
   0.14943181  0.43883206  0.10172214
   0.14943181  0.66289008  0.56116794
   0.14943181  0.89827786  0.33710992
   0.19641516  0.53073681  0.24240171
   0.19641516  0.71166490  0.46926319
   0.19641516  0.75759829  0.28833510
   0.21663589  0.50346041  0.15994936
   0.21663589  0.65648895  0.49653959
   0.21663589  0.84005064  0.34351105
   0.30880578  0.53919865  0.13432568
   0.30880578  0.59512703  0.46080135
   0.30880578  0.86567432  0.40487297
   0.41479691  0.56337970  0.17638422
   0.41479691  0.61300452  0.43662030
   0.41479691  0.82361578  0.38699548
   0.29430582  0.54688064  0.06508628
   0.29430582  0.51820664  0.45311936
   0.29430582  0.93491372  0.48179336
   0.38534130  0.57283007  0.03587754
   0.38534130  0.46304747  0.42716993
   0.38534130  0.96412246  0.53695253
   0.50488993  0.59125799  0.14817299
   0.50488993  0.55691500  0.40874201
   0.50488993  0.85182701  0.44308500
   0.49250508  0.59334621  0.07605707
   0.49250508  0.48271085  0.40665379
   0.49250508  0.92394293  0.51728915
   0.59526503  0.61071409  0.03916118
   0.59526503  0.42844709  0.38928591
   0.59526503  0.96083882  0.57155291
   0.77843840  0.81457876  0.01642411
   0.77843840  0.20184435  0.18542024
   0.77843840  0.98357589  0.79815565
   0.67448842  0.71390314  0.92573238
   0.67448842  0.21183024  0.28609686
   0.67448842  0.07426762  0.78816976
   0.65362258  0.77830097  0.91464955
   0.65362258  0.13634858  0.22169903
   0.65362258  0.08535045  0.86365142
   0.72355219  0.92174881  0.98640677
   0.72355219  0.06465696  0.07825119
   0.72355219  0.01359323  0.93534304
   0.72364283  0.98616975  0.06600197
   0.72364283  0.07983322  0.01383025
   0.72364283  0.93399803  0.92016678
   0.83995147  0.51348234  0.87399588
   0.83995147  0.36051454  0.48651766
   0.83995147  0.12600412  0.63948546
   0.99405006  0.54002597  0.94954016
   0.99405006  0.40951419  0.45997403
   0.99405006  0.05045984  0.59048581
   0.01797125  0.47075789  0.87791818
   0.01797225  0.40716029  0.52924211
   0.01797125  0.12208182  0.59283971
   0.91037381  0.39279896  0.74735748
   0.91037381  0.35455852  0.60720104
   0.91037381  0.25264252  0.64544148
   0.91021409  0.31175128  0.72752075
   0.91021409  0.41576947  0.68824872
   0.91021409  0.27247925  0.58423053
   0.88786611  0.10033187  0.32076317
   0.88786611  0.22043130  0.89966813
   0.88786611  0.67923683  0.77956870
   0.98348886  0.12377503  0.28314424
   0.98348886  0.15936921  0.87622497
   0.98348886  0.71685576  0.84063079
   0.04009560  0.19814339  0.32862732
   0.04009560  0.13048393  0.80185661
   0.04009560  0.67137268  0.86951607
   0.01566105  0.07346479  0.20185868
   0.01566105  0.12839388  0.92653521
   0.01566105  0.79814132  0.87160612
   0.10154380  0.09764692  0.16704016
   0.10154380  0.06939324  0.90235308
   0.10154380  0.83295984  0.93060676
   0.12448496  0.22287516  0.29361539
   0.12448496  0.07074023  0.77712484
   0.12448496  0.70638461  0.92925977
   0.15653342  0.17331257  0.21198361
   0.15653342  0.03867105  0.82668743
   0.15653342  0.78801639  0.96132895
   0.24563078  0.20150373  0.17620990
   0.24563078  0.97470617  0.79849627
   0.24563078  0.82379010  0.02529383
   0.25138076  0.28415210  0.19964234
   0.25138076  0.91549024  0.71584790
   0.25138076  0.80035766  0.08450976
   0.32763850  0.14819827  0.11996822
   0.32763850  0.97177095  0.85180173
   0.32763850  0.88003178  0.02822905
   0.41413090  0.17714894  0.08996909
   0.41413090  0.91282015  0.82285106
   0.41413090  0.91003091  0.08717985
   0.33653724  0.31272483  0.16873789
   0.33653724  0.85601306  0.68727517
   0.33653724  0.83126211  0.14398694
   0.41964108  0.25978878  0.11429138
   0.41964208  0.85450260  0.74021122
   0.41964208  0.88570862  0.14549740
   0.51139843  0.29340201  0.08390609
   0.51139843  0.79050508  0.70659799
   0.51139843  0.91609391  0.20949492
   0.74389748  0.46228673  0.15096683
   0.74389748  0.68868010  0.53771327
   0.74389748  0.84903317  0.31131990
   0.83311400  0.45345402  0.04561422
   0.83311400  0.59216021  0.54654598
   0.83311400  0.95438578  0.40783979
   0.85932735  0.52828374  0.10941991
   0.85932735  0.58113616  0.47171626
   0.85932735  0.89058009  0.41886384
   0.80328995  0.60051536  0.25570336
   0.80328995  0.65518800  0.39948464
   0.80328995  0.74429664  0.34481200
   0.80334778  0.58771674  0.32164759
   0.80334778  0.73393085  0.41228326
   0.80334778  0.67835241  0.26606915
   0.51387176  0.38162707  0.94553677
   0.51387176  0.56390970  0.61837293
   0.51387176  0.05446323  0.43609030
   0.48808860  0.39552205  0.88346749
   0.48808860  0.48794444  0.60447795
   0.48808860  0.11653251  0.51205556
   0.62810193  0.30290456  0.84491338
   0.62810193  0.54200883  0.69709544
   0.62810193  0.15508662  0.45799117
   0.56338632  0.33879733  0.74219296
   0.56338632  0.40339563  0.66120267
   0.56338632  0.25780704  0.59660437
   0.56324755  0.26242545  0.67220626
   0.56324755  0.40978081  0.73757455
   0.56324755  0.32779374  0.59021919
   0.75280754  0.73723610  0.98884599
   0.75280754  0.25160989  0.26276390
   0.75280754  0.01115401  0.74839011
   0.71988019  0.84159694  0.97263589
   0.71988019  0.13103895  0.15840306
   0.71988019  0.02736411  0.86896105
   0.88303435  0.56538069  0.94616021
   0.88303435  0.38077952  0.43461931
   0.88303435  0.05383979  0.61922048
   0.91930696  0.45465731  0.83033583
   0.91930696  0.37567852  0.54534269
   0.91930696  0.16966417  0.62432148
   0.76093476  0.41353978  0.07236466
   0.76093476  0.65882388  0.58646022
   0.76093476  0.92763534  0.34117612
   0.80279053  0.53301225  0.17600354
   0.80279053  0.64299229  0.46698775
   0.80279053  0.82399646  0.35700771
   0.60169150  0.32450150  0.92075984
   0.60169150  0.59625834  0.67549850
   0.60169150  0.07924016  0.40374166
   0.56031729  0.34487230  0.81946012
   0.56031629  0.47458883  0.65512870
   0.56031629  0.18053988  0.52541117
   0.67747296  0.65213555  0.08959409
   0.67747296  0.43745754  0.34786445
   0.67747296  0.91040591  0.56254246
   0.59910869  0.58319150  0.96389456
   0.59910869  0.38070306  0.41680850
   0.59910869  0.03610544  0.61929694
   0.94297084  0.41709332  0.30817795
   0.94297084  0.89108463  0.58290768
   0.94297084  0.69182205  0.10891537
   0.89257219  0.33486155  0.17800747
   0.89257219  0.84314591  0.66513845
   0.89257219  0.82199253  0.15685409
   0.51052206  0.36675115  0.10356547
   0.51052206  0.73681332  0.63324885
   0.51052206  0.89643453  0.26318668
   0.59075830  0.24284785  0.03652165
   0.59075830  0.79367380  0.75715215
   0.59075830  0.96347835  0.20632620
   0.82551354  0.03998441  0.26955209
   0.82551354  0.22956768  0.96001559
   0.82551354  0.73044791  0.77043232
   0.87221193  0.13926318  0.39638219
   0.87221193  0.25711901  0.86073682
   0.87221193  0.60361781  0.74288099
unknown system                          
           1
    -0.000000    0.000000  -11.519274
    -9.528523  -16.503886    0.000000
    -9.528523   16.503886   -0.000000
   Zn   H    C    N    O 
   6  96 144  24  24
Direct configuration=    33
   0.80954998  0.67038511  0.03469268
   0.80954998  0.36430758  0.32961489
   0.80954998  0.96530732  0.63569242
   0.69238483  0.30371142  0.00119319
   0.69238483  0.69748277  0.69628858
   0.69238483  0.99880681  0.30251723
   0.09658188  0.51614151  0.32985173
   0.09658188  0.81371022  0.48385849
   0.09658188  0.67014827  0.18628978
   0.01286075  0.35207323  0.08048920
   0.01286075  0.72841597  0.64792677
   0.01286175  0.91951080  0.27158403
   0.16671801  0.41518410  0.03742932
   0.16671801  0.62224422  0.58481590
   0.16671801  0.96257068  0.37775578
   0.24738173  0.58084078  0.28845490
   0.24738173  0.70761412  0.41915922
   0.24738173  0.71154510  0.29238588
   0.42830094  0.55589100  0.22891040
   0.42830094  0.67301940  0.44410900
   0.42830094  0.77108960  0.32698060
   0.21051342  0.53137292  0.03416647
   0.21051342  0.50279254  0.46862708
   0.21051342  0.96583353  0.49720746
   0.37556989  0.57732798  0.98129117
   0.37556989  0.40396319  0.42267202
   0.37556989  0.01870883  0.59603781
   0.58784725  0.60873480  0.17969553
   0.58784725  0.57096073  0.39126520
   0.58784725  0.82030447  0.42903927
   0.83639788  0.85042033  0.06656572
   0.83639788  0.21614540  0.14957967
   0.83639788  0.93343428  0.78385460
   0.63621614  0.65406886  0.89644773
   0.63621614  0.24237887  0.34593114
   0.63621614  0.10355227  0.75762113
   0.59974776  0.78561918  0.87202867
   0.59974776  0.08640949  0.21438082
   0.59974776  0.12797133  0.91359051
   0.71971431  0.97563372  0.11714849
   0.71971431  0.14151477  0.02436628
   0.71971431  0.88285151  0.85848523
   0.75319489  0.51573784  0.85353141
   0.75319489  0.33779357  0.48426216
   0.75319489  0.14646859  0.66220643
   0.04729324  0.57426029  0.00293508
   0.04729324  0.42867479  0.42573971
   0.04729324  0.99706492  0.57132521
   0.09359176  0.43191370  0.85587987
   0.09359176  0.42396617  0.56808630
   0.09359176  0.14412013  0.57603383
   0.91225914  0.29458838  0.77452259
   0.91225914  0.47993421  0.70541162
   0.91225914  0.22547741  0.52006579
   0.01553482  0.23639327  0.39193952
   0.01553482  0.15554725  0.76360673
   0.01553482  0.60806048  0.84445275
   0.97207208  0.01542295  0.16677945
   0.97207208  0.15135551  0.98457705
   0.97207208  0.83322155  0.84864449
   0.12479997  0.05835648  0.10367312
   0.12479997  0.04531664  0.94164352
   0.12479997  0.89632688  0.95468336
   0.16830748  0.28090247  0.33003622
   0.16830748  0.04913375  0.71909753
   0.16830748  0.66996378  0.95086625
   0.18678467  0.32604355  0.24150376
   0.18678467  0.91546120  0.67395645
   0.18678467  0.75849624  0.08453880
   0.32539654  0.08409174  0.10208067
   0.32539654  0.01798893  0.91590826
   0.32539654  0.89791933  0.98201107
   0.47918988  0.13617347  0.04794726
   0.47918988  0.91177378  0.86382653
   0.47918988  0.95205274  0.08822622
   0.34003123  0.37642505  0.18586647
   0.34003123  0.80944243  0.62357495
   0.34003123  0.81413353  0.19055757
   0.68855015  0.44986716  0.18946082
   0.68855015  0.73959467  0.55013284
   0.68855015  0.81053918  0.26040533
   0.86165979  0.42452837  0.98309538
   0.86165979  0.55856701  0.57547163
   0.86165979  0.01690462  0.44143299
   0.91166805  0.57801496  0.11486494
   0.91166805  0.53684898  0.42198504
   0.91166805  0.88513606  0.46315102
   0.80265989  0.52683868  0.31317193
   0.80265989  0.78633325  0.47316132
   0.80265989  0.68682807  0.21366675
   0.47773465  0.40802796  0.00604970
   0.47773465  0.59802274  0.59197204
   0.47773465  0.99395030  0.40197826
   0.42766638  0.43647467  0.87892551
   0.42766638  0.44244984  0.56352533
   0.42766638  0.12107449  0.55755016
   0.69941128  0.26322305  0.81097993
   0.69941128  0.54775588  0.73677695
   0.69941128  0.18902007  0.45224412
   0.56037302  0.20719908  0.67601895
   0.56037302  0.46881987  0.79280092
   0.56037302  0.32398105  0.53118013
   0.95406840  0.38996627  0.23048401
   0.95406840  0.84051774  0.61003373
   0.95406840  0.76951599  0.15948226
   0.04514456  0.43026053  0.20724671
   0.04514456  0.77698718  0.56973947
   0.04514456  0.79275329  0.22301282
   0.11164467  0.49462894  0.26580710
   0.11164467  0.77117816  0.50537106
   0.11164467  0.73419290  0.22882184
   0.06478377  0.40263611  0.12498548
   0.06478377  0.72234937  0.59736389
   0.06478377  0.87501452  0.27765063
   0.14939816  0.43880037  0.10168636
   0.14939816  0.66288598  0.56119963
   0.14939816  0.89831364  0.33711402
   0.19634240  0.53072792  0.24237621
   0.19634240  0.71164828  0.46927208
   0.19634240  0.75762379  0.28835172
   0.21658000  0.50343006  0.15991707
   0.21658000  0.65648701  0.49656994
   0.21658000  0.84008293  0.34351299
   0.30876757  0.53918190  0.13426644
   0.30876757  0.59508454  0.46081810
   0.30876757  0.86573356  0.40491546
   0.41475900  0.56335226  0.17633597
   0.41475900  0.61298370  0.43664774
   0.41475900  0.82366403  0.38701630
   0.29428645  0.54686563  0.06505774
   0.29428645  0.51819311  0.45313437
   0.29428645  0.93494226  0.48180689
   0.38533132  0.57281213  0.03583819
   0.38533132  0.46302606  0.42718787
   0.38533132  0.96416181  0.53697394
   0.50485664  0.59120880  0.14811146
   0.50485664  0.55690266  0.40879120
   0.50485664  0.85188854  0.44309734
   0.49245967  0.59330572  0.07601195
   0.49245967  0.48270624  0.40669428
   0.49245967  0.92398805  0.51729376
   0.59526904  0.61068286  0.03910304
   0.59526904  0.42842018  0.38931714
   0.59526904  0.96089696  0.57157982
   0.77840698  0.81456845  0.01637865
   0.77840698  0.20180920  0.18543055
   0.77840698  0.98362135  0.79819080
   0.67440873  0.71388947  0.92572790
   0.67440873  0.21183943  0.28611053
   0.67440873  0.07427210  0.78816057
   0.65349618  0.77827964  0.91463322
   0.65349618  0.13635359  0.22172036
   0.65349618  0.08536678  0.86364641
   0.72346739  0.92172816  0.98639112
   0.72346739  0.06466196  0.07827184
   0.72346739  0.01360888  0.93533804
   0.72355284  0.98615575  0.06599506
   0.72355284  0.07984031  0.01384425
   0.72355284  0.93400494  0.92015969
   0.84001210  0.51350290  0.87397971
   0.84001210  0.36047781  0.48649710
   0.84001210  0.12602029  0.63952219
   0.99400203  0.53994715  0.94961876
   0.99400203  0.40967161  0.46005285
   0.99400203  0.05038124  0.59032839
   0.01792536  0.47066103  0.87801286
   0.01792636  0.40735183  0.52933897
   0.01792536  0.12198714  0.59264817
   0.91046660  0.39279773  0.74736059
   0.91046660  0.35456286  0.60720227
   0.91046660  0.25263941  0.64543714
   0.91029969  0.31172580  0.72750807
   0.91029969  0.41578227  0.68827420
   0.91029969  0.27249193  0.58421773
   0.88791017  0.10041067  0.32086018
   0.88791017  0.22044951  0.89958933
   0.88791017  0.67913982  0.77955049
   0.98360177  0.12383500  0.28322152
   0.98360177  0.15938652  0.87616500
   0.98360177  0.71677848  0.84061348
   0.04021234  0.19819717  0.32875312
   0.04021234  0.13055595  0.80180283
   0.04021234  0.67124688  0.86944405
   0.01573180  0.07354946  0.20197182
   0.01573180  0.12842236  0.92645054
   0.01573180  0.79802818  0.87157764
   0.10161042  0.09773681  0.16716165
   0.10161042  0.06942483  0.90226319
   0.10161042  0.83283835  0.93057517
   0.12464715  0.22292195  0.29374893
   0.12464715  0.07082698  0.77707805
   0.12464715  0.70625107  0.92917302
   0.15665198  0.17336601  0.21209913
   0.15665198  0.03873312  0.82663399
   0.15665198  0.78790087  0.96126688
   0.24574831  0.20157880  0.17632283
   0.24574831  0.97474403  0.79842120
   0.24574831  0.82367717  0.02525597
   0.25147760  0.28419618  0.19973276
   0.25147760  0.91553658  0.71580382
   0.25147760  0.80026724  0.08446342
   0.32768503  0.14824444  0.12007674
   0.32768503  0.97183330  0.85175556
   0.32768503  0.87992326  0.02816670
   0.41419175  0.17718680  0.09003815
   0.41419175  0.91285135  0.82281320
   0.41419175  0.90996185  0.08714865
   0.33662407  0.31275005  0.16880618
   0.33662407  0.85605613  0.68724995
   0.33662407  0.83119382  0.14394387
   0.41970648  0.25981060  0.11435852
   0.41970748  0.85454792  0.74018940
   0.41970748  0.88564148  0.14545208
   0.51145910  0.29344600  0.08394716
   0.51145910  0.79050216  0.70655400
   0.51145910  0.91605284  0.20949784
   0.74391593  0.46225831  0.15095340
   0.74391593  0.68869509  0.53774169
   0.74391593  0.84904660  0.31130491
   0.83315828  0.45342987  0.04560473
   0.83315828  0.59217486  0.54657013
   0.83315828  0.95439527  0.40782514
   0.85932277  0.52829205  0.10943044
   0.85932277  0.58113839  0.47170795
   0.85932277  0.89056956  0.41886161
   0.80326498  0.60048555  0.25568238
   0.80326498  0.65519682  0.39951445
   0.80326498  0.74431762  0.34480318
   0.80332396  0.58771845  0.32165943
   0.80332396  0.73394098  0.41228155
   0.80332396  0.67834057  0.26605902
   0.51382875  0.38160248  0.94554022
   0.51382875  0.56393775  0.61839752
   0.51382875  0.05445978  0.43606225
   0.48800287  0.39550583  0.88347521
   0.48800287  0.48796838  0.60449417
   0.48800287  0.11652479  0.51203162
   0.62808793  0.30290887  0.84491086
   0.62808793  0.54200199  0.69709113
   0.62808793  0.15508914  0.45799801
   0.56332497  0.33876575  0.74219429
   0.56332497  0.40342854  0.66123425
   0.56332497  0.25780571  0.59657146
   0.56319423  0.26243368  0.67221096
   0.56319423  0.40977728  0.73756632
   0.56319423  0.32778904  0.59022272
   0.75275735  0.73721703  0.98880974
   0.75275735  0.25159271  0.26278297
   0.75275735  0.01119026  0.74840729
   0.71979277  0.84157380  0.97260356
   0.71979277  0.13102975  0.15842620
   0.71979277  0.02739644  0.86897025
   0.88304306  0.56537490  0.94616442
   0.88304306  0.38078952  0.43462510
   0.88304306  0.05383558  0.61921048
   0.91935451  0.45464611  0.83037089
   0.91935451  0.37572477  0.54535389
   0.91935451  0.16962911  0.62427523
   0.76099169  0.41352321  0.07235580
   0.76099169  0.65883159  0.58647679
   0.76099169  0.92764420  0.34116841
   0.80278910  0.53300765  0.17599744
   0.80278910  0.64299079  0.46699235
   0.80278910  0.82400256  0.35700921
   0.60169182  0.32447822  0.92076525
   0.60169182  0.59628703  0.67552178
   0.60169182  0.07923475  0.40371297
   0.56024895  0.34485372  0.81946354
   0.56024795  0.47461082  0.65514728
   0.56024795  0.18053646  0.52538918
   0.67746223  0.65213526  0.08956345
   0.67746223  0.43742719  0.34786474
   0.67746223  0.91043655  0.56257281
   0.59910841  0.58313079  0.96383313
   0.59910841  0.38070234  0.41686921
   0.59910841  0.03616687  0.61929766
   0.94285675  0.41708305  0.30814669
   0.94285675  0.89106364  0.58291795
   0.94285675  0.69185331  0.10893636
   0.89265599  0.33470409  0.17790753
   0.89265599  0.84320344  0.66529591
   0.89265599  0.82209247  0.15679656
   0.51056745  0.36676818  0.10358019
   0.51056745  0.73681101  0.63323182
   0.51056745  0.89641981  0.26318899
   0.59080193  0.24284087  0.03652963
   0.59080193  0.79368876  0.75715913
   0.59080193  0.96347037  0.20631124
   0.82552325  0.04008257  0.26962011
   0.82552325  0.22953754  0.95991743
   0.82552325  0.73037989  0.77046246
   0.87223589  0.13931776  0.39648446
   0.87223589  0.25716671  0.86068224
   0.87223589  0.60351554  0.74283329
unknown system                          
           1
    -0.000000    0.000000  -11.520362
    -9.527806  -16.502644    0.000000
    -9.527806   16.502644   -0.000000
   Zn   H    C    N    O 
   6  96 144  24  24
Direct configuration=    34
   0.80947980  0.67035750  0.03464502
   0.80947980  0.36428752  0.32964250
   0.80947980  0.96535498  0.63571248
   0.69247782  0.30364270  0.00112553
   0.69247782  0.69748383  0.69635730
   0.69247782  0.99887447  0.30251617
   0.09636012  0.51606429  0.32972699
   0.09636012  0.81366271  0.48393571
   0.09636012  0.67027301  0.18633729
   0.01297835  0.35190236  0.08034524
   0.01297835  0.72844288  0.64809764
   0.01297935  0.91965476  0.27155712
   0.16671434  0.41507643  0.03730804
   0.16671434  0.62223061  0.58492357
   0.16671434  0.96269196  0.37776939
   0.24709319  0.58079197  0.28837598
   0.24709319  0.70758401  0.41920803
   0.24709319  0.71162402  0.29241599
   0.42818009  0.55582904  0.22879539
   0.42818009  0.67296635  0.44417096
   0.42818009  0.77120461  0.32703365
   0.21046822  0.53135849  0.03406506
   0.21046822  0.50270557  0.46864151
   0.21046822  0.96593494  0.49729443
   0.37551432  0.57732689  0.98124022
   0.37551432  0.40391333  0.42267311
   0.37551432  0.01875978  0.59608767
   0.58770379  0.60866725  0.17958029
   0.58770379  0.57091304  0.39133275
   0.58770379  0.82041971  0.42908696
   0.83638000  0.85042195  0.06648360
   0.83638000  0.21606165  0.14957805
   0.83638000  0.93351640  0.78393835
   0.63596055  0.65404557  0.89652071
   0.63596055  0.24247514  0.34595443
   0.63596055  0.10347929  0.75752486
   0.59941687  0.78558708  0.87206488
   0.59941687  0.08647780  0.21441292
   0.59941687  0.12793512  0.91352220
   0.71942550  0.97556778  0.11711282
   0.71942550  0.14154504  0.02443222
   0.71942550  0.88288718  0.85845496
   0.75352946  0.51587199  0.85325161
   0.75352946  0.33737963  0.48412801
   0.75352946  0.14674839  0.66262037
   0.04699360  0.57404580  0.00322619
   0.04699360  0.42918039  0.42595420
   0.04699360  0.99677381  0.57081961
   0.09344115  0.43155945  0.85626119
   0.09344115  0.42470174  0.56844055
   0.09344115  0.14373881  0.57529826
   0.91244242  0.29449564  0.77451547
   0.91244242  0.48001984  0.70550436
   0.91244242  0.22548453  0.51998016
   0.01590790  0.23653899  0.39227825
   0.01590790  0.15574026  0.76346101
   0.01590790  0.60772175  0.84425974
   0.97205561  0.01563588  0.16696848
   0.97205561  0.15133161  0.98436412
   0.97205561  0.83303252  0.84866839
   0.12493832  0.05848054  0.10383667
   0.12493832  0.04535613  0.94151946
   0.12493832  0.89616333  0.95464387
   0.16874001  0.28101111  0.33034981
   0.16874001  0.04933871  0.71898889
   0.16874001  0.66965019  0.95066129
   0.18701487  0.32618221  0.24170905
   0.18701487  0.91552785  0.67381779
   0.18701487  0.75829095  0.08447215
   0.32553353  0.08417814  0.10227241
   0.32553353  0.01809427  0.91582186
   0.32553353  0.89772759  0.98190573
   0.47927347  0.13621644  0.04804264
   0.47927347  0.91182620  0.86378356
   0.47927347  0.95195736  0.08817380
   0.34020269  0.37654634  0.18599197
   0.34020269  0.80944663  0.62345366
   0.34020269  0.81400803  0.19055337
   0.68849005  0.44980964  0.18946489
   0.68849005  0.73965625  0.55019036
   0.68849005  0.81053511  0.26034375
   0.86179225  0.42450385  0.98311435
   0.86179225  0.55861051  0.57549615
   0.86179225  0.01688565  0.44138949
   0.91158322  0.57803207  0.11489203
   0.91158322  0.53685896  0.42196793
   0.91158322  0.88510897  0.46314104
   0.80258017  0.52682394  0.31320549
   0.80258017  0.78638154  0.47317606
   0.80258017  0.68679451  0.21361846
   0.47766336  0.40793493  0.00607464
   0.47766336  0.59814071  0.59206507
   0.47766336  0.99392536  0.40186029
   0.42743288  0.43635398  0.87893546
   0.42743288  0.44258047  0.56364602
   0.42743288  0.12106454  0.55741953
   0.69944845  0.26320956  0.81093392
   0.69944845  0.54772336  0.73679044
   0.69944845  0.18906608  0.45227664
   0.56022344  0.20714129  0.67597435
   0.56022344  0.46883306  0.79285871
   0.56022344  0.32402565  0.53116694
   0.95398435  0.38973646  0.23030108
   0.95398435  0.84056462  0.61026354
   0.95398435  0.76969892  0.15943538
   0.04512353  0.43012680  0.20703134
   0.04512353  0.77690554  0.56987320
   0.04512353  0.79296866  0.22309446
   0.11148562  0.49461611  0.26568053
   0.11148562  0.77106442  0.50538389
   0.11148562  0.73431947  0.22893558
   0.06473086  0.40246171  0.12482509
   0.06473086  0.72236338  0.59753829
   0.06473086  0.87517491  0.27763662
   0.14931874  0.43872557  0.10160189
   0.14931874  0.66287632  0.56127443
   0.14931874  0.89839811  0.33712368
   0.19617069  0.53070696  0.24231602
   0.19617069  0.71160907  0.46929304
   0.19617069  0.75768398  0.28839093
   0.21644809  0.50335843  0.15984085
   0.21644809  0.65648242  0.49664157
   0.21644809  0.84015915  0.34351758
   0.30867739  0.53914236  0.13412663
   0.30867739  0.59498427  0.46085764
   0.30867739  0.86587337  0.40501573
   0.41466954  0.56328751  0.17622209
   0.41466954  0.61293458  0.43671249
   0.41466954  0.82377791  0.38706542
   0.29424073  0.54683021  0.06499038
   0.29424073  0.51816117  0.45316979
   0.29424073  0.93500962  0.48183883
   0.38530777  0.57276980  0.03574532
   0.38530777  0.46297552  0.42723020
   0.38530777  0.96425468  0.53702448
   0.50477808  0.59109271  0.14796624
   0.50477808  0.55687353  0.40890729
   0.50477808  0.85203376  0.44312647
   0.49235251  0.59321014  0.07590548
   0.49235251  0.48269534  0.40678986
   0.49235251  0.92409452  0.51730466
   0.59527849  0.61060917  0.03896583
   0.59527849  0.42835665  0.38939083
   0.59527849  0.96103417  0.57164335
   0.77833284  0.81454412  0.01627137
   0.77833284  0.20172624  0.18545488
   0.77833284  0.98372863  0.79827376
   0.67422068  0.71385721  0.92571733
   0.67422068  0.21186113  0.28614279
   0.67422068  0.07428267  0.78813887
   0.65319788  0.77822929  0.91459470
   0.65319788  0.13636541  0.22177071
   0.65319788  0.08540530  0.86363459
   0.72326728  0.92167942  0.98635417
   0.72326728  0.06467375  0.07832058
   0.72326728  0.01364583  0.93532625
   0.72334047  0.98612271  0.06597876
   0.72334047  0.07985705  0.01387729
   0.72334047  0.93402124  0.92014295
   0.84015519  0.51355143  0.87394156
   0.84015519  0.36039113  0.48644857
   0.84015519  0.12605844  0.63960887
   0.99388866  0.53976113  0.94980427
   0.99388866  0.41004314  0.46023887
   0.99388866  0.05019573  0.58995686
   0.01781705  0.47043243  0.87823632
   0.01781805  0.40780389  0.52956757
   0.01781705  0.12176368  0.59219611
   0.91068558  0.39279483  0.74736792
   0.91068558  0.35457309  0.60720517
   0.91068558  0.25263208  0.64542691
   0.91050170  0.31166564  0.72747814
   0.91050170  0.41581249  0.68833436
   0.91050170  0.27252186  0.58418751
   0.88801416  0.10059666  0.32108914
   0.88801416  0.22049248  0.89940334
   0.88801416  0.67891086  0.77950752
   0.98386824  0.12397654  0.28340391
   0.98386824  0.15942737  0.87602346
   0.98386824  0.71659609  0.84057263
   0.04048784  0.19832410  0.32905001
   0.04048784  0.13072590  0.80167590
   0.04048784  0.67094999  0.86927410
   0.01589876  0.07374927  0.20223883
   0.01589876  0.12848956  0.92625073
   0.01589876  0.79776117  0.87151044
   0.10176766  0.09794897  0.16744837
   0.10176766  0.06949940  0.90205103
   0.10176766  0.83255163  0.93050060
   0.12502991  0.22303238  0.29406411
   0.12502991  0.07103173  0.77696762
   0.12502991  0.70593589  0.92896827
   0.15693179  0.17349214  0.21237175
   0.15693179  0.03887961  0.82650786
   0.15693179  0.78762825  0.96112039
   0.24602568  0.20175598  0.17658935
   0.24602568  0.97483337  0.79824402
   0.24602568  0.82341065  0.02516663
   0.25170613  0.28430022  0.19994616
   0.25170613  0.91564595  0.71569978
   0.25170613  0.80005384  0.08435405
   0.32779484  0.14835341  0.12033288
   0.32779484  0.97198047  0.85164659
   0.32779484  0.87966712  0.02801953
   0.41433535  0.17727615  0.09020112
   0.41433535  0.91292497  0.82272385
   0.41433535  0.90979888  0.08707503
   0.33682900  0.31280956  0.16896736
   0.33682900  0.85615780  0.68719044
   0.33682900  0.83103264  0.14384220
   0.41986081  0.25986209  0.11451699
   0.41986181  0.85465489  0.74013791
   0.41986181  0.88548301  0.14534511
   0.51160227  0.29354984  0.08404411
   0.51160227  0.79049527  0.70645016
   0.51160227  0.91595589  0.20950473
   0.74395948  0.46219124  0.15092172
   0.74395948  0.68873048  0.53780876
   0.74395948  0.84907828  0.31126952
   0.83326278  0.45337288  0.04558232
   0.83326278  0.59220944  0.54662712
   0.83326278  0.95441768  0.40779056
   0.85931197  0.52831166  0.10945530
   0.85931197  0.58114364  0.47168834
   0.85931197  0.89054470  0.41885636
   0.80320604  0.60041520  0.25563284
   0.80320604  0.65521764  0.39958480
   0.80320604  0.74436716  0.34478236
   0.80326776  0.58772249  0.32168738
   0.80326776  0.73396488  0.41227751
   0.80326776  0.67831262  0.26603512
   0.51372724  0.38154444  0.94554837
   0.51372724  0.56400394  0.61845556
   0.51372724  0.05445163  0.43599606
   0.48780055  0.39546756  0.88349345
   0.48780055  0.48802489  0.60453244
   0.48780055  0.11650655  0.51197511
   0.62805487  0.30291906  0.84490491
   0.62805487  0.54198585  0.69708094
   0.62805487  0.15509509  0.45801415
   0.56318020  0.33869122  0.74219742
   0.56318020  0.40350620  0.66130878
   0.56318020  0.25780258  0.59649380
   0.56306841  0.26245309  0.67222203
   0.56306841  0.40976894  0.73754691
   0.56306841  0.32777797  0.59023106
   0.75263891  0.73717203  0.98872420
   0.75263891  0.25155217  0.26282797
   0.75263891  0.01127580  0.74844783
   0.71958647  0.84151919  0.97252724
   0.71958647  0.13100805  0.15848081
   0.71958647  0.02747276  0.86899195
   0.88306364  0.56536123  0.94617435
   0.88306364  0.38081312  0.43463877
   0.88306364  0.05382565  0.61918688
   0.91946671  0.45461970  0.83045362
   0.91946671  0.37583393  0.54538030
   0.91946671  0.16954638  0.62416607
   0.76112605  0.41348412  0.07233491
   0.76112605  0.65884979  0.58651588
   0.76112605  0.92766509  0.34115021
   0.80278574  0.53299681  0.17598304
   0.80278574  0.64298723  0.46700319
   0.80278574  0.82401696  0.35701277
   0.60169257  0.32442328  0.92077801
   0.60169257  0.59635473  0.67557672
   0.60169257  0.07922199  0.40364527
   0.56008767  0.34480988  0.81947161
   0.56008667  0.47466273  0.65519112
   0.56008667  0.18052839  0.52533727
   0.67743692  0.65213460  0.08949115
   0.67743692  0.43735555  0.34786540
   0.67743692  0.91050885  0.56264445
   0.59910773  0.58298751  0.96368815
   0.59910773  0.38070063  0.41701249
   0.59910773  0.03631185  0.61929937
   0.94258750  0.41705882  0.30807290
   0.94258750  0.89101408  0.58294218
   0.94258750  0.69192710  0.10898592
   0.89285377  0.33433247  0.17767168
   0.89285377  0.84333921  0.66566753
   0.89285377  0.82232832  0.15666079
   0.51067457  0.36680838  0.10361494
   0.51067457  0.73680556  0.63319162
   0.51067457  0.89638506  0.26319444
   0.59090489  0.24282440  0.03654846
   0.59090489  0.79372406  0.75717560
   0.59090489  0.96345154  0.20627594
   0.82554616  0.04031423  0.26978063
   0.82554616  0.22946640  0.95968577
   0.82554616  0.73021937  0.77053360
   0.87229244  0.13944657  0.39672584
   0.87229244  0.25727927  0.86055343
   0.87229244  0.60327416  0.74272073
unknown system                          
           1
    -0.000000    0.000000  -11.520521
    -9.527689  -16.502441    0.000000
    -9.527689   16.502441   -0.000000
   Zn   H    C    N    O 
   6  96 144  24  24
Direct configuration=    35
   0.80945892  0.67034756  0.03463476
   0.80945892  0.36428720  0.32965244
   0.80945892  0.96536524  0.63571280
   0.69250341  0.30361236  0.00110557
   0.69250341  0.69749421  0.69638764
   0.69250341  0.99889443  0.30250579
   0.09629083  0.51604003  0.32968387
   0.09629083  0.81364384  0.48395997
   0.09629083  0.67031613  0.18635616
   0.01301003  0.35184184  0.08029357
   0.01301003  0.72845173  0.64815816
   0.01301103  0.91970643  0.27154827
   0.16670965  0.41504897  0.03727986
   0.16670965  0.62222989  0.58495103
   0.16670965  0.96272014  0.37777011
   0.24701062  0.58077792  0.28835577
   0.24701062  0.70757785  0.41922208
   0.24701062  0.71164423  0.29242215
   0.42814164  0.55581413  0.22876248
   0.42814164  0.67294835  0.44418587
   0.42814164  0.77123752  0.32705165
   0.21046878  0.53135465  0.03403584
   0.21046878  0.50268019  0.46864535
   0.21046878  0.96596416  0.49731981
   0.37549929  0.57732842  0.98122238
   0.37549929  0.40389396  0.42267158
   0.37549929  0.01877762  0.59610704
   0.58765917  0.60864341  0.17954326
   0.58765917  0.57089985  0.39135659
   0.58765917  0.82045674  0.42910015
   0.83637261  0.85042145  0.06645638
   0.83637261  0.21603493  0.14957855
   0.83637261  0.93354362  0.78396507
   0.63588111  0.65403417  0.89653861
   0.63588111  0.24250445  0.34596583
   0.63588111  0.10346139  0.75749555
   0.59930782  0.78557934  0.87206984
   0.59930782  0.08649051  0.21442066
   0.59930782  0.12793016  0.91350949
   0.71933978  0.97554897  0.11710317
   0.71933978  0.14155420  0.02445103
   0.71933978  0.88289683  0.85844580
   0.75362546  0.51591111  0.85316575
   0.75362546  0.33725464  0.48408889
   0.75362546  0.14683425  0.66274536
   0.04690678  0.57398411  0.00331847
   0.04690678  0.42933437  0.42601589
   0.04690678  0.99668153  0.57066563
   0.09339305  0.43145400  0.85637477
   0.09339305  0.42492077  0.56854600
   0.09339305  0.14362523  0.57507923
   0.91249551  0.29446801  0.77451275
   0.91249551  0.48004474  0.70553199
   0.91249551  0.22548725  0.51995526
   0.01602285  0.23658578  0.39238544
   0.01602285  0.15580066  0.76341422
   0.01602285  0.60761456  0.84419934
   0.97205180  0.01570332  0.16702524
   0.97205180  0.15132092  0.98429668
   0.97205180  0.83297576  0.84867908
   0.12497820  0.05852340  0.10389587
   0.12497820  0.04537247  0.94147660
   0.12497820  0.89610413  0.95462753
   0.16886875  0.28104899  0.33044581
   0.16886875  0.04939682  0.71895101
   0.16886875  0.66955419  0.95060318
   0.18709245  0.32621832  0.24176350
   0.18709245  0.91554618  0.67378168
   0.18709245  0.75823650  0.08445382
   0.32557522  0.08420884  0.10233435
   0.32557522  0.01812551  0.91579116
   0.32557522  0.89766565  0.98187449
   0.47929828  0.13622843  0.04807083
   0.47929828  0.91184239  0.86377157
   0.47929828  0.95192917  0.08815761
   0.34025834  0.37658149  0.18603336
   0.34025834  0.80945287  0.62341851
   0.34025834  0.81396664  0.19054713
   0.68847719  0.44979264  0.18946293
   0.68847719  0.73967129  0.55020736
   0.68847719  0.81053707  0.26032871
   0.86183389  0.42449257  0.98311287
   0.86183389  0.55862030  0.57550743
   0.86183389  0.01688713  0.44137970
   0.91156450  0.57804466  0.11489975
   0.91156450  0.53685409  0.42195534
   0.91156450  0.88510125  0.46314591
   0.80255701  0.52682075  0.31321736
   0.80255701  0.78639662  0.47317925
   0.80255701  0.68678264  0.21360338
   0.47764006  0.40790875  0.00608537
   0.47764006  0.59817762  0.59209125
   0.47764006  0.99391463  0.40182338
   0.42735291  0.43632267  0.87893695
   0.42735291  0.44261327  0.56367733
   0.42735291  0.12106305  0.55738673
   0.69945553  0.26320799  0.81092024
   0.69945553  0.54771124  0.73679201
   0.69945553  0.18907976  0.45228876
   0.56018074  0.20712693  0.67595956
   0.56018074  0.46883263  0.79287307
   0.56018074  0.32404044  0.53116737
   0.95396565  0.38967626  0.23025827
   0.95396565  0.84058201  0.61032374
   0.95396565  0.76974173  0.15941799
   0.04511094  0.43009425  0.20698856
   0.04511094  0.77689531  0.56990575
   0.04511094  0.79301144  0.22310469
   0.11142526  0.49460905  0.26564624
   0.11142526  0.77103719  0.50539095
   0.11142526  0.73435376  0.22896281
   0.06472903  0.40241516  0.12477408
   0.06472903  0.72235892  0.59758484
   0.06472903  0.87522592  0.27764108
   0.14929867  0.43869820  0.10156689
   0.14929867  0.66286869  0.56130180
   0.14929867  0.89843311  0.33713131
   0.19611848  0.53069570  0.24229262
   0.19611848  0.71159692  0.46930430
   0.19611848  0.75770738  0.28840308
   0.21641207  0.50333559  0.15981319
   0.21641207  0.65647760  0.49666441
   0.21641207  0.84018681  0.34352240
   0.30864505  0.53912614  0.13409728
   0.30864505  0.59497114  0.46087386
   0.30864505  0.86590272  0.40502886
   0.41463740  0.56326636  0.17618547
   0.41463740  0.61291911  0.43673364
   0.41463740  0.82381453  0.38708089
   0.29422930  0.54682014  0.06496318
   0.29422930  0.51814404  0.45317986
   0.29422930  0.93503682  0.48185596
   0.38529537  0.57275985  0.03571788
   0.38529537  0.46295804  0.42724015
   0.38529537  0.96428212  0.53704196
   0.50474631  0.59105678  0.14792059
   0.50474631  0.55686381  0.40894322
   0.50474631  0.85207941  0.44313619
   0.49234477  0.59318628  0.07586772
   0.49234477  0.48268145  0.40681372
   0.49234477  0.92413228  0.51731855
   0.59527627  0.61058585  0.03893069
   0.59527627  0.42834484  0.38941415
   0.59527627  0.96106931  0.57165516
   0.77831296  0.81453326  0.01624129
   0.77831296  0.20170703  0.18546574
   0.77831296  0.98375871  0.79829297
   0.67415684  0.71384215  0.92570934
   0.67415684  0.21186819  0.28615785
   0.67415684  0.07429066  0.78813181
   0.65311826  0.77821533  0.91459078
   0.65311826  0.13637544  0.22178467
   0.65311826  0.08540922  0.86362456
   0.72320453  0.92167013  0.98633947
   0.72320453  0.06466833  0.07832987
   0.72320453  0.01366053  0.93533167
   0.72327680  0.98611042  0.06597157
   0.72327680  0.07986216  0.01388958
   0.72327680  0.93402843  0.92013784
   0.84019567  0.51356781  0.87392872
   0.84019567  0.36036191  0.48643219
   0.84019567  0.12607128  0.63963809
   0.99385348  0.53970706  0.94985861
   0.99385348  0.41015155  0.46029294
   0.99385348  0.05014139  0.58984845
   0.01778962  0.47036417  0.87830661
   0.01779062  0.40794244  0.52963583
   0.01778962  0.12169339  0.59205756
   0.91075499  0.39279172  0.74737653
   0.91075499  0.35458481  0.60720828
   0.91075499  0.25262347  0.64541519
   0.91056179  0.31165021  0.72747674
   0.91056179  0.41582653  0.68834979
   0.91056179  0.27252326  0.58417347
   0.88804755  0.10064947  0.32115172
   0.88804755  0.22050225  0.89935053
   0.88804755  0.67884828  0.77949775
   0.98393386  0.12402806  0.28347954
   0.98393386  0.15945148  0.87597194
   0.98393386  0.71652046  0.84054852
   0.04057363  0.19836475  0.32914116
   0.04057363  0.13077641  0.80163525
   0.04057363  0.67085884  0.86922359
   0.01594049  0.07379215  0.20230326
   0.01594049  0.12851112  0.92620785
   0.01594049  0.79769674  0.87148888
   0.10182082  0.09799783  0.16751188
   0.10182082  0.06951405  0.90200217
   0.10182082  0.83248812  0.93048595
   0.12513503  0.22306459  0.29416212
   0.12513503  0.07109753  0.77693541
   0.12513503  0.70583788  0.92890247
   0.15702115  0.17353439  0.21245656
   0.15702115  0.03892217  0.82646561
   0.15702115  0.78754344  0.96107783
   0.24610513  0.20179588  0.17666687
   0.24610513  0.97487098  0.79820412
   0.24610513  0.82333313  0.02512902
   0.25177245  0.28433883  0.20001494
   0.25177245  0.91567611  0.71566117
   0.25177245  0.79998506  0.08432389
   0.32784357  0.14838622  0.12040526
   0.32784357  0.97202004  0.85161378
   0.32784357  0.87959474  0.02797996
   0.41436558  0.17729271  0.09025082
   0.41436558  0.91295810  0.82270729
   0.41436558  0.90974918  0.08704190
   0.33688750  0.31284419  0.16902160
   0.33688750  0.85617741  0.68715581
   0.33688750  0.83097840  0.14382259
   0.41991813  0.25988548  0.11456253
   0.41991913  0.85467704  0.74011452
   0.41991913  0.88543747  0.14532296
   0.51165241  0.29356398  0.08406548
   0.51165241  0.79050250  0.70643602
   0.51165241  0.91593452  0.20949750
   0.74396531  0.46217355  0.15091760
   0.74396531  0.68874405  0.53782645
   0.74396531  0.84908240  0.31125595
   0.83329385  0.45336350  0.04558238
   0.83329385  0.59221888  0.54663650
   0.83329385  0.95441762  0.40778112
   0.85930631  0.52830779  0.10945596
   0.85930631  0.58114818  0.47169221
   0.85930631  0.89054404  0.41885182
   0.80319163  0.60040950  0.25563020
   0.80319163  0.65522070  0.39959050
   0.80319163  0.74436980  0.34477930
   0.80324794  0.58772056  0.32169095
   0.80324794  0.73397039  0.41227944
   0.80324794  0.67830905  0.26602961
   0.51369424  0.38152754  0.94555509
   0.51369424  0.56402755  0.61847246
   0.51369424  0.05444491  0.43597245
   0.48775261  0.39544756  0.88350262
   0.48775261  0.48805406  0.60455244
   0.48775261  0.11649738  0.51194594
   0.62805242  0.30291612  0.84490371
   0.62805242  0.54198760  0.69708388
   0.62805242  0.15509629  0.45801240
   0.56313389  0.33868408  0.74219794
   0.56313389  0.40351385  0.66131592
   0.56313389  0.25780206  0.59648615
   0.56303250  0.26244663  0.67221726
   0.56303250  0.40977064  0.73755337
   0.56303250  0.32778274  0.59022936
   0.75260494  0.73716321  0.98869935
   0.75260494  0.25153614  0.26283679
   0.75260494  0.01130065  0.74846386
   0.71952705  0.84150475  0.97250883
   0.71952705  0.13100408  0.15849525
   0.71952705  0.02749117  0.86899592
   0.88307634  0.56535704  0.94617919
   0.88307634  0.38082215  0.43464296
   0.88307634  0.05382081  0.61917785
   0.91949494  0.45460722  0.83047076
   0.91949494  0.37586354  0.54539278
   0.91949494  0.16952924  0.62413646
   0.76117032  0.41347204  0.07232679
   0.76117032  0.65885375  0.58652796
   0.76117032  0.92767321  0.34114625
   0.80277785  0.53298034  0.17597735
   0.80277785  0.64299801  0.46701966
   0.80277785  0.82402265  0.35700199
   0.60168051  0.32441433  0.92077640
   0.60168051  0.59636207  0.67558567
   0.60168051  0.07922360  0.40363793
   0.56004563  0.34479075  0.81947147
   0.56004463  0.47468172  0.65521025
   0.56004463  0.18052853  0.52531828
   0.67742116  0.65212702  0.08946109
   0.67742116  0.43733307  0.34787298
   0.67742116  0.91053891  0.56266693
   0.59910600  0.58294976  0.96364953
   0.59910600  0.38069978  0.41705024
   0.59910600  0.03635047  0.61930022
   0.94250793  0.41704779  0.30804164
   0.94250793  0.89099385  0.58295321
   0.94250793  0.69195836  0.10900615
   0.89291486  0.33422164  0.17759975
   0.89291486  0.84337811  0.66577836
   0.89291486  0.82240025  0.15662189
   0.51070057  0.36682950  0.10362882
   0.51070057  0.73679832  0.63317050
   0.51070057  0.89637118  0.26320168
   0.59092693  0.24282613  0.03655632
   0.59092693  0.79373019  0.75717387
   0.59092693  0.96344368  0.20626981
   0.82555904  0.04038800  0.26983668
   0.82555904  0.22944868  0.95961200
   0.82555904  0.73016332  0.77055132
   0.87231325  0.13948303  0.39679105
   0.87231325  0.25730802  0.86051697
   0.87231325  0.60320895  0.74269198
unknown system                          
           1
    -0.000000    0.000000  -11.521000
    -9.527337  -16.501831    0.000000
    -9.527337   16.501831   -0.000000
   Zn   H    C    N    O 
   6  96 144  24  24
Direct configuration=    36
   0.80939626  0.67031775  0.03460398
   0.80939626  0.36428623  0.32968225
   0.80939626  0.96539602  0.63571377
   0.69258017  0.30352136  0.00104571
   0.69258017  0.69752535  0.69647864
   0.69258017  0.99895429  0.30247465
   0.09608299  0.51596725  0.32955448
   0.09608299  0.81358722  0.48403275
   0.09608299  0.67044552  0.18641278
   0.01310508  0.35166028  0.08013857
   0.01310508  0.72847829  0.64833972
   0.01310608  0.91986143  0.27152171
   0.16669556  0.41496660  0.03719530
   0.16669556  0.62222770  0.58503340
   0.16669556  0.96280470  0.37777230
   0.24676293  0.58073578  0.28829513
   0.24676293  0.70755935  0.41926422
   0.24676293  0.71170487  0.29244065
   0.42802628  0.55576941  0.22866375
   0.42802628  0.67289434  0.44423059
   0.42802628  0.77133625  0.32710566
   0.21047048  0.53134314  0.03394819
   0.21047048  0.50260405  0.46865686
   0.21047048  0.96605181  0.49739595
   0.37545420  0.57733300  0.98116884
   0.37545420  0.40383584  0.42266700
   0.37545420  0.01883116  0.59616516
   0.58752531  0.60857188  0.17943217
   0.58752531  0.57086030  0.39142812
   0.58752531  0.82056783  0.42913970
   0.83635044  0.85041996  0.06637473
   0.83635044  0.21595477  0.14958004
   0.83635044  0.93362527  0.78404523
   0.63564279  0.65399995  0.89659231
   0.63564279  0.24259236  0.34600005
   0.63564279  0.10340769  0.75740764
   0.59898069  0.78555610  0.87208473
   0.59898069  0.08652864  0.21444390
   0.59898069  0.12791527  0.91347136
   0.71908263  0.97549254  0.11707422
   0.71908263  0.14158168  0.02450746
   0.71908263  0.88292578  0.85841832
   0.75391347  0.51602847  0.85290815
   0.75391347  0.33687967  0.48397153
   0.75391347  0.14709185  0.66312033
   0.04664634  0.57379902  0.00359534
   0.04664634  0.42979632  0.42620098
   0.04664634  0.99640466  0.57020368
   0.09324878  0.43113764  0.85671553
   0.09324878  0.42557789  0.56886236
   0.09324878  0.14328447  0.57442211
   0.91265475  0.29438514  0.77450458
   0.91265475  0.48011945  0.70561486
   0.91265475  0.22549542  0.51988055
   0.01636770  0.23672615  0.39270702
   0.01636770  0.15598186  0.76327385
   0.01636770  0.60729298  0.84401814
   0.97204037  0.01590565  0.16719552
   0.97204037  0.15128887  0.98409435
   0.97204037  0.83280548  0.84871113
   0.12509784  0.05865200  0.10407347
   0.12509784  0.04542148  0.94134800
   0.12509784  0.89592653  0.95457852
   0.16925499  0.28116265  0.33073381
   0.16925499  0.04957116  0.71883735
   0.16925499  0.66926619  0.95042884
   0.18732518  0.32632665  0.24192683
   0.18732518  0.91560118  0.67367335
   0.18732518  0.75807317  0.08439882
   0.32570029  0.08430096  0.10252020
   0.32570029  0.01821924  0.91569904
   0.32570029  0.89747980  0.98178076
   0.47937271  0.13626441  0.04815537
   0.47937271  0.91189096  0.86373559
   0.47937271  0.95184463  0.08810904
   0.34042531  0.37668693  0.18615754
   0.34042531  0.80947161  0.62331307
   0.34042531  0.81384246  0.19052839
   0.68843860  0.44974165  0.18945705
   0.68843860  0.73971640  0.55025835
   0.68843860  0.81054295  0.26028360
   0.86195881  0.42445874  0.98310842
   0.86195881  0.55864968  0.57554126
   0.86195881  0.01689158  0.44135032
   0.91150834  0.57808242  0.11492292
   0.91150834  0.53683950  0.42191758
   0.91150834  0.88507808  0.46316050
   0.80248753  0.52681115  0.31325299
   0.80248753  0.78644184  0.47318885
   0.80248753  0.68674701  0.21355816
   0.47757014  0.40783020  0.00611756
   0.47757014  0.59828836  0.59216980
   0.47757014  0.99388244  0.40171264
   0.42711298  0.43622874  0.87894141
   0.42711298  0.44271167  0.56377126
   0.42711298  0.12105859  0.55728833
   0.69947675  0.26320330  0.81087919
   0.69947675  0.54767489  0.73679670
   0.69947675  0.18912081  0.45232511
   0.56005264  0.20708387  0.67591521
   0.56005264  0.46883134  0.79291613
   0.56005264  0.32408479  0.53116866
   0.95390955  0.38949565  0.23012984
   0.95390955  0.84063418  0.61050435
   0.95390955  0.76987016  0.15936582
   0.04507315  0.42999659  0.20686022
   0.04507315  0.77686463  0.57000341
   0.04507315  0.79313978  0.22313537
   0.11124419  0.49458788  0.26554338
   0.11124419  0.77095549  0.50541212
   0.11124419  0.73445662  0.22904451
   0.06472354  0.40227550  0.12462104
   0.06472354  0.72234554  0.59772450
   0.06472354  0.87537896  0.27765446
   0.14923848  0.43861608  0.10146187
   0.14923848  0.66284578  0.56138392
   0.14923848  0.89853813  0.33715422
   0.19596184  0.53066194  0.24222243
   0.19596184  0.71156048  0.46933806
   0.19596184  0.75777757  0.28843952
   0.21630402  0.50326705  0.15973019
   0.21630402  0.65646314  0.49673295
   0.21630402  0.84026981  0.34353686
   0.30854803  0.53907750  0.13400926
   0.30854803  0.59493176  0.46092250
   0.30854803  0.86599074  0.40506824
   0.41454099  0.56320291  0.17607560
   0.41454099  0.61287269  0.43679709
   0.41454099  0.82392440  0.38712731
   0.29419499  0.54678994  0.06488159
   0.29419499  0.51809265  0.45321006
   0.29419499  0.93511841  0.48190735
   0.38525815  0.57273000  0.03563557
   0.38525815  0.46290558  0.42727000
   0.38525815  0.96436443  0.53709442
   0.50465100  0.59094900  0.14778365
   0.50465100  0.55683465  0.40905100
   0.50465100  0.85221635  0.44316535
   0.49232157  0.59311468  0.07575445
   0.49232157  0.48263977  0.40688532
   0.49232157  0.92424555  0.51736023
   0.59526963  0.61051588  0.03882528
   0.59526963  0.42830940  0.38948412
   0.59526963  0.96117472  0.57169060
   0.77825332  0.81450065  0.01615105
   0.77825332  0.20164940  0.18549835
   0.77825332  0.98384895  0.79835060
   0.67396533  0.71379696  0.92568534
   0.67396533  0.21188938  0.28620304
   0.67396533  0.07431466  0.78811062
   0.65287939  0.77817346  0.91457900
   0.65287939  0.13640554  0.22182654
   0.65287939  0.08542100  0.86359446
   0.72301628  0.92164228  0.98629536
   0.72301628  0.06465209  0.07835772
   0.72301628  0.01370464  0.93534791
   0.72308580  0.98607353  0.06595001
   0.72308580  0.07987748  0.01392647
   0.72308580  0.93404999  0.92012252
   0.84031709  0.51361695  0.87389020
   0.84031709  0.36027425  0.48638305
   0.84031709  0.12610980  0.63972575
   0.99374795  0.53954483  0.95002163
   0.99374795  0.41047680  0.46045517
   0.99374795  0.04997837  0.58952320
   0.01770732  0.47015941  0.87851748
   0.01770832  0.40835808  0.52984059
   0.01770732  0.12148252  0.59164192
   0.91096320  0.39278239  0.74740236
   0.91096320  0.35461997  0.60721761
   0.91096320  0.25259764  0.64538003
   0.91074207  0.31160389  0.72747255
   0.91074207  0.41586866  0.68839611
   0.91074207  0.27252745  0.58413134
   0.88814772  0.10080791  0.32133946
   0.88814772  0.22053155  0.89919209
   0.88814772  0.67866054  0.77946845
   0.98413071  0.12418264  0.28370645
   0.98413071  0.15952381  0.87581736
   0.98413071  0.71629355  0.84047619
   0.04083098  0.19848667  0.32941460
   0.04083098  0.13092793  0.80151333
   0.04083098  0.67058540  0.86907207
   0.01606565  0.07392077  0.20249656
   0.01606565  0.12857579  0.92607923
   0.01606565  0.79750344  0.87142421
   0.10198029  0.09814443  0.16770242
   0.10198029  0.06955800  0.90185557
   0.10198029  0.83229758  0.93044200
   0.12545039  0.22316123  0.29445615
   0.12545039  0.07129492  0.77683877
   0.12545039  0.70554385  0.92870508
   0.15728926  0.17366115  0.21271100
   0.15728926  0.03904985  0.82633885
   0.15728926  0.78728900  0.96095015
   0.24634349  0.20191559  0.17689943
   0.24634349  0.97498384  0.79808441
   0.24634349  0.82310057  0.02501616
   0.25197140  0.28445466  0.20022126
   0.25197140  0.91576660  0.71554534
   0.25197140  0.79977874  0.08423340
   0.32798975  0.14848466  0.12062243
   0.32798975  0.97213877  0.85151534
   0.32798975  0.87937757  0.02786123
   0.41445626  0.17734239  0.09039990
   0.41445626  0.91305751  0.82265761
   0.41445626  0.90960010  0.08694249
   0.33706299  0.31294807  0.16918430
   0.33706299  0.85623623  0.68705193
   0.33706299  0.83081570  0.14376377
   0.42009007  0.25995565  0.11469914
   0.42009107  0.85474349  0.74004435
   0.42009107  0.88530086  0.14525651
   0.51180285  0.29360641  0.08412961
   0.51180285  0.79052420  0.70639359
   0.51180285  0.91587039  0.20947580
   0.74398281  0.46212047  0.15090523
   0.74398281  0.68878477  0.53787953
   0.74398281  0.84909477  0.31121523
   0.83338708  0.45333535  0.04558254
   0.83338708  0.59224719  0.54666465
   0.83338708  0.95441746  0.40775281
   0.85928932  0.52829616  0.10945794
   0.85928932  0.58116178  0.47170384
   0.85928932  0.89054206  0.41883822
   0.80314839  0.60039240  0.25562227
   0.80314839  0.65522987  0.39960760
   0.80314839  0.74437773  0.34477013
   0.80318849  0.58771476  0.32170167
   0.80318849  0.73398691  0.41228524
   0.80318849  0.67829833  0.26601309
   0.51359524  0.38147683  0.94557522
   0.51359524  0.56409839  0.61852317
   0.51359524  0.05442478  0.43590161
   0.48760880  0.39538756  0.88353015
   0.48760880  0.48814159  0.60461244
   0.48760880  0.11646985  0.51185841
   0.62804505  0.30290729  0.84490012
   0.62804505  0.54199283  0.69709271
   0.62804505  0.15509988  0.45800717
   0.56299495  0.33866267  0.74219948
   0.56299495  0.40353681  0.66133733
   0.56299495  0.25780052  0.59646319
   0.56292478  0.26242723  0.67220295
   0.56292478  0.40977572  0.73757277
   0.56292478  0.32779705  0.59022428
   0.75250304  0.73713674  0.98862482
   0.75250304  0.25148807  0.26286326
   0.75250304  0.01137518  0.74851193
   0.71934877  0.84146144  0.97245358
   0.71934877  0.13099214  0.15853856
   0.71934877  0.02754642  0.86900786
   0.88311446  0.56534445  0.94619371
   0.88311446  0.38084926  0.43465555
   0.88311446  0.05380629  0.61915074
   0.91957963  0.45456978  0.83052217
   0.91957963  0.37595239  0.54543022
   0.91957963  0.16947783  0.62404761
   0.76130313  0.41343581  0.07230245
   0.76130313  0.65886564  0.58656419
   0.76130313  0.92769755  0.34113436
   0.80275419  0.53293094  0.17596027
   0.80275419  0.64303033  0.46706906
   0.80275419  0.82403973  0.35696967
   0.60164435  0.32438747  0.92077156
   0.60164435  0.59638409  0.67561253
   0.60164435  0.07922844  0.40361591
   0.55991952  0.34473335  0.81947105
   0.55991852  0.47473870  0.65526765
   0.55991852  0.18052895  0.52526130
   0.67737388  0.65210431  0.08937092
   0.67737388  0.43726562  0.34789569
   0.67737388  0.91062908  0.56273438
   0.59910081  0.58283648  0.96353369
   0.59910081  0.38069721  0.41716352
   0.59910081  0.03646631  0.61930279
   0.94226922  0.41701470  0.30794788
   0.94226922  0.89093317  0.58298630
   0.94226922  0.69205212  0.10906683
   0.89309815  0.33388913  0.17738396
   0.89309815  0.84349483  0.66611087
   0.89309815  0.82261604  0.15650517
   0.51077857  0.36689288  0.10367047
   0.51077857  0.73677659  0.63310712
   0.51077857  0.89632953  0.26322341
   0.59099302  0.24283133  0.03657989
   0.59099302  0.79374856  0.75716867
   0.59099302  0.96342011  0.20625144
   0.82559767  0.04060932  0.27000482
   0.82559767  0.22939550  0.95939068
   0.82559767  0.72999518  0.77060450
   0.87237567  0.13959238  0.39698666
   0.87237567  0.25739428  0.86040762
   0.87237567  0.60301334  0.74260572
unknown system                          
           1
    -0.000000    0.000000  -11.521956
    -9.526633  -16.500612    0.000000
    -9.526633   16.500612   -0.000000
   Zn   H    C    N    O 
   6  96 144  24  24
Direct configuration=    37
   0.80927097  0.67025813  0.03454243
   0.80927097  0.36428429  0.32974187
   0.80927097  0.96545757  0.63571571
   0.69273368  0.30333934  0.00092597
   0.69273368  0.69758763  0.69666066
   0.69273368  0.99907403  0.30241237
   0.09566731  0.51582170  0.32929569
   0.09566731  0.81347398  0.48417830
   0.09566731  0.67070431  0.18652602
   0.01329517  0.35129714  0.07982855
   0.01329517  0.72853141  0.64870286
   0.01329617  0.92017145  0.27146859
   0.16666737  0.41480185  0.03702618
   0.16666737  0.62222334  0.58519815
   0.16666737  0.96297382  0.37777666
   0.24626757  0.58065148  0.28817384
   0.24626757  0.70752236  0.41934852
   0.24626757  0.71182616  0.29247764
   0.42779557  0.55567996  0.22846629
   0.42779557  0.67278634  0.44432004
   0.42779557  0.77153371  0.32721366
   0.21047388  0.53132012  0.03377289
   0.21047388  0.50245177  0.46867988
   0.21047388  0.96622711  0.49754823
   0.37536401  0.57734216  0.98106175
   0.37536401  0.40371959  0.42265784
   0.37536401  0.01893825  0.59628141
   0.58725759  0.60842881  0.17921000
   0.58725759  0.57078119  0.39157119
   0.58725759  0.82079000  0.42921881
   0.83630609  0.85041697  0.06621142
   0.83630609  0.21579445  0.14958303
   0.83630609  0.93378858  0.78420555
   0.63516617  0.65393152  0.89669972
   0.63516617  0.24276820  0.34606848
   0.63516617  0.10330028  0.75723180
   0.59832644  0.78550961  0.87211451
   0.59832644  0.08660490  0.21449039
   0.59832644  0.12788549  0.91339510
   0.71856835  0.97537967  0.11701632
   0.71856835  0.14163664  0.02462033
   0.71856835  0.88298368  0.85836336
   0.75448945  0.51626322  0.85239293
   0.75448945  0.33612971  0.48373678
   0.75448945  0.14760707  0.66387029
   0.04612547  0.57342883  0.00414909
   0.04612547  0.43072026  0.42657117
   0.04612547  0.99585091  0.56927974
   0.09296025  0.43050491  0.85739708
   0.09296025  0.42689217  0.56949509
   0.09296025  0.14260292  0.57310783
   0.91297323  0.29421937  0.77448825
   0.91297323  0.48026887  0.70578063
   0.91297323  0.22551175  0.51973113
   0.01705737  0.23700691  0.39335019
   0.01705737  0.15634428  0.76299309
   0.01705737  0.60664981  0.84365572
   0.97201751  0.01631033  0.16753609
   0.97201751  0.15122476  0.98368967
   0.97201751  0.83246491  0.84877524
   0.12533712  0.05890919  0.10442870
   0.12533712  0.04551951  0.94109081
   0.12533712  0.89557130  0.95448049
   0.17002743  0.28138997  0.33130981
   0.17002743  0.04991985  0.71861003
   0.17002743  0.66869019  0.95008015
   0.18779062  0.32654333  0.24225352
   0.18779062  0.91571119  0.67345667
   0.18779062  0.75774648  0.08428881
   0.32595044  0.08448519  0.10289190
   0.32595044  0.01840671  0.91551481
   0.32595044  0.89710810  0.98159329
   0.47952156  0.13633636  0.04832448
   0.47952156  0.91198812  0.86366364
   0.47952156  0.95167552  0.08801188
   0.34075922  0.37689783  0.18640592
   0.34075922  0.80950909  0.62310217
   0.34075922  0.81359408  0.19049091
   0.68836143  0.44963965  0.18944529
   0.68836143  0.73980664  0.55036035
   0.68836143  0.81055471  0.26019336
   0.86220864  0.42439108  0.98309952
   0.86220864  0.55870845  0.57560892
   0.86220864  0.01690048  0.44129155
   0.91139601  0.57815796  0.11496927
   0.91139601  0.53681032  0.42184204
   0.91139601  0.88503173  0.46318968
   0.80234857  0.52679196  0.31332425
   0.80234857  0.78653229  0.47320804
   0.80234857  0.68667575  0.21346771
   0.47743031  0.40767309  0.00618194
   0.47743031  0.59850985  0.59232691
   0.47743031  0.99381806  0.40149115
   0.42663315  0.43604086  0.87895034
   0.42663315  0.44290848  0.56395914
   0.42663315  0.12104966  0.55709152
   0.69951920  0.26319391  0.81079710
   0.69951920  0.54760219  0.73680609
   0.69951920  0.18920290  0.45239781
   0.55979646  0.20699774  0.67582650
   0.55979646  0.46882876  0.79300226
   0.55979646  0.32417350  0.53117124
   0.95379736  0.38913443  0.22987296
   0.95379736  0.84073853  0.61086557
   0.95379736  0.77012704  0.15926147
   0.04499759  0.42980127  0.20660354
   0.04499759  0.77680328  0.57019873
   0.04499759  0.79339646  0.22319672
   0.11088207  0.49454553  0.26533763
   0.11088207  0.77079210  0.50545447
   0.11088207  0.73466237  0.22920790
   0.06471256  0.40199617  0.12431494
   0.06471256  0.72231878  0.59800383
   0.06471256  0.87568506  0.27768122
   0.14911809  0.43845184  0.10125182
   0.14911809  0.66279997  0.56154816
   0.14911809  0.89874818  0.33720003
   0.19564857  0.53059442  0.24208203
   0.19564857  0.71148761  0.46940558
   0.19564857  0.75791797  0.28851239
   0.21608792  0.50312997  0.15956419
   0.21608792  0.65643422  0.49687003
   0.21608792  0.84043581  0.34356578
   0.30835399  0.53898021  0.13383320
   0.30835399  0.59485299  0.46101979
   0.30835399  0.86616680  0.40514701
   0.41434819  0.56307600  0.17585586
   0.41434819  0.61277986  0.43692400
   0.41434819  0.82414414  0.38722014
   0.29412638  0.54672954  0.06471841
   0.29412638  0.51798987  0.45327046
   0.29412638  0.93528159  0.48201013
   0.38518372  0.57267029  0.03547094
   0.38518372  0.46280065  0.42732971
   0.38518372  0.96452906  0.53719935
   0.50446039  0.59073342  0.14750976
   0.50446039  0.55677633  0.40926658
   0.50446039  0.85249024  0.44322367
   0.49227517  0.59297149  0.07552790
   0.49227517  0.48255642  0.40702851
   0.49227517  0.92447210  0.51744358
   0.59525633  0.61037593  0.03861444
   0.59525633  0.42823852  0.38962407
   0.59525633  0.96138556  0.57176148
   0.77813405  0.81443544  0.01597056
   0.77813405  0.20153413  0.18556356
   0.77813405  0.98402944  0.79846587
   0.67358232  0.71370659  0.92563736
   0.67358232  0.21193177  0.28629341
   0.67358232  0.07436264  0.78806823
   0.65240167  0.77808970  0.91455543
   0.65240167  0.13646574  0.22191030
   0.65240167  0.08544457  0.86353426
   0.72263979  0.92158656  0.98620715
   0.72263979  0.06461959  0.07841344
   0.72263979  0.01379285  0.93538041
   0.72270382  0.98599975  0.06590687
   0.72270382  0.07990812  0.01400025
   0.72270382  0.93409313  0.92009188
   0.84055992  0.51371523  0.87381314
   0.84055992  0.36009891  0.48628477
   0.84055992  0.12618686  0.63990109
   0.99353689  0.53922037  0.95034768
   0.99353689  0.41112731  0.46077963
   0.99353689  0.04965232  0.58887269
   0.01754271  0.46974986  0.87893924
   0.01754371  0.40918938  0.53025014
   0.01754271  0.12106076  0.59081062
   0.91137960  0.39276374  0.74745403
   0.91137960  0.35469029  0.60723626
   0.91137960  0.25254597  0.64530971
   0.91110262  0.31151126  0.72746417
   0.91110262  0.41595291  0.68848874
   0.91110262  0.27253583  0.58404709
   0.88834804  0.10112480  0.32171496
   0.88834804  0.22059016  0.89887520
   0.88834804  0.67828504  0.77940984
   0.98452440  0.12449180  0.28416028
   0.98452440  0.15966848  0.87550820
   0.98452440  0.71583972  0.84033152
   0.04134567  0.19873053  0.32996151
   0.04134567  0.13123098  0.80126947
   0.04134567  0.67003849  0.86876902
   0.01631597  0.07417804  0.20288316
   0.01631597  0.12870513  0.92582196
   0.01631597  0.79711684  0.87129487
   0.10229923  0.09843763  0.16808353
   0.10229923  0.06964590  0.90156237
   0.10229923  0.83191647  0.93035410
   0.12608108  0.22335451  0.29504424
   0.12608108  0.07168973  0.77664549
   0.12608108  0.70495576  0.92831027
   0.15782544  0.17391469  0.21321989
   0.15782544  0.03930521  0.82608531
   0.15782544  0.78678011  0.96069479
   0.24682019  0.20215502  0.17736457
   0.24682019  0.97520955  0.79784498
   0.24682019  0.82263543  0.02479045
   0.25236927  0.28468634  0.20063392
   0.25236927  0.91594758  0.71531366
   0.25236927  0.79936608  0.08405242
   0.32828209  0.14868155  0.12105678
   0.32828209  0.97237623  0.85131845
   0.32828209  0.87894322  0.02762377
   0.41463761  0.17744176  0.09069807
   0.41463761  0.91325632  0.82255824
   0.41463761  0.90930193  0.08674368
   0.33741396  0.31315585  0.16950972
   0.33741396  0.85635387  0.68684415
   0.33741396  0.83049028  0.14364613
   0.42043394  0.26009600  0.11497239
   0.42043494  0.85487639  0.73990400
   0.42043494  0.88502761  0.14512361
   0.51210372  0.29369127  0.08425787
   0.51210372  0.79056760  0.70630873
   0.51210372  0.91574213  0.20943240
   0.74401781  0.46201431  0.15088050
   0.74401781  0.68886619  0.53798569
   0.74401781  0.84911950  0.31113381
   0.83357352  0.45327906  0.04558287
   0.83357352  0.59230381  0.54672094
   0.83357352  0.95441713  0.40769619
   0.85925533  0.52827291  0.10946190
   0.85925533  0.58118899  0.47172709
   0.85925533  0.89053810  0.41881101
   0.80306192  0.60035819  0.25560641
   0.80306192  0.65524821  0.39964181
   0.80306192  0.74439359  0.34475179
   0.80306961  0.58770315  0.32172310
   0.80306961  0.73401995  0.41229685
   0.80306961  0.67827690  0.26598005
   0.51339726  0.38137542  0.94561549
   0.51339726  0.56424007  0.61862458
   0.51339726  0.05438451  0.43575993
   0.48732120  0.39526755  0.88358520
   0.48732120  0.48831664  0.60473245
   0.48732120  0.11641480  0.51168336
   0.62803033  0.30288964  0.84489292
   0.62803033  0.54200328  0.69711036
   0.62803033  0.15510708  0.45799672
   0.56271708  0.33861986  0.74220257
   0.56271708  0.40358271  0.66138014
   0.56271708  0.25779743  0.59641729
   0.56270936  0.26238844  0.67217433
   0.56270936  0.40978589  0.73761156
   0.56270936  0.32782567  0.59021411
   0.75229924  0.73708381  0.98847574
   0.75229924  0.25139192  0.26291619
   0.75229924  0.01152426  0.74860808
   0.71899224  0.84137480  0.97234307
   0.71899224  0.13096827  0.15862520
   0.71899224  0.02765693  0.86903173
   0.88319068  0.56531927  0.94622274
   0.88319068  0.38090347  0.43468073
   0.88319068  0.05377726  0.61909653
   0.91974899  0.45449490  0.83062500
   0.91974899  0.37613010  0.54550510
   0.91974899  0.16937500  0.62386990
   0.76156875  0.41336335  0.07225376
   0.76156875  0.65888941  0.58663665
   0.76156875  0.92774624  0.34111059
   0.80270688  0.53283213  0.17592611
   0.80270688  0.64309498  0.46716787
   0.80270688  0.82407389  0.35690502
   0.60157203  0.32433375  0.92076189
   0.60157203  0.59642815  0.67566625
   0.60157203  0.07923811  0.40357185
   0.55966732  0.34461855  0.81947020
   0.55966632  0.47485265  0.65538245
   0.55966632  0.18052980  0.52514735
   0.67727934  0.65205887  0.08919058
   0.67727934  0.43713070  0.34794113
   0.67727934  0.91080942  0.56286930
   0.59909042  0.58260992  0.96330199
   0.59909042  0.38069207  0.41739008
   0.59909042  0.03669801  0.61930793
   0.94179182  0.41694853  0.30776034
   0.94179182  0.89081181  0.58305247
   0.94179182  0.69223966  0.10918819
   0.89346471  0.33322409  0.17695235
   0.89346471  0.84372826  0.66677591
   0.89346471  0.82304765  0.15627174
   0.51093456  0.36701963  0.10375377
   0.51093456  0.73673314  0.63298037
   0.51093456  0.89624623  0.26326686
   0.59112520  0.24284171  0.03662703
   0.59112520  0.79378531  0.75715829
   0.59112520  0.96337297  0.20621469
   0.82567495  0.04105198  0.27034112
   0.82567495  0.22928914  0.95894802
   0.82567495  0.72965888  0.77071086
   0.87250051  0.13981110  0.39737790
   0.87250051  0.25756680  0.86018890
   0.87250051  0.60262210  0.74243320
unknown system                          
           1
     0.000000    0.000000  -11.521655
    -9.525970  -16.499464    0.000000
    -9.525970   16.499464   -0.000000
   Zn   H    C    N    O 
   6  96 144  24  24
Direct configuration=    38
   0.80922531  0.67023612  0.03451042
   0.80922531  0.36427430  0.32976388
   0.80922531  0.96548958  0.63572570
   0.69278936  0.30326995  0.00088144
   0.69278936  0.69761249  0.69673005
   0.69278936  0.99911856  0.30238751
   0.09549619  0.51577259  0.32919943
   0.09549619  0.81342684  0.48422741
   0.09549619  0.67080057  0.18657316
   0.01335208  0.35113169  0.07968645
   0.01335208  0.72855476  0.64886831
   0.01335308  0.92031355  0.27144524
   0.16665551  0.41474441  0.03696211
   0.16665551  0.62221670  0.58525559
   0.16665551  0.96303789  0.37778330
   0.24611061  0.58064241  0.28814990
   0.24611061  0.70750749  0.41935759
   0.24611061  0.71185010  0.29249251
   0.42770670  0.55565259  0.22839625
   0.42770670  0.67274366  0.44434741
   0.42770670  0.77160375  0.32725634
   0.21048311  0.53130898  0.03370055
   0.21048311  0.50239057  0.46869102
   0.21048311  0.96629945  0.49760943
   0.37532739  0.57734803  0.98100588
   0.37532739  0.40365785  0.42265197
   0.37532739  0.01899412  0.59634315
   0.58716377  0.60836500  0.17912361
   0.58716377  0.57075861  0.39163500
   0.58716377  0.82087639  0.42924139
   0.83626710  0.85039780  0.06612381
   0.83626710  0.21572601  0.14960220
   0.83626710  0.93387619  0.78427399
   0.63497943  0.65389850  0.89673270
   0.63497943  0.24283420  0.34610150
   0.63497943  0.10326730  0.75716580
   0.59807022  0.78549294  0.87212644
   0.59807022  0.08663350  0.21450706
   0.59807022  0.12787356  0.91336650
   0.71837477  0.97533641  0.11699138
   0.71837477  0.14165496  0.02466359
   0.71837477  0.88300862  0.85834504
   0.75471681  0.51635752  0.85220264
   0.75471681  0.33584513  0.48364248
   0.75471681  0.14779736  0.66415487
   0.04592169  0.57327904  0.00435665
   0.04592169  0.43107762  0.42672096
   0.04592169  0.99564335  0.56892238
   0.09281618  0.43027247  0.85766100
   0.09281618  0.42738853  0.56972753
   0.09281618  0.14233900  0.57261147
   0.91309063  0.29416102  0.77446984
   0.91309063  0.48030882  0.70583898
   0.91309063  0.22553016  0.51969118
   0.01732915  0.23710461  0.39358618
   0.01732915  0.15648257  0.76289539
   0.01732915  0.60641382  0.84351743
   0.97200817  0.01646320  0.16766433
   0.97200817  0.15120014  0.98353680
   0.97200817  0.83233667  0.84879986
   0.12542683  0.05902738  0.10458901
   0.12542683  0.04556163  0.94097262
   0.12542683  0.89541099  0.95443837
   0.17030552  0.28146380  0.33152558
   0.17030552  0.05006177  0.71853620
   0.17030552  0.66847442  0.94993823
   0.18795665  0.32663348  0.24238670
   0.18795665  0.91575422  0.67336652
   0.18795665  0.75761330  0.08424578
   0.32604470  0.08456347  0.10304698
   0.32604470  0.01848351  0.91543653
   0.32604470  0.89695302  0.98151649
   0.47955564  0.13637065  0.04840263
   0.47955564  0.91203198  0.86362935
   0.47955564  0.95159737  0.08796802
   0.34089512  0.37696864  0.18650770
   0.34089512  0.80954006  0.62303136
   0.34089512  0.81349230  0.19045994
   0.68836104  0.44960122  0.18941767
   0.68836104  0.73981745  0.55039878
   0.68836104  0.81058233  0.26018255
   0.86230611  0.42436211  0.98309021
   0.86230611  0.55872810  0.57563789
   0.86230611  0.01690979  0.44127190
   0.91134966  0.57818633  0.11498671
   0.91134966  0.53679938  0.42181367
   0.91134966  0.88501429  0.46320062
   0.80229816  0.52679539  0.31335390
   0.80229816  0.78655851  0.47320461
   0.80229816  0.68664610  0.21344149
   0.47737458  0.40761410  0.00620914
   0.47737458  0.59859604  0.59238590
   0.47737458  0.99379086  0.40140496
   0.42645014  0.43596458  0.87895241
   0.42645014  0.44298683  0.56403542
   0.42645014  0.12104759  0.55701317
   0.69950684  0.26320920  0.81078029
   0.69950684  0.54757009  0.73679080
   0.69950684  0.18921971  0.45242991
   0.55970371  0.20697432  0.67579020
   0.55970371  0.46881588  0.79302568
   0.55970371  0.32420980  0.53118412
   0.95378343  0.38901402  0.22976986
   0.95378343  0.84075584  0.61098598
   0.95378343  0.77023014  0.15924416
   0.04490185  0.42971292  0.20654191
   0.04490185  0.77682999  0.57028708
   0.04490185  0.79345809  0.22317001
   0.11070982  0.49449471  0.26525261
   0.11070982  0.77075789  0.50550529
   0.11070982  0.73474739  0.22924211
   0.06473076  0.40191570  0.12423075
   0.06473076  0.72231505  0.59808430
   0.06473076  0.87576925  0.27768495
   0.14909237  0.43838287  0.10115732
   0.14909237  0.66277445  0.56161713
   0.14909237  0.89884268  0.33722555
   0.19551854  0.53054450  0.24198484
   0.19551854  0.71144035  0.46945550
   0.19551854  0.75801516  0.28855965
   0.21602703  0.50309264  0.15949253
   0.21602703  0.65639989  0.49690736
   0.21602703  0.84050747  0.34360011
   0.30826257  0.53892806  0.13378988
   0.30826257  0.59486181  0.46107194
   0.30826257  0.86621012  0.40513819
   0.41425636  0.56302010  0.17577211
   0.41425636  0.61275201  0.43697990
   0.41425636  0.82422789  0.38724799
   0.29410266  0.54670721  0.06464230
   0.29410266  0.51793609  0.45329279
   0.29410266  0.93535770  0.48206391
   0.38514747  0.57265050  0.03541011
   0.38514747  0.46275961  0.42734950
   0.38514747  0.96458989  0.53724039
   0.50439372  0.59066205  0.14741323
   0.50439372  0.55675118  0.40933795
   0.50439372  0.85258677  0.44324882
   0.49229392  0.59292371  0.07542613
   0.49229392  0.48250243  0.40707629
   0.49229392  0.92457387  0.51749757
   0.59522500  0.61031581  0.03854288
   0.59522500  0.42822708  0.38968419
   0.59522500  0.96145712  0.57177292
   0.77808804  0.81440681  0.01591000
   0.77808804  0.20150219  0.18559219
   0.77808804  0.98409000  0.79849781
   0.67342397  0.71366987  0.92561749
   0.67342397  0.21194862  0.28633013
   0.67342397  0.07438251  0.78805138
   0.65222057  0.77806901  0.91455052
   0.65222057  0.13648151  0.22193099
   0.65222057  0.08544948  0.86351849
   0.72248742  0.92158180  0.98617452
   0.72248742  0.06459172  0.07841820
   0.72248742  0.01382548  0.93540828
   0.72255380  0.98596536  0.06588863
   0.72255380  0.07992427  0.01403464
   0.72255380  0.93411137  0.92007573
   0.84069113  0.51374341  0.87376593
   0.84069113  0.36002352  0.48625659
   0.84069113  0.12623407  0.63997648
   0.99343806  0.53911662  0.95048915
   0.99343806  0.41137253  0.46088338
   0.99343806  0.04951085  0.58862747
   0.01747367  0.46958972  0.87909055
   0.01747467  0.40950083  0.53041028
   0.01747367  0.12090945  0.59049917
   0.91153490  0.39273644  0.74747473
   0.91153490  0.35473829  0.60726356
   0.91153490  0.25252527  0.64526171
   0.91125108  0.31148698  0.72746458
   0.91125108  0.41597760  0.68851302
   0.91125108  0.27253542  0.58402240
   0.88843024  0.10125210  0.32186292
   0.88843024  0.22061082  0.89874790
   0.88843024  0.67813708  0.77938918
   0.98462399  0.12460647  0.28436683
   0.98462399  0.15976035  0.87539353
   0.98462399  0.71563317  0.84023965
   0.04155782  0.19883980  0.33019404
   0.04155782  0.13135424  0.80116020
   0.04155782  0.66980596  0.86864576
   0.01643017  0.07429308  0.20301776
   0.01643017  0.12872468  0.92570692
   0.01643017  0.79698224  0.87127532
   0.10242115  0.09852271  0.16821341
   0.10242115  0.06969070  0.90147729
   0.10242115  0.83178659  0.93030930
   0.12633499  0.22344352  0.29526361
   0.12633499  0.07182009  0.77655648
   0.12633499  0.70473639  0.92817991
   0.15801017  0.17400536  0.21342225
   0.15801017  0.03941689  0.82599464
   0.15801017  0.78657775  0.96058311
   0.24696742  0.20223404  0.17755834
   0.24696742  0.97532430  0.79776596
   0.24696742  0.82244166  0.02467570
   0.25256498  0.28477901  0.20077804
   0.25256498  0.91599903  0.71522099
   0.25256498  0.79922196  0.08400097
   0.32844463  0.14874269  0.12119735
   0.32844463  0.97245566  0.85125731
   0.32844463  0.87880265  0.02754434
   0.41473286  0.17748284  0.09080351
   0.41473286  0.91332067  0.82251716
   0.41473286  0.90919649  0.08667933
   0.33756056  0.31325677  0.16963650
   0.33756056  0.85637973  0.68674323
   0.33756056  0.83036350  0.14362027
   0.42056445  0.26016199  0.11508076
   0.42056545  0.85491876  0.73983801
   0.42056545  0.88491924  0.14508124
   0.51218933  0.29372419  0.08431037
   0.51218933  0.79058719  0.70627581
   0.51218933  0.91568963  0.20941281
   0.74401757  0.46196513  0.15086955
   0.74401757  0.68890442  0.53803487
   0.74401757  0.84913045  0.31109558
   0.83364995  0.45326841  0.04558047
   0.83364995  0.59231206  0.54673159
   0.83364995  0.95441953  0.40768794
   0.85926336  0.52826862  0.10946044
   0.85926336  0.58119182  0.47173138
   0.85926336  0.89053956  0.41880818
   0.80302847  0.60037092  0.25562634
   0.80302847  0.65525542  0.39962908
   0.80302847  0.74437366  0.34474458
   0.80302026  0.58769286  0.32172521
   0.80302026  0.73403235  0.41230714
   0.80302026  0.67827479  0.26596765
   0.51333785  0.38132294  0.94563545
   0.51333785  0.56431252  0.61867706
   0.51333785  0.05436455  0.43568748
   0.48722510  0.39520298  0.88358706
   0.48722510  0.48838308  0.60479702
   0.48722510  0.11641294  0.51161692
   0.62802040  0.30287168  0.84489300
   0.62802040  0.54202132  0.69712832
   0.62802040  0.15510700  0.45797868
   0.56261263  0.33863556  0.74220279
   0.56261263  0.40356723  0.66136444
   0.56261263  0.25779721  0.59643277
   0.56261959  0.26234885  0.67213718
   0.56261959  0.40978833  0.73765115
   0.56261959  0.32786282  0.59021167
   0.75224471  0.73705773  0.98843251
   0.75224471  0.25137478  0.26294227
   0.75224471  0.01156749  0.74862522
   0.71886035  0.84135746  0.97230478
   0.71886035  0.13094732  0.15864254
   0.71886035  0.02769522  0.86905268
   0.88322716  0.56530805  0.94623827
   0.88322716  0.38093022  0.43469195
   0.88322716  0.05376173  0.61906978
   0.91982286  0.45445070  0.83065644
   0.91982286  0.37620574  0.54554930
   0.91982286  0.16934356  0.62379426
   0.76163466  0.41330444  0.07223968
   0.76163466  0.65893424  0.58669556
   0.76163466  0.92776032  0.34106576
   0.80268029  0.53280368  0.17593531
   0.80268029  0.64313263  0.46719632
   0.80268029  0.82406469  0.35686737
   0.60153429  0.32432711  0.92075540
   0.60153429  0.59642830  0.67567289
   0.60153429  0.07924460  0.40357170
   0.55957675  0.34457958  0.81946648
   0.55957575  0.47488790  0.65542142
   0.55957575  0.18053352  0.52511210
   0.67721402  0.65202271  0.08910676
   0.67721402  0.43708305  0.34797729
   0.67721402  0.91089324  0.56291695
   0.59908971  0.58253646  0.96322771
   0.59908971  0.38069125  0.41746354
   0.59908971  0.03677229  0.61930875
   0.94161476  0.41689921  0.30763216
   0.94161476  0.89073295  0.58310179
   0.94161476  0.69236784  0.10926705
   0.89364364  0.33300658  0.17682959
   0.89364364  0.84382300  0.66699342
   0.89364364  0.82317041  0.15617700
   0.51099951  0.36703829  0.10377809
   0.51099951  0.73673880  0.63296171
   0.51099951  0.89622191  0.26326120
   0.59116831  0.24286476  0.03665286
   0.59116831  0.79378810  0.75713524
   0.59116831  0.96334714  0.20621190
   0.82572369  0.04122559  0.27047221
   0.82572369  0.22924662  0.95877441
   0.82572369  0.72952779  0.77075338
   0.87256730  0.13988993  0.39750500
   0.87256730  0.25761508  0.86011007
   0.87256730  0.60249500  0.74238492
unknown system                          
           1
     0.000000    0.000000  -11.520783
    -9.524052  -16.496142    0.000000
    -9.524052   16.496142   -0.000000
   Zn   H    C    N    O 
   6  96 144  24  24
Direct configuration=    39
   0.80909320  0.67017243  0.03441781
   0.80909320  0.36424538  0.32982757
   0.80909320  0.96558219  0.63575462
   0.69295048  0.30306916  0.00075258
   0.69295048  0.69768442  0.69693084
   0.69295048  0.99924742  0.30231558
   0.09500100  0.51563048  0.32892089
   0.09500100  0.81329041  0.48436952
   0.09500100  0.67107911  0.18670959
   0.01351678  0.35065291  0.07927525
   0.01351678  0.72862234  0.64934709
   0.01351778  0.92072475  0.27137766
   0.16662118  0.41457822  0.03677670
   0.16662118  0.62219749  0.58542178
   0.16662118  0.96322330  0.37780251
   0.24565641  0.58061617  0.28808063
   0.24565641  0.70746446  0.41938383
   0.24565641  0.71191937  0.29253554
   0.42744952  0.55557341  0.22819356
   0.42744952  0.67262015  0.44442659
   0.42744952  0.77180644  0.32737985
   0.21050983  0.53127676  0.03349123
   0.21050983  0.50221347  0.46872324
   0.21050983  0.96650877  0.49778653
   0.37522142  0.57736502  0.98084420
   0.37522142  0.40347919  0.42263498
   0.37522142  0.01915580  0.59652181
   0.58689226  0.60818033  0.17887361
   0.58689226  0.57069328  0.39181967
   0.58689226  0.82112639  0.42930672
   0.83615429  0.85034231  0.06587026
   0.83615429  0.21552795  0.14965769
   0.83615429  0.93412974  0.78447205
   0.63443906  0.65380292  0.89682814
   0.63443906  0.24302522  0.34619708
   0.63443906  0.10317186  0.75697478
   0.59732879  0.78544471  0.87216095
   0.59732879  0.08671624  0.21455529
   0.59732879  0.12783905  0.91328376
   0.71781462  0.97521123  0.11691921
   0.71781462  0.14170798  0.02478877
   0.71781462  0.88308079  0.85829202
   0.75537472  0.51663040  0.85165197
   0.75537472  0.33502157  0.48336960
   0.75537472  0.14834803  0.66497843
   0.04533202  0.57284556  0.00495730
   0.04533202  0.43211174  0.42715444
   0.04533202  0.99504270  0.56788826
   0.09239929  0.42959983  0.85842473
   0.09239929  0.42882490  0.57040017
   0.09239929  0.14157527  0.57117510
   0.91343035  0.29399217  0.77441657
   0.91343035  0.48042441  0.70600783
   0.91343035  0.22558343  0.51957559
   0.01811562  0.23738735  0.39426911
   0.01811562  0.15688276  0.76261265
   0.01811562  0.60573089  0.84311724
   0.97198115  0.01690556  0.16803544
   0.97198115  0.15112888  0.98309444
   0.97198115  0.83196556  0.84887112
   0.12568643  0.05936941  0.10505292
   0.12568643  0.04568351  0.94063059
   0.12568643  0.89494708  0.95431649
   0.17111026  0.28167748  0.33214996
   0.17111026  0.05047248  0.71832252
   0.17111026  0.66785004  0.94952752
   0.18843708  0.32689435  0.24277210
   0.18843708  0.91587875  0.67310565
   0.18843708  0.75722790  0.08412125
   0.32631749  0.08479000  0.10349577
   0.32631749  0.01870576  0.91521000
   0.32631749  0.89650423  0.98129424
   0.47965425  0.13646987  0.04862880
   0.47965425  0.91215893  0.86353013
   0.47965425  0.95137120  0.08784107
   0.34128836  0.37717355  0.18680224
   0.34128836  0.80962969  0.62282645
   0.34128836  0.81319776  0.19037031
   0.68835991  0.44949003  0.18933775
   0.68835991  0.73984872  0.55050997
   0.68835991  0.81066225  0.26015128
   0.86258816  0.42427830  0.98306326
   0.86258816  0.55878496  0.57572170
   0.86258816  0.01693674  0.44121504
   0.91121555  0.57826844  0.11503717
   0.91121555  0.53676773  0.42173156
   0.91121555  0.88496383  0.46323227
   0.80215228  0.52680530  0.31343968
   0.80215228  0.78663438  0.47319470
   0.80215228  0.68656032  0.21336562
   0.47721331  0.40744341  0.00628786
   0.47721331  0.59884545  0.59255659
   0.47721331  0.99371214  0.40115555
   0.42592057  0.43574382  0.87895838
   0.42592057  0.44321356  0.56425618
   0.42592057  0.12104162  0.55678644
   0.69947107  0.26325343  0.81073164
   0.69947107  0.54747721  0.73674657
   0.69947107  0.18926836  0.45252279
   0.55943530  0.20690655  0.67568516
   0.55943530  0.46877861  0.79309345
   0.55943530  0.32431484  0.53122139
   0.95374312  0.38866557  0.22947149
   0.95374312  0.84080592  0.61133443
   0.95374312  0.77052851  0.15919408
   0.04462481  0.42945727  0.20636356
   0.04462481  0.77690729  0.57054273
   0.04462481  0.79363644  0.22309271
   0.11021139  0.49434764  0.26500656
   0.11021139  0.77065891  0.50565236
   0.11021139  0.73499344  0.22934109
   0.06478342  0.40168283  0.12398712
   0.06478342  0.72230429  0.59831717
   0.06478342  0.87601288  0.27769571
   0.14901795  0.43818328  0.10088385
   0.14901795  0.66270057  0.56181672
   0.14901795  0.89911615  0.33729943
   0.19514226  0.53040003  0.24170361
   0.19514226  0.71130358  0.46959997
   0.19514226  0.75829639  0.28869642
   0.21585083  0.50298461  0.15928515
   0.21585083  0.65630054  0.49701539
   0.21585083  0.84071485  0.34369946
   0.30799803  0.53877714  0.13366451
   0.30799803  0.59488736  0.46122286
   0.30799803  0.86633549  0.40511264
   0.41399063  0.56285832  0.17552973
   0.41399063  0.61267141  0.43714168
   0.41399063  0.82447027  0.38732859
   0.29403403  0.54664258  0.06442203
   0.29403403  0.51778045  0.45335742
   0.29403403  0.93557797  0.48221955
   0.38504257  0.57259322  0.03523406
   0.38504257  0.46264085  0.42740678
   0.38504257  0.96476594  0.53735915
   0.50420081  0.59045549  0.14713390
   0.50420081  0.55667841  0.40954451
   0.50420081  0.85286610  0.44332159
   0.49234819  0.59278543  0.07513162
   0.49234819  0.48234619  0.40721457
   0.49234819  0.92486838  0.51765381
   0.59513435  0.61014184  0.03833581
   0.59513435  0.42819397  0.38985816
   0.59513435  0.96166419  0.57180603
   0.77795487  0.81432397  0.01573474
   0.77795487  0.20140977  0.18567503
   0.77795487  0.98426526  0.79859023
   0.67296575  0.71356362  0.92556001
   0.67296575  0.21199739  0.28643638
   0.67296575  0.07443999  0.78800261
   0.65169652  0.77800917  0.91453632
   0.65169652  0.13652715  0.22199083
   0.65169652  0.08546368  0.86347285
   0.72204650  0.92156803  0.98608010
   0.72204650  0.06451107  0.07843197
   0.72204650  0.01391990  0.93548893
   0.72211966  0.98586585  0.06583584
   0.72211966  0.07997099  0.01413415
   0.72211966  0.93416416  0.92002901
   0.84107081  0.51382496  0.87362931
   0.84107081  0.35980535  0.48617504
   0.84107081  0.12637069  0.64019465
   0.99315206  0.53881639  0.95089856
   0.99315206  0.41208217  0.46118361
   0.99315206  0.04910144  0.58791783
   0.01727388  0.46912629  0.87952839
   0.01727488  0.41040210  0.53087371
   0.01727388  0.12047161  0.58959790
   0.91198431  0.39265744  0.74753464
   0.91198431  0.35487720  0.60734256
   0.91198431  0.25246536  0.64512280
   0.91168067  0.31141671  0.72746576
   0.91168067  0.41604905  0.68858329
   0.91168067  0.27253424  0.58395095
   0.88866810  0.10162049  0.32229108
   0.88866810  0.22067059  0.89837951
   0.88866810  0.67770892  0.77932941
   0.98491217  0.12493832  0.28496454
   0.98491217  0.16002623  0.87506168
   0.98491217  0.71503546  0.83997377
   0.04217171  0.19915602  0.33086695
   0.04217171  0.13171093  0.80084398
   0.04217171  0.66913305  0.86828907
   0.01676062  0.07462601  0.20340726
   0.01676062  0.12878125  0.92537399
   0.01676062  0.79659274  0.87121875
   0.10277396  0.09876893  0.16858926
   0.10277396  0.06982033  0.90123107
   0.10277396  0.83141074  0.93017967
   0.12706975  0.22370109  0.29589842
   0.12706975  0.07219733  0.77629891
   0.12706975  0.70410158  0.92780267
   0.15854474  0.17426776  0.21400784
   0.15854474  0.03974008  0.82573224
   0.15854474  0.78599216  0.96025992
   0.24739345  0.20246272  0.17811909
   0.24739345  0.97565637  0.79753728
   0.24739345  0.82188091  0.02434363
   0.25313132  0.28504716  0.20119509
   0.25313132  0.91614793  0.71495284
   0.25313132  0.79880491  0.08385207
   0.32891497  0.14891963  0.12160415
   0.32891497  0.97268553  0.85108037
   0.32891497  0.87839585  0.02731447
   0.41500849  0.17760173  0.09110863
   0.41500849  0.91350690  0.82239827
   0.41500849  0.90889137  0.08649310
   0.33798478  0.31354880  0.17000336
   0.33798478  0.85645457  0.68645120
   0.33798478  0.82999664  0.14354543
   0.42094211  0.26035297  0.11539434
   0.42094311  0.85504137  0.73964703
   0.42094311  0.88460566  0.14495863
   0.51243708  0.29381946  0.08446231
   0.51243708  0.79064385  0.70618054
   0.51243708  0.91553769  0.20935615
   0.74401685  0.46182280  0.15083785
   0.74401685  0.68901505  0.53817720
   0.74401685  0.84916215  0.31098495
   0.83387113  0.45323760  0.04557353
   0.83387113  0.59233593  0.54676240
   0.83387113  0.95442647  0.40766407
   0.85928660  0.52825620  0.10945622
   0.85928660  0.58120003  0.47174380
   0.85928660  0.89054378  0.41879997
   0.80293165  0.60040776  0.25568402
   0.80293165  0.65527626  0.39959224
   0.80293165  0.74431598  0.34472374
   0.80287748  0.58766307  0.32173133
   0.80287748  0.73406826  0.41233693
   0.80287748  0.67826867  0.26593174
   0.51316596  0.38117105  0.94569321
   0.51316596  0.56452217  0.61882895
   0.51316596  0.05430679  0.43547783
   0.48694700  0.39501611  0.88359244
   0.48694700  0.48857533  0.60498389
   0.48694700  0.11640756  0.51142467
   0.62799166  0.30281973  0.84489324
   0.62799166  0.54207351  0.69718027
   0.62799166  0.15510676  0.45792649
   0.56231037  0.33868102  0.74220344
   0.56231037  0.40352242  0.66131898
   0.56231037  0.25779656  0.59647758
   0.56235981  0.26223429  0.67202969
   0.56235981  0.40979540  0.73776571
   0.56235981  0.32797031  0.59020460
   0.75208690  0.73698224  0.98830740
   0.75208690  0.25132516  0.26301776
   0.75208690  0.01169260  0.74867484
   0.71847870  0.84130727  0.97219398
   0.71847870  0.13088671  0.15869273
   0.71847870  0.02780602  0.86911329
   0.88333272  0.56527559  0.94628321
   0.88333272  0.38100762  0.43472441
   0.88333272  0.05371679  0.61899238
   0.92003663  0.45432282  0.83074744
   0.92003663  0.37642462  0.54567718
   0.92003663  0.16925256  0.62357538
   0.76182539  0.41313397  0.07219892
   0.76182539  0.65906396  0.58686603
   0.76182539  0.92780108  0.34093604
   0.80260334  0.53272133  0.17596192
   0.80260334  0.64324159  0.46727867
   0.80260334  0.82403808  0.35675841
   0.60142509  0.32430789  0.92073663
   0.60142509  0.59642874  0.67569211
   0.60142509  0.07926337  0.40357126
   0.55931466  0.34446680  0.81945573
   0.55931366  0.47498993  0.65553420
   0.55931366  0.18054427  0.52501007
   0.67702500  0.65191806  0.08886421
   0.67702500  0.43694515  0.34808194
   0.67702500  0.91113579  0.56305485
   0.59908765  0.58232387  0.96301275
   0.59908765  0.38068887  0.41767613
   0.59908765  0.03698725  0.61931113
   0.94110243  0.41675648  0.30726124
   0.94110243  0.89050476  0.58324452
   0.94110243  0.69273876  0.10949524
   0.89416143  0.33237715  0.17647435
   0.89416143  0.84409719  0.66762285
   0.89416143  0.82352565  0.15590281
   0.51118746  0.36709228  0.10384847
   0.51118746  0.73675519  0.63290772
   0.51118746  0.89615153  0.26324481
   0.59129306  0.24293146  0.03672762
   0.59129306  0.79379617  0.75706854
   0.59129306  0.96327238  0.20620383
   0.82586473  0.04172801  0.27085157
   0.82586473  0.22912356  0.95827199
   0.82586473  0.72914843  0.77087644
   0.87276059  0.14011803  0.39787283
   0.87276059  0.25775480  0.85988197
   0.87276059  0.60212717  0.74224520
unknown system                          
           1
     0.000000    0.000000  -11.520993
    -9.524513  -16.496940    0.000000
    -9.524513   16.496940   -0.000000
   Zn   H    C    N    O 
   6  96 144  24  24
Direct configuration=    40
   0.80912495  0.67018774  0.03444007
   0.80912495  0.36425233  0.32981226
   0.80912495  0.96555993  0.63574767
   0.69291176  0.30311742  0.00078356
   0.69291176  0.69766713  0.69688258
   0.69291176  0.99921644  0.30233287
   0.09512000  0.51566463  0.32898784
   0.09512000  0.81332320  0.48433537
   0.09512000  0.67101216  0.18667680
   0.01347720  0.35076799  0.07937408
   0.01347720  0.72860609  0.64923201
   0.01347820  0.92062592  0.27139391
   0.16662943  0.41461816  0.03682127
   0.16662943  0.62220210  0.58538184
   0.16662943  0.96317873  0.37779790
   0.24576556  0.58062248  0.28809728
   0.24576556  0.70747481  0.41937752
   0.24576556  0.71190272  0.29252519
   0.42751133  0.55559244  0.22824228
   0.42751133  0.67264983  0.44440756
   0.42751133  0.77175772  0.32735017
   0.21050341  0.53128450  0.03354154
   0.21050341  0.50225604  0.46871550
   0.21050341  0.96645846  0.49774396
   0.37524689  0.57736093  0.98088306
   0.37524689  0.40352213  0.42263907
   0.37524689  0.01911694  0.59647887
   0.58695751  0.60822472  0.17893370
   0.58695751  0.57070898  0.39177528
   0.58695751  0.82106630  0.42929102
   0.83618140  0.85035565  0.06593120
   0.83618140  0.21557555  0.14964435
   0.83618140  0.93406880  0.78442445
   0.63456893  0.65382589  0.89680520
   0.63456893  0.24297931  0.34617411
   0.63456893  0.10319480  0.75702069
   0.59750697  0.78545630  0.87215265
   0.59750697  0.08669635  0.21454370
   0.59750697  0.12784735  0.91330365
   0.71794924  0.97524132  0.11693656
   0.71794924  0.14169524  0.02475868
   0.71794924  0.88306344  0.85830476
   0.75521661  0.51656482  0.85178433
   0.75521661  0.33521951  0.48343518
   0.75521661  0.14821567  0.66478049
   0.04547373  0.57294975  0.00481294
   0.04547373  0.43186319  0.42705025
   0.04547373  0.99518706  0.56813681
   0.09249947  0.42976150  0.85824116
   0.09249947  0.42847966  0.57023850
   0.09249947  0.14175884  0.57152034
   0.91334871  0.29403275  0.77442938
   0.91334871  0.48039662  0.70596725
   0.91334871  0.22557062  0.51960338
   0.01792662  0.23731939  0.39410496
   0.01792662  0.15678657  0.76268061
   0.01792662  0.60589504  0.84321343
   0.97198765  0.01679924  0.16794625
   0.97198765  0.15114601  0.98320076
   0.97198765  0.83205475  0.84885399
   0.12562404  0.05928720  0.10494141
   0.12562404  0.04565421  0.94071280
   0.12562404  0.89505859  0.95434579
   0.17091686  0.28162612  0.33199989
   0.17091686  0.05037377  0.71837388
   0.17091686  0.66800011  0.94962623
   0.18832162  0.32683165  0.24267947
   0.18832162  0.91584882  0.67316835
   0.18832162  0.75732053  0.08415118
   0.32625194  0.08473555  0.10338790
   0.32625194  0.01865235  0.91526445
   0.32625194  0.89661210  0.98134765
   0.47963055  0.13644602  0.04857444
   0.47963055  0.91212842  0.86355398
   0.47963055  0.95142556  0.08787158
   0.34119386  0.37712430  0.18673144
   0.34119386  0.80960815  0.62287570
   0.34119386  0.81326856  0.19039185
   0.68836018  0.44951675  0.18935696
   0.68836018  0.73984121  0.55048325
   0.68836018  0.81064304  0.26015879
   0.86252038  0.42429845  0.98306974
   0.86252038  0.55877130  0.57570155
   0.86252038  0.01693026  0.44122870
   0.91124778  0.57824871  0.11502504
   0.91124778  0.53677534  0.42175129
   0.91124778  0.88497596  0.46322466
   0.80218734  0.52680292  0.31341906
   0.80218734  0.78661615  0.47319708
   0.80218734  0.68658094  0.21338385
   0.47725206  0.40748444  0.00626894
   0.47725206  0.59878550  0.59251556
   0.47725206  0.99373106  0.40121550
   0.42604783  0.43579688  0.87895694
   0.42604783  0.44315906  0.56420312
   0.42604783  0.12104306  0.55684094
   0.69947967  0.26324280  0.81074333
   0.69947967  0.54749954  0.73675720
   0.69947967  0.18925667  0.45250046
   0.55949981  0.20692284  0.67571041
   0.55949981  0.46878756  0.79307716
   0.55949981  0.32428959  0.53121244
   0.95375280  0.38874932  0.22954321
   0.95375280  0.84079389  0.61125068
   0.95375280  0.77045679  0.15920611
   0.04469139  0.42951871  0.20640643
   0.04469139  0.77688871  0.57048129
   0.04469139  0.79359357  0.22311129
   0.11033118  0.49438299  0.26506570
   0.11033118  0.77068270  0.50561701
   0.11033118  0.73493430  0.22931730
   0.06477077  0.40173880  0.12404568
   0.06477077  0.72230687  0.59826120
   0.06477077  0.87595432  0.27769313
   0.14903583  0.43823125  0.10094958
   0.14903583  0.66271833  0.56176875
   0.14903583  0.89905042  0.33728167
   0.19523269  0.53043475  0.24177121
   0.19523269  0.71133645  0.46956525
   0.19523269  0.75822879  0.28866355
   0.21589317  0.50301058  0.15933499
   0.21589317  0.65632442  0.49698942
   0.21589317  0.84066501  0.34367558
   0.30806161  0.53881342  0.13369464
   0.30806161  0.59488122  0.46118658
   0.30806161  0.86630536  0.40511878
   0.41405449  0.56289720  0.17558798
   0.41405449  0.61269078  0.43710280
   0.41405449  0.82441202  0.38730922
   0.29405052  0.54665812  0.06447497
   0.29405052  0.51781786  0.45334188
   0.29405052  0.93552503  0.48218214
   0.38506778  0.57260699  0.03527638
   0.38506778  0.46266939  0.42739301
   0.38506778  0.96472362  0.53733061
   0.50424717  0.59050514  0.14720103
   0.50424717  0.55669590  0.40949486
   0.50424717  0.85279897  0.44330410
   0.49233515  0.59281866  0.07520240
   0.49233515  0.48238374  0.40718134
   0.49233515  0.92479760  0.51761626
   0.59515613  0.61018365  0.03838558
   0.59515613  0.42820193  0.38981635
   0.59515613  0.96161442  0.57179807
   0.77798687  0.81434388  0.01577686
   0.77798687  0.20143198  0.18565512
   0.77798687  0.98422314  0.79856802
   0.67307587  0.71358916  0.92557383
   0.67307587  0.21198567  0.28641084
   0.67307587  0.07442617  0.78801433
   0.65182246  0.77802355  0.91453973
   0.65182246  0.13651618  0.22197645
   0.65182246  0.08546027  0.86348382
   0.72215246  0.92157134  0.98610279
   0.72215246  0.06453045  0.07842866
   0.72215246  0.01389721  0.93546955
   0.72222400  0.98588977  0.06584853
   0.72222400  0.07995976  0.01411023
   0.72222400  0.93415147  0.92004024
   0.84097957  0.51380536  0.87366215
   0.84097957  0.35985779  0.48619464
   0.84097957  0.12633785  0.64014221
   0.99322079  0.53888855  0.95080016
   0.99322079  0.41191161  0.46111145
   0.99322079  0.04919984  0.58808839
   0.01732189  0.46923768  0.87942316
   0.01732289  0.41018548  0.53076232
   0.01732189  0.12057684  0.58981452
   0.91187631  0.39267642  0.74752024
   0.91187631  0.35484381  0.60732358
   0.91187631  0.25247976  0.64515619
   0.91157743  0.31143360  0.72746547
   0.91157743  0.41603188  0.68856640
   0.91157743  0.27253453  0.58396812
   0.88861093  0.10153195  0.32218817
   0.88861093  0.22065622  0.89846805
   0.88861093  0.67781183  0.77934378
   0.98484291  0.12485856  0.28482088
   0.98484291  0.15996232  0.87514144
   0.98484291  0.71517912  0.84003768
   0.04202418  0.19908002  0.33070522
   0.04202418  0.13162520  0.80091998
   0.04202418  0.66929478  0.86837480
   0.01668120  0.07454599  0.20331364
   0.01668120  0.12876765  0.92545401
   0.01668120  0.79668636  0.87123235
   0.10268917  0.09870975  0.16849893
   0.10268917  0.06978918  0.90129025
   0.10268917  0.83150107  0.93021082
   0.12689317  0.22363918  0.29574584
   0.12689317  0.07210666  0.77636082
   0.12689317  0.70425416  0.92789334
   0.15841627  0.17420470  0.21386709
   0.15841627  0.03966240  0.82579530
   0.15841627  0.78613291  0.96033760
   0.24729106  0.20240776  0.17798431
   0.24729106  0.97557655  0.79759224
   0.24729106  0.82201569  0.02442345
   0.25299522  0.28498271  0.20109485
   0.25299522  0.91611214  0.71501729
   0.25299522  0.79890515  0.08388786
   0.32880193  0.14887710  0.12150638
   0.32880193  0.97263028  0.85112290
   0.32880193  0.87849362  0.02736972
   0.41494225  0.17757316  0.09103530
   0.41494225  0.91346214  0.82242684
   0.41494225  0.90896470  0.08653786
   0.33788283  0.31347861  0.16991519
   0.33788283  0.85643658  0.68652139
   0.33788283  0.83008481  0.14356342
   0.42085135  0.26030707  0.11531897
   0.42085235  0.85501190  0.73969293
   0.42085235  0.88468103  0.14498810
   0.51237754  0.29379656  0.08442579
   0.51237754  0.79063023  0.70620344
   0.51237754  0.91557421  0.20936977
   0.74401702  0.46185701  0.15084547
   0.74401702  0.68898846  0.53814299
   0.74401702  0.84915453  0.31101154
   0.83381797  0.45324500  0.04557520
   0.83381797  0.59233020  0.54675500
   0.83381797  0.95442480  0.40766980
   0.85928102  0.52825918  0.10945724
   0.85928102  0.58119805  0.47174082
   0.85928102  0.89054276  0.41880195
   0.80295491  0.60039891  0.25567016
   0.80295491  0.65527125  0.39960109
   0.80295491  0.74432984  0.34472875
   0.80291180  0.58767023  0.32172986
   0.80291180  0.73405963  0.41232977
   0.80291180  0.67827014  0.26594037
   0.51320727  0.38120755  0.94567933
   0.51320727  0.56447178  0.61879245
   0.51320727  0.05432067  0.43552822
   0.48701384  0.39506102  0.88359115
   0.48701384  0.48852912  0.60493898
   0.48701384  0.11640885  0.51147088
   0.62799856  0.30283222  0.84489318
   0.62799856  0.54206096  0.69716778
   0.62799856  0.15510682  0.45793904
   0.56238301  0.33867009  0.74220328
   0.56238301  0.40353319  0.66132991
   0.56238301  0.25779672  0.59646681
   0.56242224  0.26226183  0.67205553
   0.56242224  0.40979370  0.73773817
   0.56242224  0.32794447  0.59020630
   0.75212483  0.73700038  0.98833747
   0.75212483  0.25133709  0.26299962
   0.75212483  0.01166253  0.74866291
   0.71857042  0.84131933  0.97222061
   0.71857042  0.13090128  0.15868067
   0.71857042  0.02777939  0.86909872
   0.88330735  0.56528339  0.94627241
   0.88330735  0.38098902  0.43471661
   0.88330735  0.05372759  0.61901098
   0.91998526  0.45435355  0.83072557
   0.91998526  0.37637201  0.54564645
   0.91998526  0.16927443  0.62362799
   0.76177955  0.41317494  0.07220872
   0.76177955  0.65903278  0.58682506
   0.76177955  0.92779128  0.34096722
   0.80262183  0.53274112  0.17595553
   0.80262183  0.64321540  0.46725888
   0.80262183  0.82404447  0.35678460
   0.60145133  0.32431251  0.92074114
   0.60145133  0.59642863  0.67568749
   0.60145133  0.07925886  0.40357137
   0.55937764  0.34449391  0.81945831
   0.55937664  0.47496541  0.65550709
   0.55937664  0.18054169  0.52503459
   0.67707042  0.65194321  0.08892251
   0.67707042  0.43697829  0.34805679
   0.67707042  0.91107749  0.56302171
   0.59908815  0.58237497  0.96306441
   0.59908815  0.38068945  0.41762503
   0.59908815  0.03693559  0.61931055
   0.94122555  0.41679079  0.30735039
   0.94122555  0.89055961  0.58321021
   0.94122555  0.69264961  0.10944039
   0.89403699  0.33252844  0.17655973
   0.89403699  0.84403129  0.66747156
   0.89403699  0.82344027  0.15596871
   0.51114229  0.36707930  0.10383155
   0.51114229  0.73675125  0.63292070
   0.51114229  0.89616845  0.26324875
   0.59126308  0.24291543  0.03670965
   0.59126308  0.79379423  0.75708457
   0.59126308  0.96329035  0.20620577
   0.82583084  0.04160726  0.27076039
   0.82583084  0.22915314  0.95839274
   0.82583084  0.72923961  0.77084686
   0.87271414  0.14006320  0.39778442
   0.87271414  0.25772122  0.85993680
   0.87271414  0.60221558  0.74227878
unknown system                          
           1
     0.000000    0.000000  -11.520170
    -9.523505  -16.495195    0.000000
    -9.523505   16.495195   -0.000000
   Zn   H    C    N    O 
   6  96 144  24  24
Direct configuration=    41
   0.80909975  0.67017571  0.03439928
   0.80909975  0.36422358  0.32982429
   0.80909975  0.96560072  0.63577642
   0.69294774  0.30307735  0.00074860
   0.69294774  0.69767225  0.69692265
   0.69294774  0.99925140  0.30232775
   0.09497620  0.51564974  0.32894255
   0.09497620  0.81329282  0.48435026
   0.09497620  0.67105745  0.18670718
   0.01353846  0.35065524  0.07927815
   0.01353846  0.72862291  0.64934476
   0.01353946  0.92072185  0.27137709
   0.16662778  0.41456980  0.03674060
   0.16662778  0.62216980  0.58543020
   0.16662778  0.96325940  0.37783020
   0.24566870  0.58061723  0.28807805
   0.24566870  0.70746081  0.41938277
   0.24566870  0.71192195  0.29253919
   0.42745274  0.55558114  0.22820719
   0.42745274  0.67262604  0.44441886
   0.42745274  0.77179281  0.32737396
   0.21048730  0.53126824  0.03346779
   0.21048730  0.50219854  0.46873176
   0.21048730  0.96653221  0.49780146
   0.37521210  0.57736641  0.98082480
   0.37521210  0.40345840  0.42263359
   0.37521210  0.01917520  0.59654260
   0.58692275  0.60816674  0.17887935
   0.58692275  0.57071260  0.39183326
   0.58692275  0.82112065  0.42928740
   0.83614092  0.85032305  0.06584475
   0.83614092  0.21552169  0.14967695
   0.83614092  0.93415525  0.78447831
   0.63442837  0.65379435  0.89681675
   0.63442837  0.24302240  0.34620565
   0.63442837  0.10318325  0.75697760
   0.59732637  0.78544501  0.87217225
   0.59732637  0.08672724  0.21455499
   0.59732637  0.12782775  0.91327276
   0.71781576  0.97520568  0.11691590
   0.71781576  0.14171022  0.02479432
   0.71781576  0.88308410  0.85828978
   0.75542434  0.51664251  0.85167005
   0.75542434  0.33502754  0.48335749
   0.75542434  0.14832995  0.66497246
   0.04532340  0.57282919  0.00495790
   0.04532340  0.43212870  0.42717081
   0.04532340  0.99504210  0.56787130
   0.09235275  0.42960099  0.85843076
   0.09235275  0.42882977  0.57039901
   0.09235275  0.14156924  0.57117023
   0.91342738  0.29399801  0.77439767
   0.91342738  0.48039966  0.70600199
   0.91342738  0.22560233  0.51960034
   0.01812780  0.23738585  0.39427637
   0.01812780  0.15689152  0.76261415
   0.01812780  0.60572363  0.84310848
   0.97198892  0.01691126  0.16803886
   0.97198892  0.15112660  0.98308874
   0.97198892  0.83196214  0.84887340
   0.12570261  0.05937861  0.10505050
   0.12570261  0.04567189  0.94062139
   0.12570261  0.89494950  0.95432811
   0.17110307  0.28166755  0.33215393
   0.17110307  0.05048638  0.71833245
   0.17110307  0.66784607  0.94951362
   0.18843089  0.32690772  0.24278790
   0.18843089  0.91588118  0.67309228
   0.18843089  0.75721210  0.08411882
   0.32632726  0.08478178  0.10350987
   0.32632726  0.01872809  0.91521822
   0.32632726  0.89649013  0.98127191
   0.47964330  0.13646975  0.04863843
   0.47964330  0.91216868  0.86353025
   0.47964330  0.95136157  0.08783132
   0.34130510  0.37719343  0.18682349
   0.34130510  0.80963106  0.62280657
   0.34130510  0.81317651  0.19036894
   0.68837668  0.44948105  0.18931901
   0.68837668  0.73983896  0.55051895
   0.68837668  0.81068099  0.26016104
   0.86259147  0.42427818  0.98306228
   0.86259147  0.55878411  0.57572182
   0.86259147  0.01693772  0.44121589
   0.91121069  0.57826861  0.11503895
   0.91121069  0.53676933  0.42173139
   0.91121069  0.88496205  0.46323067
   0.80215562  0.52681176  0.31343850
   0.80215562  0.78662674  0.47318824
   0.80215562  0.68656150  0.21337326
   0.47721189  0.40744051  0.00628926
   0.47721189  0.59884975  0.59255949
   0.47721189  0.99371074  0.40115125
   0.42594481  0.43571663  0.87895708
   0.42594481  0.44323945  0.56428337
   0.42594481  0.12104292  0.55676055
   0.69944768  0.26327206  0.81074987
   0.69944768  0.54747681  0.73672794
   0.69944768  0.18925013  0.45252319
   0.55944093  0.20689979  0.67568285
   0.55944093  0.46878306  0.79310021
   0.55944093  0.32431715  0.53121694
   0.95377947  0.38868199  0.22944881
   0.95377947  0.84076682  0.61131801
   0.95377947  0.77055119  0.15923318
   0.04458431  0.42943705  0.20634601
   0.04458431  0.77690995  0.57056295
   0.04458431  0.79365399  0.22309005
   0.11020813  0.49430984  0.26498535
   0.11020813  0.77067551  0.50569016
   0.11020813  0.73501465  0.22932449
   0.06474151  0.40166331  0.12400790
   0.06474151  0.72234459  0.59833669
   0.06474151  0.87599210  0.27765541
   0.14903789  0.43819107  0.10090626
   0.14903789  0.66271519  0.56180893
   0.14903789  0.89909374  0.33728481
   0.19512424  0.53040083  0.24170972
   0.19512424  0.71130889  0.46959917
   0.19512424  0.75829028  0.28869111
   0.21583893  0.50298174  0.15926396
   0.21583893  0.65628222  0.49701826
   0.21583893  0.84073604  0.34371778
   0.30801001  0.53877903  0.13362648
   0.30801001  0.59484745  0.46122097
   0.30801001  0.86637352  0.40515255
   0.41399184  0.56285589  0.17553882
   0.41399184  0.61268293  0.43714411
   0.41399184  0.82446118  0.38731707
   0.29403761  0.54663397  0.06445162
   0.29403761  0.51781865  0.45336603
   0.29403761  0.93554838  0.48218135
   0.38506364  0.57260136  0.03521607
   0.38506364  0.46261471  0.42739864
   0.38506364  0.96478393  0.53738529
   0.50420402  0.59047273  0.14713061
   0.50420402  0.55665787  0.40952727
   0.50420402  0.85286939  0.44334213
   0.49230695  0.59277653  0.07514825
   0.49230695  0.48237171  0.40722347
   0.49230695  0.92485175  0.51762829
   0.59511114  0.61012971  0.03831994
   0.59511114  0.42819022  0.38987029
   0.59511114  0.96168006  0.57180978
   0.77791444  0.81431451  0.01571796
   0.77791444  0.20140246  0.18568449
   0.77791444  0.98428204  0.79859754
   0.67297197  0.71358247  0.92558073
   0.67297197  0.21199926  0.28641753
   0.67297197  0.07441927  0.78800074
   0.65168159  0.77802163  0.91453408
   0.65168159  0.13651245  0.22197837
   0.65168159  0.08546592  0.86348755
   0.72203287  0.92157037  0.98608466
   0.72203287  0.06451329  0.07842963
   0.72203287  0.01391534  0.93548671
   0.72210637  0.98586365  0.06583612
   0.72210637  0.07997347  0.01413635
   0.72210637  0.93416388  0.92002653
   0.84110878  0.51381943  0.87360174
   0.84110878  0.35978331  0.48618057
   0.84110878  0.12639826  0.64021669
   0.99313580  0.53880735  0.95089441
   0.99313580  0.41208706  0.46119265
   0.99313580  0.04910559  0.58791294
   0.01723571  0.46915326  0.87954434
   0.01723671  0.41039109  0.53084674
   0.01723571  0.12045566  0.58960891
   0.91197677  0.39264523  0.74751570
   0.91197677  0.35487047  0.60735477
   0.91197677  0.25248430  0.64512953
   0.91170330  0.31139974  0.72742908
   0.91170330  0.41602933  0.68860026
   0.91170330  0.27257092  0.58397067
   0.88867224  0.10161771  0.32228329
   0.88867224  0.22066557  0.89838229
   0.88867224  0.67771671  0.77933443
   0.98495093  0.12494764  0.28495224
   0.98495093  0.16000459  0.87505236
   0.98495093  0.71504776  0.83999541
   0.04218690  0.19913510  0.33086485
   0.04218690  0.13172976  0.80086490
   0.04218690  0.66913515  0.86827024
   0.01673006  0.07467740  0.20345653
   0.01673006  0.12877913  0.92532260
   0.01673006  0.79654347  0.87122087
   0.10278223  0.09879461  0.16864868
   0.10278223  0.06985407  0.90120539
   0.10278223  0.83135132  0.93014593
   0.12706133  0.22370315  0.29589033
   0.12706133  0.07218718  0.77629685
   0.12706133  0.70410967  0.92781282
   0.15850496  0.17424213  0.21400802
   0.15850496  0.03976588  0.82575787
   0.15850496  0.78599198  0.96023412
   0.24743330  0.20246694  0.17811126
   0.24743330  0.97564432  0.79753306
   0.24743330  0.82188874  0.02435568
   0.25314779  0.28503366  0.20119631
   0.25314779  0.91616265  0.71496634
   0.25314779  0.79880369  0.08383735
   0.32890856  0.14892954  0.12161581
   0.32890856  0.97268727  0.85107046
   0.32890856  0.87838419  0.02731273
   0.41506313  0.17765375  0.09111140
   0.41506313  0.91345765  0.82234625
   0.41506313  0.90888860  0.08654235
   0.33803645  0.31352526  0.16998275
   0.33803645  0.85645749  0.68647474
   0.33803645  0.83001725  0.14354251
   0.42092238  0.26035499  0.11540248
   0.42092338  0.85504748  0.73964501
   0.42092338  0.88459752  0.14495252
   0.51238225  0.29381418  0.08446966
   0.51238225  0.79065649  0.70618582
   0.51238225  0.91553034  0.20934351
   0.74404474  0.46182043  0.15081026
   0.74404474  0.68898983  0.53817957
   0.74404474  0.84918974  0.31101017
   0.83384587  0.45321809  0.04556562
   0.83384587  0.59234753  0.54678191
   0.83384587  0.95443438  0.40765247
   0.85929130  0.52826425  0.10948216
   0.85929130  0.58121791  0.47173575
   0.85929130  0.89051784  0.41878209
   0.80291869  0.60039444  0.25567576
   0.80291869  0.65528132  0.39960556
   0.80291869  0.74432424  0.34471868
   0.80287484  0.58767400  0.32173616
   0.80287484  0.73406216  0.41232600
   0.80287484  0.67826384  0.26593784
   0.51316790  0.38116222  0.94567916
   0.51316790  0.56451694  0.61883778
   0.51316790  0.05432084  0.43548306
   0.48692644  0.39500888  0.88357201
   0.48692644  0.48856213  0.60499112
   0.48692644  0.11642799  0.51143787
   0.62793622  0.30282670  0.84488669
   0.62793622  0.54205999  0.69717330
   0.62793622  0.15511331  0.45794001
   0.56231872  0.33865195  0.74219526
   0.56231872  0.40354331  0.66134805
   0.56231872  0.25780474  0.59645669
   0.56234189  0.26227316  0.67205575
   0.56234189  0.40978260  0.73772684
   0.56234189  0.32794425  0.59021740
   0.75209790  0.73696316  0.98831031
   0.75209790  0.25134714  0.26303684
   0.75209790  0.01168969  0.74865286
   0.71848699  0.84131675  0.97219682
   0.71848699  0.13088008  0.15868325
   0.71848699  0.02780318  0.86911992
   0.88331775  0.56527234  0.94627866
   0.88331775  0.38100632  0.43472766
   0.88331775  0.05372134  0.61899368
   0.92007710  0.45430076  0.83075127
   0.92007710  0.37645051  0.54569924
   0.92007710  0.16924873  0.62354949
   0.76179799  0.41311227  0.07220598
   0.76179799  0.65909271  0.58688773
   0.76179799  0.92779402  0.34090729
   0.80260979  0.53275275  0.17598089
   0.80260979  0.64322915  0.46724725
   0.80260979  0.82401911  0.35677085
   0.60146120  0.32429971  0.92075955
   0.60146120  0.59645984  0.67570029
   0.60146120  0.07924045  0.40354016
   0.55932432  0.34447578  0.81944366
   0.55932332  0.47496888  0.65552522
   0.55932332  0.18055634  0.52503112
   0.67701519  0.65190932  0.08887422
   0.67701519  0.43696390  0.34809068
   0.67701519  0.91112578  0.56303610
   0.59908841  0.58233037  0.96300972
   0.59908841  0.38067935  0.41766963
   0.59908841  0.03699028  0.61932065
   0.94110356  0.41674774  0.30724096
   0.94110356  0.89049322  0.58325326
   0.94110356  0.69275904  0.10950678
   0.89418319  0.33238544  0.17649250
   0.89418319  0.84410706  0.66761456
   0.89418319  0.82350750  0.15589294
   0.51119766  0.36707843  0.10384826
   0.51119766  0.73676883  0.63292157
   0.51119766  0.89615174  0.26323117
   0.59130346  0.24293965  0.03672892
   0.59130346  0.79378927  0.75706035
   0.59130346  0.96327108  0.20621073
   0.82587332  0.04171363  0.27083070
   0.82587332  0.22911707  0.95828637
   0.82587332  0.72916930  0.77088293
   0.87278124  0.14014497  0.39790330
   0.87278124  0.25775833  0.85985503
   0.87278124  0.60209670  0.74224167
unknown system                          
           1
     0.000000    0.000000  -11.518511
    -9.521472  -16.491674    0.000000
    -9.521472   16.491674   -0.000000
   Zn   H    C    N    O 
   6  96 144  24  24
Direct configuration=    42
   0.80904889  0.67015142  0.03431698
   0.80904889  0.36416556  0.32984858
   0.80904889  0.96568302  0.63583444
   0.69302035  0.30299648  0.00067807
   0.69302035  0.69768259  0.69700352
   0.69302035  0.99932193  0.30231741
   0.09468601  0.51561967  0.32885117
   0.09468601  0.81323149  0.48438033
   0.09468601  0.67114883  0.18676851
   0.01366208  0.35042772  0.07908455
   0.01366208  0.72865683  0.64957228
   0.01366308  0.92091545  0.27134317
   0.16662446  0.41447220  0.03657780
   0.16662446  0.62210460  0.58552780
   0.16662446  0.96342220  0.37789540
   0.24547324  0.58060665  0.28803922
   0.24547324  0.70743258  0.41939335
   0.24547324  0.71196078  0.29256742
   0.42733451  0.55555833  0.22813637
   0.42733451  0.67257803  0.44444167
   0.42733451  0.77186363  0.32742197
   0.21045479  0.53123543  0.03331895
   0.21045479  0.50208252  0.46876457
   0.21045479  0.96668105  0.49791748
   0.37514190  0.57737745  0.98070724
   0.37514190  0.40332979  0.42262255
   0.37514190  0.01929276  0.59667121
   0.58685261  0.60804975  0.17876966
   0.58685261  0.57071992  0.39195025
   0.58685261  0.82123034  0.42928008
   0.83605922  0.85025728  0.06567029
   0.83605922  0.21541301  0.14974272
   0.83605922  0.93432971  0.78458699
   0.63414472  0.65373070  0.89684006
   0.63414472  0.24310935  0.34626930
   0.63414472  0.10315994  0.75689065
   0.59696191  0.78542221  0.87221178
   0.59696191  0.08678957  0.21457779
   0.59696191  0.12778822  0.91321043
   0.71754641  0.97513376  0.11687421
   0.71754641  0.14174046  0.02486624
   0.71754641  0.88312579  0.85825954
   0.75584351  0.51679930  0.85143945
   0.75584351  0.33464015  0.48320070
   0.75584351  0.14856055  0.66535985
   0.04502004  0.57258591  0.00525043
   0.04502004  0.43266451  0.42741409
   0.04502004  0.99474957  0.56733549
   0.09205669  0.42927707  0.85881336
   0.09205669  0.42953629  0.57072293
   0.09205669  0.14118664  0.57046371
   0.91358612  0.29392791  0.77433368
   0.91358612  0.48040578  0.70607209
   0.91358612  0.22566632  0.51959422
   0.01853378  0.23751995  0.39462227
   0.01853378  0.15710332  0.76248005
   0.01853378  0.60537773  0.84289668
   0.97199149  0.01713731  0.16822575
   0.97199149  0.15108745  0.98286269
   0.97199149  0.83177525  0.84891255
   0.12586114  0.05956307  0.10527063
   0.12586114  0.04570755  0.94043693
   0.12586114  0.89472937  0.95429245
   0.17147882  0.28175114  0.33246477
   0.17147882  0.05071363  0.71824886
   0.17147882  0.66753523  0.94928637
   0.18865139  0.32706125  0.24300673
   0.18865139  0.91594649  0.67293875
   0.18865139  0.75699327  0.08405351
   0.32647925  0.08487505  0.10375600
   0.32647925  0.01888095  0.91512495
   0.32647925  0.89624400  0.98111905
   0.47966903  0.13651763  0.04876756
   0.47966903  0.91224994  0.86348237
   0.47966903  0.95123244  0.08775006
   0.34152957  0.37733294  0.18700924
   0.34152957  0.80967730  0.62266706
   0.34152957  0.81299076  0.19032270
   0.68840998  0.44940900  0.18924242
   0.68840998  0.73983441  0.55059100
   0.68840998  0.81075758  0.26016559
   0.86273492  0.42423727  0.98304723
   0.86273492  0.55880996  0.57576273
   0.86273492  0.01695277  0.44119004
   0.91113586  0.57830878  0.11506700
   0.91113586  0.53675722  0.42169122
   0.91113586  0.88493400  0.46324278
   0.80209162  0.52682960  0.31347773
   0.80209162  0.78664813  0.47317040
   0.80209162  0.68652227  0.21335187
   0.47713082  0.40735187  0.00633026
   0.47713082  0.59897939  0.59264813
   0.47713082  0.99366974  0.40102161
   0.42573693  0.43555467  0.87895734
   0.42573693  0.44340167  0.56444533
   0.42573693  0.12104266  0.55659833
   0.69938313  0.26333112  0.81076307
   0.69938313  0.54743095  0.73666888
   0.69938313  0.18923693  0.45256905
   0.55932214  0.20685327  0.67562723
   0.55932214  0.46877396  0.79314673
   0.55932214  0.32437277  0.53122604
   0.95383329  0.38854610  0.22925832
   0.95383329  0.84071222  0.61145390
   0.95383329  0.77074168  0.15928778
   0.04436822  0.42927227  0.20622408
   0.04436822  0.77695281  0.57072773
   0.04436822  0.79377592  0.22304719
   0.10995982  0.49416222  0.26482321
   0.10995982  0.77066099  0.50583778
   0.10995982  0.73517679  0.22933901
   0.06468247  0.40151097  0.12393167
   0.06468247  0.72242069  0.59848903
   0.06468247  0.87606833  0.27757931
   0.14904204  0.43811000  0.10081884
   0.14904204  0.66270885  0.56189000
   0.14904204  0.89918116  0.33729115
   0.19490539  0.53033237  0.24158565
   0.19490539  0.71125328  0.46966763
   0.19490539  0.75841435  0.28874672
   0.21572947  0.50292356  0.15912062
   0.21572947  0.65619706  0.49707644
   0.21572947  0.84087938  0.34380294
   0.30790588  0.53870963  0.13348892
   0.30790588  0.59477929  0.46129037
   0.30790588  0.86651108  0.40522071
   0.41386542  0.56277251  0.17543960
   0.41386542  0.61266709  0.43722749
   0.41386542  0.82456040  0.38733291
   0.29401157  0.54658524  0.06440448
   0.29401157  0.51782024  0.45341476
   0.29401157  0.93559552  0.48217976
   0.38505527  0.57259002  0.03509438
   0.38505527  0.46250436  0.42740998
   0.38505527  0.96490562  0.53749564
   0.50411695  0.59040734  0.14698848
   0.50411695  0.55658114  0.40959266
   0.50411695  0.85301152  0.44341886
   0.49225006  0.59269152  0.07503895
   0.49225006  0.48234744  0.40730848
   0.49225006  0.92496105  0.51765256
   0.59502035  0.61002087  0.03818747
   0.59502035  0.42816661  0.38997913
   0.59502035  0.96181253  0.57183339
   0.77776826  0.81425523  0.01559910
   0.77776826  0.20134287  0.18574377
   0.77776826  0.98440090  0.79865713
   0.67276230  0.71356897  0.92559465
   0.67276230  0.21202668  0.28643103
   0.67276230  0.07440535  0.78797332
   0.65139733  0.77801776  0.91452268
   0.65139733  0.13650492  0.22198224
   0.65139733  0.08547732  0.86349508
   0.72179155  0.92156843  0.98604808
   0.72179155  0.06447865  0.07843157
   0.72179155  0.01395192  0.93552135
   0.72186901  0.98581094  0.06581107
   0.72186901  0.08000113  0.01418906
   0.72186901  0.93418893  0.91999887
   0.84136953  0.51384782  0.87347984
   0.84136953  0.35963302  0.48615218
   0.84136953  0.12652016  0.64036698
   0.99296428  0.53864349  0.95108460
   0.99296428  0.41244111  0.46135651
   0.99296428  0.04891540  0.58755889
   0.01706178  0.46898289  0.87978890
   0.01706278  0.41080601  0.53101711
   0.01706178  0.12021110  0.58919399
   0.91217950  0.39258229  0.74750655
   0.91217950  0.35492426  0.60741771
   0.91217950  0.25249345  0.64507574
   0.91195730  0.31133143  0.72735563
   0.91195730  0.41602421  0.68866857
   0.91195730  0.27264437  0.58397579
   0.88879596  0.10179079  0.32247524
   0.88879596  0.22068445  0.89820921
   0.88879596  0.67752476  0.77931555
   0.98516890  0.12512741  0.28521731
   0.98516890  0.16008990  0.87487259
   0.98516890  0.71478269  0.83991010
   0.04251526  0.19924625  0.33118700
   0.04251526  0.13194075  0.80075375
   0.04251526  0.66881300  0.86805925
   0.01682865  0.07494260  0.20374488
   0.01682865  0.12880228  0.92505740
   0.01682865  0.79625512  0.87119772
   0.10297002  0.09896586  0.16895089
   0.10297002  0.06998503  0.90103414
   0.10297002  0.83104911  0.93001497
   0.12740066  0.22383224  0.29618189
   0.12740066  0.07234966  0.77616776
   0.12740066  0.70381811  0.92765034
   0.15868393  0.17431768  0.21429240
   0.15868393  0.03997471  0.82568232
   0.15868393  0.78570760  0.96002529
   0.24772032  0.20258636  0.17836744
   0.24772032  0.97578108  0.79741364
   0.24772032  0.82163256  0.02421892
   0.25345566  0.28513647  0.20140106
   0.25345566  0.91626459  0.71486353
   0.25345566  0.79859894  0.08373541
   0.32912372  0.14903536  0.12183665
   0.32912372  0.97280229  0.85096464
   0.32912372  0.87816335  0.02719771
   0.41530705  0.17781638  0.09126497
   0.41530705  0.91344859  0.82218362
   0.41530705  0.90873503  0.08655141
   0.33834646  0.31361941  0.17011908
   0.33834646  0.85649968  0.68638059
   0.33834646  0.82988092  0.14350032
   0.42106571  0.26045171  0.11557100
   0.42106671  0.85511929  0.73954829
   0.42106671  0.88442900  0.14488071
   0.51239174  0.29384973  0.08455820
   0.51239174  0.79070946  0.70615027
   0.51239174  0.91544180  0.20929054
   0.74410067  0.46174662  0.15073920
   0.74410067  0.68899259  0.53825338
   0.74410067  0.84926080  0.31100741
   0.83390216  0.45316379  0.04554630
   0.83390216  0.59238250  0.54683621
   0.83390216  0.95445370  0.40761750
   0.85931205  0.52827447  0.10953245
   0.85931205  0.58125799  0.47172553
   0.85931205  0.89046755  0.41874201
   0.80284559  0.60038543  0.25568708
   0.80284559  0.65530165  0.39961457
   0.80284559  0.74431292  0.34469835
   0.80280025  0.58768160  0.32174886
   0.80280025  0.73406727  0.41231840
   0.80280025  0.67825114  0.26593273
   0.51308846  0.38107073  0.94567880
   0.51308846  0.56460808  0.61892927
   0.51308846  0.05432120  0.43539192
   0.48675008  0.39490366  0.88353340
   0.48675008  0.48862874  0.60509634
   0.48675008  0.11646660  0.51137126
   0.62781041  0.30281556  0.84487358
   0.62781041  0.54205802  0.69718444
   0.62781041  0.15512642  0.45794198
   0.56218898  0.33861534  0.74217908
   0.56218898  0.40356375  0.66138466
   0.56218898  0.25782092  0.59643625
   0.56217976  0.26229602  0.67205621
   0.56217976  0.40976019  0.73770398
   0.56217976  0.32794379  0.59023981
   0.75204356  0.73688805  0.98825548
   0.75204356  0.25136744  0.26311195
   0.75204356  0.01174452  0.74863256
   0.71831863  0.84131152  0.97214881
   0.71831863  0.13083729  0.15868848
   0.71831863  0.02785119  0.86916271
   0.88333873  0.56525005  0.94629128
   0.88333873  0.38104123  0.43474995
   0.88333873  0.05370872  0.61895877
   0.92026244  0.45419421  0.83080313
   0.92026244  0.37660892  0.54580579
   0.92026244  0.16919687  0.62339108
   0.76183521  0.41298580  0.07220046
   0.76183521  0.65921366  0.58701420
   0.76183521  0.92779954  0.34078634
   0.80258548  0.53277620  0.17603208
   0.80258548  0.64325688  0.46722380
   0.80258548  0.82396792  0.35674312
   0.60148112  0.32427389  0.92079671
   0.60148112  0.59652282  0.67572611
   0.60148112  0.07920329  0.40347718
   0.55921672  0.34443920  0.81941410
   0.55921572  0.47497590  0.65556180
   0.55921572  0.18058590  0.52502410
   0.67690375  0.65184092  0.08877678
   0.67690375  0.43693486  0.34815908
   0.67690375  0.91122322  0.56306514
   0.59908894  0.58224037  0.96289936
   0.59908894  0.38065899  0.41775963
   0.59908894  0.03710064  0.61934101
   0.94085740  0.41666088  0.30702013
   0.94085740  0.89035925  0.58334012
   0.94085740  0.69297987  0.10964075
   0.89447822  0.33209686  0.17635682
   0.89447822  0.84425996  0.66790314
   0.89447822  0.82364318  0.15574004
   0.51130939  0.36707666  0.10388196
   0.51130939  0.73680430  0.63292334
   0.51130939  0.89611804  0.26319570
   0.59138494  0.24298853  0.03676779
   0.59138494  0.79377925  0.75701147
   0.59138494  0.96323221  0.20622075
   0.82595905  0.04192828  0.27097257
   0.82595905  0.22904428  0.95807172
   0.82595905  0.72902743  0.77095572
   0.87291664  0.14030998  0.39814318
   0.87291664  0.25783321  0.85969002
   0.87291664  0.60185682  0.74216679
unknown system                          
           1
     0.000000    0.000000  -11.518913
    -9.521965  -16.492528    0.000000
    -9.521965   16.492528   -0.000000
   Zn   H    C    N    O 
   6  96 144  24  24
Direct configuration=    43
   0.80906122  0.67015731  0.03433694
   0.80906122  0.36417963  0.32984269
   0.80906122  0.96566306  0.63582037
   0.69300274  0.30301610  0.00069518
   0.69300274  0.69768008  0.69698390
   0.69300274  0.99930482  0.30231992
   0.09475639  0.51562696  0.32887333
   0.09475639  0.81324637  0.48437304
   0.09475639  0.67112667  0.18675363
   0.01363210  0.35048290  0.07913150
   0.01363210  0.72864860  0.64951710
   0.01363310  0.92086850  0.27135140
   0.16662526  0.41449587  0.03661728
   0.16662526  0.62212041  0.58550413
   0.16662526  0.96338272  0.37787959
   0.24552064  0.58060921  0.28804864
   0.24552064  0.70743943  0.41939079
   0.24552064  0.71195136  0.29256057
   0.42736318  0.55556387  0.22815354
   0.42736318  0.67258968  0.44443613
   0.42736318  0.77184646  0.32741032
   0.21046268  0.53124339  0.03335505
   0.21046268  0.50211066  0.46875661
   0.21046268  0.96664495  0.49788934
   0.37515892  0.57737477  0.98073575
   0.37515892  0.40336098  0.42262523
   0.37515892  0.01926425  0.59664002
   0.58686962  0.60807812  0.17879626
   0.58686962  0.57071814  0.39192188
   0.58686962  0.82120374  0.42928186
   0.83607904  0.85027323  0.06571260
   0.83607904  0.21543937  0.14972677
   0.83607904  0.93428740  0.78456063
   0.63421351  0.65374614  0.89683440
   0.63421351  0.24308826  0.34625386
   0.63421351  0.10316560  0.75691174
   0.59705030  0.78542774  0.87220219
   0.59705030  0.08677445  0.21457226
   0.59705030  0.12779781  0.91322555
   0.71761173  0.97515120  0.11688433
   0.71761173  0.14173313  0.02484880
   0.71761173  0.88311567  0.85826687
   0.75574185  0.51676127  0.85149538
   0.75574185  0.33473411  0.48323873
   0.75574185  0.14850462  0.66526589
   0.04509361  0.57264492  0.00517948
   0.04509361  0.43253456  0.42735508
   0.04509361  0.99482052  0.56746544
   0.09212849  0.42935563  0.85872056
   0.09212849  0.42936493  0.57064437
   0.09212849  0.14127944  0.57063507
   0.91354762  0.29394491  0.77434920
   0.91354762  0.48040429  0.70605509
   0.91354762  0.22565080  0.51959571
   0.01843532  0.23748742  0.39453838
   0.01843532  0.15705195  0.76251258
   0.01843532  0.60546162  0.84294805
   0.97199087  0.01708248  0.16818043
   0.97199087  0.15109695  0.98291752
   0.97199087  0.83182057  0.84890305
   0.12582269  0.05951833  0.10521724
   0.12582269  0.04569890  0.94048167
   0.12582269  0.89478276  0.95430110
   0.17138769  0.28173087  0.33238938
   0.17138769  0.05065851  0.71826913
   0.17138769  0.66761062  0.94934149
   0.18859792  0.32702401  0.24295366
   0.18859792  0.91593065  0.67297599
   0.18859792  0.75704634  0.08406935
   0.32644239  0.08485243  0.10369630
   0.32644239  0.01884387  0.91514757
   0.32644239  0.89630370  0.98115613
   0.47966279  0.13650601  0.04873624
   0.47966279  0.91223023  0.86349399
   0.47966279  0.95126376  0.08776977
   0.34147513  0.37729910  0.18696419
   0.34147513  0.80966609  0.62270090
   0.34147513  0.81303581  0.19033391
   0.68840191  0.44942648  0.18926099
   0.68840191  0.73983551  0.55057352
   0.68840191  0.81073901  0.26016449
   0.86270013  0.42424719  0.98305088
   0.86270013  0.55880369  0.57575281
   0.86270013  0.01694912  0.44119631
   0.91115401  0.57829904  0.11506020
   0.91115401  0.53676016  0.42170096
   0.91115401  0.88494080  0.46323984
   0.80210714  0.52682527  0.31346822
   0.80210714  0.78664294  0.47317473
   0.80210714  0.68653178  0.21335706
   0.47715048  0.40737337  0.00632032
   0.47715048  0.59894795  0.59262663
   0.47715048  0.99367968  0.40105305
   0.42578735  0.43559395  0.87895728
   0.42578735  0.44336233  0.56440605
   0.42578735  0.12104272  0.55663767
   0.69939878  0.26331680  0.81075987
   0.69939878  0.54744207  0.73668320
   0.69939878  0.18924013  0.45255793
   0.55935095  0.20686455  0.67564072
   0.55935095  0.46877617  0.79313545
   0.55935095  0.32435928  0.53122383
   0.95382024  0.38857906  0.22930452
   0.95382024  0.84072546  0.61142094
   0.95382024  0.77069548  0.15927454
   0.04442063  0.42931224  0.20625365
   0.04442063  0.77694241  0.57068776
   0.04442063  0.79374635  0.22305759
   0.11002004  0.49419802  0.26486253
   0.11002004  0.77066451  0.50580198
   0.11002004  0.73513747  0.22933549
   0.06469679  0.40154792  0.12395016
   0.06469679  0.72240223  0.59845208
   0.06469679  0.87604984  0.27759777
   0.14904103  0.43812966  0.10084004
   0.14904103  0.66271038  0.56187034
   0.14904103  0.89915996  0.33728962
   0.19495847  0.53034897  0.24161574
   0.19495847  0.71126677  0.46965103
   0.19495847  0.75838426  0.28873323
   0.21575602  0.50293767  0.15915539
   0.21575602  0.65621771  0.49706233
   0.21575602  0.84084461  0.34378229
   0.30793113  0.53872646  0.13352229
   0.30793113  0.59479582  0.46127354
   0.30793113  0.86647771  0.40520418
   0.41389608  0.56279273  0.17546366
   0.41389608  0.61267093  0.43720727
   0.41389608  0.82453634  0.38732907
   0.29401788  0.54659706  0.06441591
   0.29401788  0.51781985  0.45340294
   0.29401788  0.93558409  0.48218015
   0.38505730  0.57259277  0.03512389
   0.38505730  0.46253112  0.42740723
   0.38505730  0.96487611  0.53746888
   0.50413807  0.59042320  0.14702295
   0.50413807  0.55659975  0.40957680
   0.50413807  0.85297705  0.44340025
   0.49226386  0.59271214  0.07506546
   0.49226386  0.48235333  0.40728786
   0.49226386  0.92493454  0.51764667
   0.59504237  0.61004727  0.03821960
   0.59504237  0.42817233  0.38995273
   0.59504237  0.96178040  0.57182767
   0.77780371  0.81426961  0.01562793
   0.77780371  0.20135732  0.18572939
   0.77780371  0.98437207  0.79864268
   0.67281315  0.71357225  0.92559127
   0.67281315  0.21202003  0.28642775
   0.67281315  0.07440873  0.78797997
   0.65146627  0.77801870  0.91452544
   0.65146627  0.13650675  0.22198130
   0.65146627  0.08547456  0.86349325
   0.72185008  0.92156890  0.98605695
   0.72185008  0.06448705  0.07843110
   0.72185008  0.01394305  0.93551295
   0.72192658  0.98582372  0.06581715
   0.72192658  0.07999442  0.01417628
   0.72192658  0.93418285  0.92000558
   0.84130629  0.51384093  0.87350940
   0.84130629  0.35966947  0.48615907
   0.84130629  0.12649060  0.64033053
   0.99300588  0.53868323  0.95103847
   0.99300588  0.41235524  0.46131677
   0.99300588  0.04896153  0.58764476
   0.01710396  0.46902421  0.87972959
   0.01710496  0.41070537  0.53097579
   0.01710396  0.12027041  0.58929463
   0.91213033  0.39259756  0.74750877
   0.91213033  0.35491122  0.60740244
   0.91213033  0.25249123  0.64508878
   0.91189570  0.31134800  0.72737345
   0.91189570  0.41602545  0.68865200
   0.91189570  0.27262655  0.58397455
   0.88876596  0.10174881  0.32242868
   0.88876596  0.22067987  0.89825119
   0.88876596  0.67757132  0.77932013
   0.98511603  0.12508381  0.28515302
   0.98511603  0.16006921  0.87491619
   0.98511603  0.71484698  0.83993079
   0.04243562  0.19921929  0.33110886
   0.04243562  0.13188957  0.80078071
   0.04243562  0.66889114  0.86811043
   0.01680474  0.07487828  0.20367494
   0.01680474  0.12879666  0.92512172
   0.01680474  0.79632506  0.87120334
   0.10292447  0.09892432  0.16887759
   0.10292447  0.06995327  0.90107568
   0.10292447  0.83112241  0.93004673
   0.12731836  0.22380093  0.29611118
   0.12731836  0.07231025  0.77619907
   0.12731836  0.70388882  0.92768975
   0.15864053  0.17429936  0.21422342
   0.15864053  0.03992406  0.82570064
   0.15864053  0.78577658  0.96007594
   0.24765071  0.20255740  0.17830531
   0.24765071  0.97574791  0.79744260
   0.24765071  0.82169469  0.02425209
   0.25338099  0.28511154  0.20135140
   0.25338099  0.91623987  0.71488846
   0.25338099  0.79864860  0.08376013
   0.32907154  0.14900969  0.12178309
   0.32907154  0.97277439  0.85099031
   0.32907154  0.87821691  0.02722561
   0.41524790  0.17777694  0.09122773
   0.41524790  0.91345079  0.82222306
   0.41524790  0.90877227  0.08654921
   0.33827127  0.31359657  0.17008602
   0.33827127  0.85648944  0.68640343
   0.33827127  0.82991398  0.14351056
   0.42103095  0.26042825  0.11553013
   0.42103195  0.85510188  0.73957175
   0.42103195  0.88446987  0.14489812
   0.51238944  0.29384111  0.08453673
   0.51238944  0.79069661  0.70615889
   0.51238944  0.91546327  0.20930339
   0.74408710  0.46176452  0.15075644
   0.74408710  0.68899192  0.53823548
   0.74408710  0.84924356  0.31100808
   0.83388851  0.45317696  0.04555098
   0.83388851  0.59237402  0.54682304
   0.83388851  0.95444902  0.40762598
   0.85930702  0.52827199  0.10952025
   0.85930702  0.58124827  0.47172801
   0.85930702  0.89047975  0.41875173
   0.80286332  0.60038762  0.25568434
   0.80286332  0.65529672  0.39961238
   0.80286332  0.74431566  0.34470328
   0.80281834  0.58767975  0.32174578
   0.80281834  0.73406603  0.41232025
   0.80281834  0.67825422  0.26593397
   0.51310772  0.38109292  0.94567889
   0.51310772  0.56458597  0.61890708
   0.51310772  0.05432111  0.43541403
   0.48679285  0.39492918  0.88354276
   0.48679285  0.48861259  0.60507082
   0.48679285  0.11645724  0.51138741
   0.62784092  0.30281826  0.84487676
   0.62784092  0.54205850  0.69718174
   0.62784092  0.15512324  0.45794150
   0.56222044  0.33862422  0.74218301
   0.56222044  0.40355879  0.66137578
   0.56222044  0.25781699  0.59644121
   0.56221908  0.26229047  0.67205610
   0.56221908  0.40976562  0.73770953
   0.56221908  0.32794390  0.59023438
   0.75205674  0.73690626  0.98826878
   0.75205674  0.25136252  0.26309374
   0.75205674  0.01173122  0.74863748
   0.71835946  0.84131279  0.97216046
   0.71835946  0.13084767  0.15868721
   0.71835946  0.02783954  0.86915233
   0.88333364  0.56525545  0.94628822
   0.88333364  0.38103276  0.43474455
   0.88333364  0.05371178  0.61896724
   0.92021749  0.45422005  0.83079055
   0.92021749  0.37657050  0.54577995
   0.92021749  0.16920945  0.62342950
   0.76182618  0.41301647  0.07220180
   0.76182618  0.65918432  0.58698353
   0.76182618  0.92779820  0.34081568
   0.80259138  0.53277051  0.17601967
   0.80259138  0.64325015  0.46722949
   0.80259138  0.82398033  0.35674985
   0.60147629  0.32428015  0.92078770
   0.60147629  0.59650754  0.67571985
   0.60147629  0.07921230  0.40349246
   0.55924281  0.34444807  0.81942127
   0.55924181  0.47497420  0.65555293
   0.55924181  0.18057873  0.52502580
   0.67693078  0.65185751  0.08880041
   0.67693078  0.43694190  0.34814249
   0.67693078  0.91119959  0.56305810
   0.59908881  0.58226220  0.96292612
   0.59908881  0.38066393  0.41773780
   0.59908881  0.03707388  0.61933607
   0.94091710  0.41668194  0.30707369
   0.94091710  0.89039174  0.58331906
   0.94091710  0.69292631  0.10960826
   0.89440667  0.33216685  0.17638973
   0.89440667  0.84422288  0.66783315
   0.89440667  0.82361027  0.15577712
   0.51128229  0.36707709  0.10387379
   0.51128229  0.73679570  0.63292291
   0.51128229  0.89612621  0.26320430
   0.59136518  0.24297668  0.03675836
   0.59136518  0.79378168  0.75702332
   0.59136518  0.96324164  0.20621832
   0.82593826  0.04187622  0.27093816
   0.82593826  0.22906194  0.95812378
   0.82593826  0.72906184  0.77093806
   0.87288380  0.14026996  0.39808500
   0.87288380  0.25781504  0.85973004
   0.87288380  0.60191500  0.74218496
unknown system                          
           1
     0.000000    0.000000  -11.518113
    -9.521200  -16.491201    0.000000
    -9.521200   16.491201   -0.000000
   Zn   H    C    N    O 
   6  96 144  24  24
Direct configuration=    44
   0.80905426  0.67014985  0.03429025
   0.80905426  0.36414041  0.32985015
   0.80905426  0.96570975  0.63585959
   0.69302784  0.30298567  0.00065998
   0.69302784  0.69767531  0.69701433
   0.69302784  0.99934002  0.30232469
   0.09460081  0.51562845  0.32883921
   0.09460081  0.81321076  0.48437155
   0.09460081  0.67116079  0.18678924
   0.01371386  0.35039095  0.07905809
   0.01371386  0.72866714  0.64960905
   0.01371486  0.92094191  0.27133286
   0.16662179  0.41444946  0.03653008
   0.16662179  0.62207962  0.58555054
   0.16662179  0.96346992  0.37792038
   0.24542049  0.58057945  0.28800414
   0.24542049  0.70742470  0.41942055
   0.24542049  0.71199586  0.29257530
   0.42731702  0.55556073  0.22814827
   0.42731702  0.67258755  0.44443927
   0.42731702  0.77185173  0.32741245
   0.21044166  0.53122101  0.03327368
   0.21044166  0.50205167  0.46877899
   0.21044166  0.96672632  0.49794833
   0.37511684  0.57738028  0.98066006
   0.37511684  0.40327978  0.42261972
   0.37511684  0.01933994  0.59672122
   0.58687247  0.60800912  0.17875031
   0.58687247  0.57074119  0.39199088
   0.58687247  0.82124969  0.42925881
   0.83603851  0.85022640  0.06561301
   0.83603851  0.21538660  0.14977360
   0.83603851  0.93438699  0.78461340
   0.63409276  0.65373599  0.89684196
   0.63409276  0.24310598  0.34626401
   0.63409276  0.10315804  0.75689402
   0.59687088  0.78542152  0.87222038
   0.59687088  0.08679885  0.21457848
   0.59687088  0.12777962  0.91320115
   0.71749578  0.97510921  0.11686889
   0.71749578  0.14175969  0.02489079
   0.71749578  0.88313111  0.85824031
   0.75597700  0.51684282  0.85140916
   0.75597700  0.33456633  0.48315718
   0.75597700  0.14859084  0.66543367
   0.04494911  0.57251530  0.00530650
   0.04494911  0.43279120  0.42748470
   0.04494911  0.99469350  0.56720880
   0.09193731  0.42922100  0.85890060
   0.09193731  0.42967960  0.57077900
   0.09193731  0.14109940  0.57032040
   0.91361712  0.29391738  0.77429493
   0.91361712  0.48037755  0.70608262
   0.91361712  0.22570507  0.51962245
   0.01862615  0.23754173  0.39470118
   0.01862615  0.15716045  0.76245827
   0.01862615  0.60529882  0.84283955
   0.97202046  0.01722169  0.16828976
   0.97202046  0.15106707  0.98277831
   0.97202046  0.83171124  0.84893293
   0.12590201  0.05962533  0.10533847
   0.12590201  0.04571314  0.94037467
   0.12590201  0.89466153  0.95428686
   0.17155664  0.28176954  0.33253626
   0.17155664  0.05076672  0.71823046
   0.17155664  0.66746374  0.94923328
   0.18872030  0.32709087  0.24305295
   0.18872030  0.91596308  0.67290913
   0.18872030  0.75694705  0.08403692
   0.32653183  0.08488550  0.10381895
   0.32653183  0.01893344  0.91511450
   0.32653183  0.89618105  0.98106656
   0.47970041  0.13651917  0.04878570
   0.47970041  0.91226654  0.86348083
   0.47970041  0.95121430  0.08773346
   0.34160172  0.37737365  0.18706622
   0.34160172  0.80969357  0.62262635
   0.34160172  0.81293378  0.19030643
   0.68843385  0.44938264  0.18920842
   0.68843385  0.73982677  0.55061736
   0.68843385  0.81079158  0.26017323
   0.86276426  0.42422872  0.98304442
   0.86276426  0.55881570  0.57577128
   0.86276426  0.01695558  0.44118430
   0.91112250  0.57832198  0.11507580
   0.91112250  0.53675282  0.42167802
   0.91112250  0.88492520  0.46324718
   0.80208414  0.52683311  0.31348121
   0.80208414  0.78664810  0.47316689
   0.80208414  0.68651879  0.21335190
   0.47711861  0.40732590  0.00632533
   0.47711861  0.59900043  0.59267410
   0.47711861  0.99367467  0.40100057
   0.42569245  0.43551080  0.87895127
   0.42569245  0.44343947  0.56448920
   0.42569245  0.12104873  0.55656053
   0.69935074  0.26335985  0.81078218
   0.69935074  0.54742134  0.73664015
   0.69935074  0.18921782  0.45257866
   0.55930679  0.20684873  0.67561448
   0.55930679  0.46876576  0.79315127
   0.55930679  0.32438552  0.53123424
   0.95382167  0.38851846  0.22923027
   0.95382167  0.84071181  0.61148154
   0.95382167  0.77076973  0.15928819
   0.04435971  0.42924469  0.20615435
   0.04435971  0.77691066  0.57075531
   0.04435971  0.79384565  0.22308934
   0.10995538  0.49414356  0.26481378
   0.10995538  0.77067022  0.50585644
   0.10995538  0.73518622  0.22932978
   0.06466704  0.40145451  0.12388231
   0.06466704  0.72242779  0.59854549
   0.06466704  0.87611769  0.27757221
   0.14899867  0.43804704  0.10078477
   0.14899867  0.66273773  0.56195296
   0.14899867  0.89921523  0.33726227
   0.19484813  0.53033323  0.24159551
   0.19484813  0.71126228  0.46966677
   0.19484813  0.75840449  0.28873772
   0.21568944  0.50292186  0.15910344
   0.21568944  0.65618159  0.49707814
   0.21568944  0.84089656  0.34381841
   0.30792058  0.53870082  0.13346051
   0.30792058  0.59475970  0.46129918
   0.30792058  0.86653949  0.40524030
   0.41388921  0.56277423  0.17541499
   0.41388921  0.61264076  0.43722577
   0.41388921  0.82458501  0.38735924
   0.29399554  0.54657734  0.06433727
   0.29399554  0.51776093  0.45342266
   0.29399554  0.93566273  0.48223907
   0.38501015  0.57257607  0.03506766
   0.38501015  0.46249158  0.42742393
   0.38501015  0.96493234  0.53750842
   0.50409208  0.59040147  0.14701669
   0.50409208  0.55661522  0.40959853
   0.50409208  0.85298331  0.44338478
   0.49218746  0.59266932  0.07500462
   0.49218746  0.48233529  0.40733068
   0.49218746  0.92499538  0.51766471
   0.59500885  0.61000628  0.03817279
   0.59500885  0.42816651  0.38999372
   0.59500885  0.96182721  0.57183349
   0.77772818  0.81424503  0.01557991
   0.77772818  0.20133388  0.18575397
   0.77772818  0.98442009  0.79866612
   0.67269807  0.71355459  0.92559495
   0.67269807  0.21204136  0.28644541
   0.67269807  0.07440505  0.78795864
   0.65135108  0.77801517  0.91453987
   0.65135108  0.13652470  0.22198483
   0.65135108  0.08546013  0.86347530
   0.72173479  0.92156130  0.98604590
   0.72173479  0.06448361  0.07843870
   0.72173479  0.01395410  0.93551639
   0.72180384  0.98581169  0.06581254
   0.72180384  0.08000184  0.01418831
   0.72180384  0.93418746  0.91999816
   0.84145756  0.51385996  0.87344556
   0.84145756  0.35958660  0.48614004
   0.84145756  0.12655444  0.64041340
   0.99291391  0.53862669  0.95114984
   0.99291391  0.41252315  0.46137331
   0.99291391  0.04885016  0.58747685
   0.01707318  0.46893647  0.87983601
   0.01707418  0.41089955  0.53106353
   0.01707318  0.12016399  0.58910045
   0.91223365  0.39257148  0.74751792
   0.91223365  0.35494644  0.60742852
   0.91223365  0.25248208  0.64505356
   0.91202481  0.31129708  0.72732391
   0.91202481  0.41602684  0.68870292
   0.91202481  0.27267609  0.58397316
   0.88881988  0.10183442  0.32253255
   0.88881988  0.22069814  0.89816558
   0.88881988  0.67746745  0.77930186
   0.98523148  0.12518402  0.28528060
   0.98523148  0.16009658  0.87481598
   0.98523148  0.71471940  0.83990342
   0.04262679  0.19926983  0.33125156
   0.04262679  0.13198172  0.80073017
   0.04262679  0.66874844  0.86801828
   0.01677691  0.07498000  0.20380768
   0.01677691  0.12882768  0.92502000
   0.01677691  0.79619232  0.87117232
   0.10301638  0.09898726  0.16902117
   0.10301638  0.07003390  0.90101274
   0.10301638  0.83097883  0.92996610
   0.12741139  0.22383907  0.29624621
   0.12741139  0.07240715  0.77616093
   0.12741139  0.70375379  0.92759285
   0.15877238  0.17436924  0.21434914
   0.15877238  0.03997990  0.82563076
   0.15877238  0.78565086  0.96002010
   0.24778988  0.20259615  0.17841279
   0.24778988  0.97581664  0.79740385
   0.24778988  0.82158721  0.02418336
   0.25350819  0.28517825  0.20146554
   0.25350819  0.91628729  0.71482175
   0.25350819  0.79853446  0.08371271
   0.32921112  0.14908126  0.12187750
   0.32921112  0.97279724  0.85091874
   0.32921112  0.87812250  0.02720276
   0.41531482  0.17783793  0.09132330
   0.41531482  0.91348537  0.82216207
   0.41531482  0.90867670  0.08651463
   0.33836841  0.31365060  0.17018396
   0.33836841  0.85653336  0.68634940
   0.33836841  0.82981604  0.14346664
   0.42113822  0.26047306  0.11557847
   0.42113922  0.85510541  0.73952694
   0.42113922  0.88442153  0.14489459
   0.51240511  0.29383070  0.08455302
   0.51240511  0.79072331  0.70616930
   0.51240511  0.91544698  0.20927669
   0.74411484  0.46175953  0.15076577
   0.74411484  0.68900624  0.53824047
   0.74411484  0.84923423  0.31099376
   0.83388199  0.45314915  0.04556606
   0.83388199  0.59241691  0.54685085
   0.83388199  0.95443394  0.40758309
   0.85930251  0.52824474  0.10953366
   0.85930251  0.58128892  0.47175526
   0.85930251  0.89046634  0.41871108
   0.80281055  0.60037457  0.25568689
   0.80281055  0.65531232  0.39962543
   0.80281055  0.74431311  0.34468768
   0.80278110  0.58769227  0.32176245
   0.80278110  0.73407018  0.41230773
   0.80278110  0.67823755  0.26592982
   0.51305285  0.38105902  0.94567085
   0.51305285  0.56461184  0.61894098
   0.51305285  0.05432915  0.43538816
   0.48672130  0.39485833  0.88353013
   0.48672130  0.48867080  0.60514167
   0.48672130  0.11646987  0.51132920
   0.62775944  0.30280890  0.84486973
   0.62775944  0.54206083  0.69719110
   0.62775944  0.15513027  0.45793917
   0.56217033  0.33859056  0.74217066
   0.56217033  0.40358010  0.66140944
   0.56217033  0.25782934  0.59641990
   0.56213049  0.26229526  0.67206528
   0.56213049  0.40977002  0.73770474
   0.56213049  0.32793472  0.59022998
   0.75200825  0.73687148  0.98822710
   0.75200825  0.25135562  0.26312852
   0.75200825  0.01177290  0.74864438
   0.71826666  0.84129274  0.97211890
   0.71826666  0.13082615  0.15870726
   0.71826666  0.02788110  0.86917385
   0.88330931  0.56523826  0.94626970
   0.88330931  0.38103144  0.43476174
   0.88330931  0.05373030  0.61896856
   0.92028040  0.45415377  0.83079537
   0.92028040  0.37664160  0.54584623
   0.92028040  0.16920463  0.62335840
   0.76187221  0.41296300  0.07217136
   0.76187221  0.65920736  0.58703700
   0.76187221  0.92782864  0.34079264
   0.80258580  0.53276259  0.17600231
   0.80258580  0.64324073  0.46723741
   0.80258580  0.82399769  0.35675927
   0.60150766  0.32425827  0.92080020
   0.60150766  0.59654193  0.67574173
   0.60150766  0.07919980  0.40345807
   0.55918902  0.34444738  0.81941653
   0.55918802  0.47497015  0.65555362
   0.55918802  0.18058347  0.52502985
   0.67687848  0.65181874  0.08877417
   0.67687848  0.43695443  0.34818126
   0.67687848  0.91122583  0.56304557
   0.59907937  0.58221399  0.96283786
   0.59907937  0.38062387  0.41778601
   0.59907937  0.03716214  0.61937613
   0.94082173  0.41666665  0.30701097
   0.94082173  0.89034432  0.58333435
   0.94082173  0.69298903  0.10965568
   0.89451474  0.33199425  0.17628607
   0.89451474  0.84429183  0.66800575
   0.89451474  0.82371393  0.15570817
   0.51132192  0.36710639  0.10390745
   0.51132192  0.73680005  0.63289361
   0.51132192  0.89609255  0.26319995
   0.59138939  0.24299550  0.03678247
   0.59138939  0.79378696  0.75700450
   0.59138939  0.96321753  0.20621304
   0.82598658  0.04195454  0.27097728
   0.82598658  0.22902274  0.95804546
   0.82598658  0.72902272  0.77097726
   0.87296776  0.14035993  0.39820234
   0.87296776  0.25784241  0.85964007
   0.87296776  0.60179766  0.74215759
unknown system                          
           1
     0.000000    0.000000  -11.517358
    -9.520478  -16.489951    0.000000
    -9.520478   16.489951   -0.000000
   Zn   H    C    N    O 
   6  96 144  24  24
Direct configuration=    45
   0.80904769  0.67014281  0.03424623
   0.80904769  0.36410343  0.32985719
   0.80904769  0.96575377  0.63589657
   0.69305151  0.30295698  0.00062679
   0.69305151  0.69767081  0.69704302
   0.69305151  0.99937321  0.30232919
   0.09445412  0.51562985  0.32880703
   0.09445412  0.81317718  0.48437015
   0.09445412  0.67119297  0.18682282
   0.01379095  0.35030426  0.07898887
   0.01379095  0.72868461  0.64969574
   0.01379195  0.92101113  0.27131539
   0.16661851  0.41440570  0.03644786
   0.16661851  0.62204116  0.58559430
   0.16661851  0.96355214  0.37795884
   0.24532607  0.58055138  0.28796219
   0.24532607  0.70741081  0.41944862
   0.24532607  0.71203781  0.29258919
   0.42727350  0.55555777  0.22814331
   0.42727350  0.67258553  0.44444223
   0.42727350  0.77185669  0.32741447
   0.21042184  0.53119991  0.03319697
   0.21042184  0.50199606  0.46880009
   0.21042184  0.96680303  0.49800394
   0.37507717  0.57738548  0.98058870
   0.37507717  0.40320321  0.42261452
   0.37507717  0.01941130  0.59679779
   0.58687516  0.60794407  0.17870699
   0.58687516  0.57076292  0.39205593
   0.58687516  0.82129301  0.42923708
   0.83600031  0.85018225  0.06551910
   0.83600031  0.21533685  0.14981775
   0.83600031  0.93448090  0.78466315
   0.63397892  0.65372642  0.89684909
   0.63397892  0.24312267  0.34627358
   0.63397892  0.10315091  0.75687733
   0.59670171  0.78541567  0.87223752
   0.59670171  0.08682185  0.21458433
   0.59670171  0.12776248  0.91317815
   0.71738646  0.97506961  0.11685434
   0.71738646  0.14178473  0.02493039
   0.71738646  0.88314566  0.85821527
   0.75619871  0.51691971  0.85132786
   0.75619871  0.33440815  0.48308029
   0.75619871  0.14867214  0.66559185
   0.04481287  0.57239309  0.00542626
   0.04481287  0.43303317  0.42760691
   0.04481287  0.99457374  0.56696683
   0.09175705  0.42909407  0.85907035
   0.09175705  0.42997628  0.57090593
   0.09175705  0.14092965  0.57002372
   0.91368265  0.29389143  0.77424376
   0.91368265  0.48035233  0.70610857
   0.91368265  0.22575624  0.51964767
   0.01880608  0.23759293  0.39485469
   0.01880608  0.15726275  0.76240707
   0.01880608  0.60514531  0.84273725
   0.97204836  0.01735294  0.16839285
   0.97204836  0.15103891  0.98264706
   0.97204836  0.83160815  0.84896109
   0.12597679  0.05972621  0.10545277
   0.12597679  0.04572656  0.94027379
   0.12597679  0.89454723  0.95427344
   0.17171594  0.28180601  0.33267475
   0.17171594  0.05086874  0.71819399
   0.17171594  0.66732525  0.94913126
   0.18883569  0.32715392  0.24314657
   0.18883569  0.91599366  0.67284608
   0.18883569  0.75685343  0.08400634
   0.32661617  0.08491669  0.10393458
   0.32661617  0.01901789  0.91508331
   0.32661617  0.89606542  0.98098211
   0.47973588  0.13653157  0.04883234
   0.47973588  0.91230077  0.86346843
   0.47973588  0.95116766  0.08769923
   0.34172108  0.37744394  0.18716243
   0.34172108  0.80971949  0.62255606
   0.34172108  0.81283757  0.19028051
   0.68846397  0.44934132  0.18915885
   0.68846397  0.73981853  0.55065868
   0.68846397  0.81084115  0.26018147
   0.86282473  0.42421131  0.98303833
   0.86282473  0.55882702  0.57578869
   0.86282473  0.01696167  0.44117298
   0.91109280  0.57834361  0.11509051
   0.91109280  0.53674590  0.42165639
   0.91109280  0.88491049  0.46325410
   0.80206246  0.52684050  0.31349346
   0.80206246  0.78665296  0.47315950
   0.80206246  0.68650654  0.21334704
   0.47708856  0.40728114  0.00633005
   0.47708856  0.59904991  0.59271886
   0.47708856  0.99366995  0.40095109
   0.42560298  0.43543239  0.87894560
   0.42560298  0.44351220  0.56456761
   0.42560298  0.12105440  0.55648780
   0.69930545  0.26340043  0.81080322
   0.69930545  0.54740178  0.73659957
   0.69930545  0.18919678  0.45259822
   0.55926515  0.20683381  0.67558975
   0.55926515  0.46875594  0.79316619
   0.55926515  0.32441025  0.53124406
   0.95382301  0.38846133  0.22916027
   0.95382301  0.84069893  0.61153867
   0.95382301  0.77083973  0.15930107
   0.04430227  0.42918101  0.20606073
   0.04430227  0.77688071  0.57081899
   0.04430227  0.79393927  0.22311929
   0.10989441  0.49409220  0.26476781
   0.10989441  0.77067561  0.50590780
   0.10989441  0.73523219  0.22932439
   0.06463899  0.40136644  0.12381833
   0.06463899  0.72245190  0.59863356
   0.06463899  0.87618167  0.27754810
   0.14895872  0.43796915  0.10073265
   0.14895872  0.66276351  0.56203085
   0.14895872  0.89926735  0.33723649
   0.19474411  0.53031838  0.24157643
   0.19474411  0.71125805  0.46968162
   0.19474411  0.75842357  0.28874195
   0.21562667  0.50290694  0.15905447
   0.21562667  0.65614753  0.49709306
   0.21562667  0.84094553  0.34385247
   0.30791064  0.53867664  0.13340227
   0.30791064  0.59472564  0.46132336
   0.30791064  0.86659773  0.40527436
   0.41388273  0.56275678  0.17536909
   0.41388273  0.61261231  0.43724322
   0.41388273  0.82463091  0.38738769
   0.29397447  0.54655875  0.06426312
   0.29397447  0.51770537  0.45344125
   0.29397447  0.93573688  0.48229463
   0.38496570  0.57256033  0.03501463
   0.38496570  0.46245430  0.42743967
   0.38496570  0.96498537  0.53754570
   0.50404872  0.59038098  0.14701079
   0.50404872  0.55662981  0.40961902
   0.50404872  0.85298921  0.44337019
   0.49211542  0.59262896  0.07494725
   0.49211542  0.48231829  0.40737104
   0.49211542  0.92505275  0.51768171
   0.59497725  0.60996764  0.03812867
   0.59497725  0.42816102  0.39003236
   0.59497725  0.96187133  0.57183898
   0.77765696  0.81422186  0.01553464
   0.77765696  0.20131178  0.18577714
   0.77765696  0.98446536  0.79868822
   0.67258957  0.71353794  0.92559842
   0.67258957  0.21206148  0.28646206
   0.67258957  0.07440158  0.78793852
   0.65124249  0.77801183  0.91455347
   0.65124249  0.13654163  0.22198817
   0.65124249  0.08544653  0.86345837
   0.72162610  0.92155413  0.98603549
   0.72162610  0.06448036  0.07844587
   0.72162610  0.01396451  0.93551964
   0.72168812  0.98580035  0.06580820
   0.72168812  0.08000884  0.01419965
   0.72168812  0.93419180  0.91999116
   0.84160017  0.51387790  0.87338536
   0.84160017  0.35950846  0.48612210
   0.84160017  0.12661464  0.64049154
   0.99282719  0.53857337  0.95125484
   0.99282719  0.41268147  0.46142663
   0.99282719  0.04874516  0.58731853
   0.01704416  0.46885373  0.87993635
   0.01704516  0.41108262  0.53114627
   0.01704416  0.12006365  0.58891738
   0.91233105  0.39254689  0.74752654
   0.91233105  0.35497965  0.60745311
   0.91233105  0.25247346  0.64502035
   0.91214654  0.31124907  0.72727721
   0.91214654  0.41602814  0.68875093
   0.91214654  0.27272279  0.58397186
   0.88887072  0.10191512  0.32263049
   0.88887072  0.22071536  0.89808488
   0.88887072  0.67736951  0.77928464
   0.98534033  0.12527851  0.28540089
   0.98534033  0.16012238  0.87472149
   0.98534033  0.71459911  0.83987762
   0.04280702  0.19931748  0.33138609
   0.04280702  0.13206861  0.80068252
   0.04280702  0.66861391  0.86793139
   0.01675067  0.07507591  0.20393283
   0.01675067  0.12885693  0.92492409
   0.01675067  0.79606717  0.87114307
   0.10310303  0.09904661  0.16915654
   0.10310303  0.07010993  0.90095339
   0.10310303  0.83084346  0.92989007
   0.12749910  0.22387503  0.29637353
   0.12749910  0.07249851  0.77612497
   0.12749910  0.70362647  0.92750149
   0.15889669  0.17443512  0.21446767
   0.15889669  0.04003255  0.82556488
   0.15889669  0.78553233  0.95996745
   0.24792110  0.20263269  0.17851414
   0.24792110  0.97588145  0.79736731
   0.24792110  0.82148586  0.02411855
   0.25362811  0.28524114  0.20157315
   0.25362811  0.91633201  0.71475886
   0.25362811  0.79842685  0.08366799
   0.32934272  0.14914875  0.12196652
   0.32934272  0.97281878  0.85085125
   0.32934272  0.87803348  0.02718122
   0.41537792  0.17789543  0.09141341
   0.41537792  0.91351798  0.82210457
   0.41537792  0.90858659  0.08648202
   0.33845999  0.31370154  0.17027631
   0.33845999  0.85657477  0.68629846
   0.33845999  0.82972369  0.14342523
   0.42123935  0.26051531  0.11562405
   0.42124035  0.85510875  0.73948469
   0.42124035  0.88437595  0.14489125
   0.51241990  0.29382089  0.08456838
   0.51241990  0.79074849  0.70617911
   0.51241990  0.91543162  0.20925151
   0.74414099  0.46175482  0.15077457
   0.74414099  0.68901975  0.53824518
   0.74414099  0.84922543  0.31098025
   0.83387584  0.45312293  0.04558027
   0.83387584  0.59245734  0.54687707
   0.83387584  0.95441973  0.40754266
   0.85929826  0.52821904  0.10954629
   0.85929826  0.58132725  0.47178096
   0.85929826  0.89045371  0.41867275
   0.80276080  0.60036227  0.25568929
   0.80276080  0.65532702  0.39963773
   0.80276080  0.74431071  0.34467298
   0.80274599  0.58770407  0.32177816
   0.80274599  0.73407409  0.41229593
   0.80274599  0.67822184  0.26592591
   0.51300111  0.38102706  0.94566328
   0.51300111  0.56463622  0.61897294
   0.51300111  0.05433672  0.43536378
   0.48665384  0.39479154  0.88351822
   0.48665384  0.48872568  0.60520846
   0.48665384  0.11648178  0.51127432
   0.62768262  0.30280007  0.84486311
   0.62768262  0.54206304  0.69719993
   0.62768262  0.15513689  0.45793696
   0.56212309  0.33855882  0.74215902
   0.56212309  0.40360020  0.66144118
   0.56212309  0.25784098  0.59639980
   0.56204696  0.26229978  0.67207394
   0.56204696  0.40977416  0.73770022
   0.56204696  0.32792606  0.59022584
   0.75196253  0.73683868  0.98818780
   0.75196253  0.25134912  0.26316132
   0.75196253  0.01181220  0.74865088
   0.71817916  0.84127384  0.97207971
   0.71817916  0.13080586  0.15872616
   0.71817916  0.02792029  0.86919414
   0.88328637  0.56522206  0.94625224
   0.88328637  0.38103019  0.43477794
   0.88328637  0.05374776  0.61896981
   0.92033972  0.45409127  0.83079991
   0.92033972  0.37670864  0.54590873
   0.92033972  0.16920009  0.62329136
   0.76191561  0.41291258  0.07214266
   0.76191561  0.65922909  0.58708742
   0.76191561  0.92785734  0.34077091
   0.80258054  0.53275512  0.17598595
   0.80258054  0.64323184  0.46724488
   0.80258054  0.82401405  0.35676816
   0.60153724  0.32423764  0.92081199
   0.60153724  0.59657435  0.67576236
   0.60153724  0.07918801  0.40342565
   0.55913830  0.34444672  0.81941206
   0.55913730  0.47496633  0.65555428
   0.55913730  0.18058794  0.52503367
   0.67682917  0.65178219  0.08874942
   0.67682917  0.43696623  0.34821781
   0.67682917  0.91125058  0.56303377
   0.59907048  0.58216855  0.96275465
   0.59907048  0.38058610  0.41783145
   0.59907048  0.03724535  0.61941390
   0.94073182  0.41665223  0.30695184
   0.94073182  0.89029962  0.58334877
   0.94073182  0.69304816  0.10970038
   0.89461664  0.33183151  0.17618834
   0.89461664  0.84435683  0.66816849
   0.89461664  0.82381166  0.15564317
   0.51135928  0.36713402  0.10393918
   0.51135928  0.73680416  0.63286598
   0.51135928  0.89606082  0.26319584
   0.59141222  0.24301326  0.03680520
   0.59141222  0.79379194  0.75698674
   0.59141222  0.96319480  0.20620806
   0.82603215  0.04202838  0.27101416
   0.82603215  0.22898578  0.95797162
   0.82603215  0.72898584  0.77101422
   0.87304692  0.14044475  0.39831297
   0.87304692  0.25786822  0.85955525
   0.87304692  0.60168703  0.74213178
unknown system                          
           1
     0.000000    0.000000  -11.517458
    -9.520074  -16.489253    0.000000
    -9.520074   16.489253   -0.000000
   Zn   H    C    N    O 
   6  96 144  24  24
Direct configuration=    46
   0.80904999  0.67013767  0.03419625
   0.80904999  0.36405858  0.32986233
   0.80904999  0.96580375  0.63594142
   0.69307429  0.30292738  0.00058918
   0.69307429  0.69766279  0.69707262
   0.69307429  0.99941082  0.30233721
   0.09426508  0.51563817  0.32876795
   0.09426508  0.81312977  0.48436183
   0.09426508  0.67123205  0.18687023
   0.01386540  0.35018529  0.07890148
   0.01386540  0.72871619  0.64981471
   0.01386640  0.92109852  0.27128381
   0.16659854  0.41436043  0.03637733
   0.16659854  0.62201591  0.58563957
   0.16659854  0.96362267  0.37798409
   0.24521713  0.58050722  0.28790093
   0.24521713  0.70739372  0.41949278
   0.24521713  0.71209907  0.29260628
   0.42722702  0.55556412  0.22814541
   0.42722702  0.67258129  0.44443588
   0.42722702  0.77185459  0.32741871
   0.21038590  0.53116639  0.03309491
   0.21038590  0.50192752  0.46883361
   0.21038590  0.96690509  0.49807248
   0.37502808  0.57738864  0.98050758
   0.37502808  0.40311893  0.42261136
   0.37502808  0.01949242  0.59688207
   0.58690919  0.60785523  0.17866146
   0.58690919  0.57080623  0.39214477
   0.58690919  0.82133854  0.42919377
   0.83598017  0.85013020  0.06541423
   0.83598017  0.21528402  0.14986980
   0.83598017  0.93458577  0.78471598
   0.63385369  0.65372856  0.89684902
   0.63385369  0.24312046  0.34627144
   0.63385369  0.10315098  0.75687954
   0.59651065  0.78541168  0.87226751
   0.59651065  0.08685583  0.21458832
   0.59651065  0.12773249  0.91314417
   0.71727199  0.97501796  0.11684110
   0.71727199  0.14182314  0.02498204
   0.71727199  0.88315890  0.85817686
   0.75645888  0.51701469  0.85124004
   0.75645888  0.33422535  0.48298531
   0.75645888  0.14875996  0.66577465
   0.04466413  0.57225161  0.00557619
   0.04466413  0.43332458  0.42774839
   0.04466413  0.99442381  0.56667542
   0.09157899  0.42892659  0.85924877
   0.09157899  0.43032218  0.57107341
   0.09157899  0.14075123  0.56967782
   0.91375777  0.29385300  0.77417232
   0.91375777  0.48031932  0.70614700
   0.91375777  0.22582768  0.51968068
   0.01902385  0.23763320  0.39502070
   0.01902385  0.15738850  0.76236680
   0.01902385  0.60497930  0.84261150
   0.97206636  0.01750292  0.16851794
   0.97206636  0.15101402  0.98249708
   0.97206636  0.83148306  0.84898598
   0.12606248  0.05986148  0.10561087
   0.12606248  0.04574938  0.94013852
   0.12606248  0.89438913  0.95425062
   0.17187453  0.28183262  0.33282747
   0.17187453  0.05099485  0.71816738
   0.17187453  0.66717253  0.94900515
   0.18898330  0.32722549  0.24325901
   0.18898330  0.91603452  0.67277451
   0.18898330  0.75674099  0.08396548
   0.32674893  0.08498307  0.10408214
   0.32674893  0.01909907  0.91501693
   0.32674893  0.89591786  0.98090093
   0.47979073  0.13655031  0.04888692
   0.47979073  0.91233662  0.86344969
   0.47979073  0.95111308  0.08766338
   0.34187931  0.37751909  0.18728669
   0.34187931  0.80976860  0.62248091
   0.34187931  0.81271331  0.19023140
   0.68848544  0.44928174  0.18911267
   0.68848544  0.73983193  0.55071826
   0.68848544  0.81088733  0.26016807
   0.86287482  0.42420626  0.98306293
   0.86287482  0.55885667  0.57579374
   0.86287482  0.01693707  0.44114333
   0.91103847  0.57834442  0.11510426
   0.91103847  0.53675884  0.42165558
   0.91103847  0.88489674  0.46324116
   0.80204598  0.52684652  0.31350313
   0.80204598  0.78665661  0.47315348
   0.80204598  0.68649687  0.21334339
   0.47705714  0.40722394  0.00631571
   0.47705714  0.59909277  0.59277606
   0.47705714  0.99368429  0.40090823
   0.42549122  0.43534048  0.87893301
   0.42549122  0.44359153  0.56465952
   0.42549122  0.12106699  0.55640847
   0.69925401  0.26345010  0.81082931
   0.69925401  0.54737821  0.73654990
   0.69925401  0.18917069  0.45262179
   0.55922763  0.20681900  0.67556216
   0.55922763  0.46874316  0.79318100
   0.55922763  0.32443784  0.53125684
   0.95373332  0.38834446  0.22906857
   0.95373332  0.84072411  0.61165554
   0.95373332  0.77093143  0.15927589
   0.04429853  0.42914997  0.20597640
   0.04429853  0.77682743  0.57085003
   0.04429853  0.79402360  0.22317257
   0.10984755  0.49405143  0.26474162
   0.10984755  0.77069019  0.50594857
   0.10984755  0.73525838  0.22930981
   0.06464586  0.40125803  0.12369522
   0.06464586  0.72243719  0.59874197
   0.06464586  0.87630478  0.27756281
   0.14892701  0.43786064  0.10062620
   0.14892701  0.66276556  0.56213936
   0.14892701  0.89937380  0.33723444
   0.19464571  0.53030189  0.24154287
   0.19464571  0.71124099  0.46969811
   0.19464571  0.75845713  0.28875901
   0.21552402  0.50288470  0.15902408
   0.21552402  0.65613939  0.49711530
   0.21552402  0.84097592  0.34386061
   0.30789466  0.53865184  0.13332704
   0.30789466  0.59467520  0.46134816
   0.30789466  0.86667296  0.40532480
   0.41386993  0.56273962  0.17536825
   0.41386993  0.61262863  0.43726038
   0.41386993  0.82463175  0.38737137
   0.29389575  0.54652483  0.06414915
   0.29389575  0.51762532  0.45347517
   0.29389575  0.93585085  0.48237468
   0.38487776  0.57253736  0.03490645
   0.38487776  0.46236909  0.42746264
   0.38487776  0.96509355  0.53763091
   0.50405351  0.59037810  0.14700055
   0.50405351  0.55662244  0.40962190
   0.50405351  0.85299945  0.44337756
   0.49204843  0.59259481  0.07491333
   0.49204843  0.48231853  0.40740519
   0.49204843  0.92508667  0.51768147
   0.59494292  0.60991371  0.03804061
   0.59494292  0.42812690  0.39008629
   0.59494292  0.96195939  0.57187310
   0.77757239  0.81418804  0.01547949
   0.77757239  0.20129044  0.18581096
   0.77757239  0.98452051  0.79870956
   0.67244541  0.71351004  0.92559006
   0.67244541  0.21208103  0.28648996
   0.67244541  0.07440994  0.78791897
   0.65108511  0.77798489  0.91454892
   0.65108511  0.13656403  0.22201511
   0.65108511  0.08545108  0.86343597
   0.72149609  0.92153830  0.98602266
   0.72149609  0.06448336  0.07846170
   0.72149609  0.01397734  0.93551664
   0.72154380  0.98579495  0.06581447
   0.72154380  0.08002052  0.01420505
   0.72154380  0.93418553  0.91997948
   0.84176349  0.51389208  0.87330282
   0.84176349  0.35941174  0.48610792
   0.84176349  0.12669718  0.64058826
   0.99270787  0.53848392  0.95133934
   0.99270787  0.41285542  0.46151608
   0.99270787  0.04866066  0.58714458
   0.01697034  0.46879957  0.88008007
   0.01697134  0.41128050  0.53120043
   0.01697034  0.11991993  0.58871950
   0.91246664  0.39250405  0.74754735
   0.91246664  0.35504330  0.60749595
   0.91246664  0.25245265  0.64495670
   0.91228566  0.31120474  0.72722918
   0.91228566  0.41602444  0.68879526
   0.91228566  0.27277082  0.58397556
   0.88892677  0.10200677  0.32274528
   0.88892677  0.22073851  0.89799323
   0.88892677  0.67725472  0.77926149
   0.98540210  0.12537718  0.28556073
   0.98540210  0.16018355  0.87462282
   0.98540210  0.71443927  0.83981645
   0.04299130  0.19938284  0.33157571
   0.04299130  0.13219287  0.80061716
   0.04299130  0.66842429  0.86780713
   0.01675505  0.07519165  0.20405274
   0.01675505  0.12886110  0.92480835
   0.01675505  0.79594726  0.87113890
   0.10320144  0.09910827  0.16930615
   0.10320144  0.07019787  0.90089173
   0.10320144  0.83069385  0.92980213
   0.12764366  0.22394892  0.29651379
   0.12764366  0.07256487  0.77605108
   0.12764366  0.70348621  0.92743513
   0.15906495  0.17451412  0.21458972
   0.15906495  0.04007560  0.82548588
   0.15906495  0.78541028  0.95992440
   0.24806393  0.20270446  0.17863970
   0.24806393  0.97593525  0.79729554
   0.24806393  0.82136030  0.02406475
   0.25373912  0.28530555  0.20171201
   0.25373912  0.91640646  0.71469445
   0.25373912  0.79828799  0.08359354
   0.32946666  0.14917471  0.12207277
   0.32946666  0.97289906  0.85082529
   0.32946666  0.87792723  0.02710094
   0.41548732  0.17792250  0.09148950
   0.41548732  0.91356700  0.82207750
   0.41548732  0.90851050  0.08643300
   0.33855637  0.31379037  0.17040599
   0.33855637  0.85661561  0.68620963
   0.33855637  0.82959401  0.14338439
   0.42131914  0.26056661  0.11568043
   0.42132014  0.85511382  0.73943339
   0.42132014  0.88431957  0.14488618
   0.51249218  0.29386866  0.08457697
   0.51249218  0.79070932  0.70613134
   0.51249218  0.91542303  0.20929068
   0.74418180  0.46173094  0.15076108
   0.74418180  0.68903013  0.53826906
   0.74418180  0.84923892  0.31096987
   0.83388961  0.45306676  0.04554964
   0.83388961  0.59248288  0.54693324
   0.83388961  0.95445036  0.40751712
   0.85933675  0.52820512  0.10953168
   0.85933675  0.58132656  0.47179488
   0.85933675  0.89046832  0.41867344
   0.80269424  0.60034460  0.25568129
   0.80269424  0.65533670  0.39965540
   0.80269424  0.74431871  0.34466330
   0.80269680  0.58770751  0.32179786
   0.80269680  0.73409034  0.41229249
   0.80269680  0.67820214  0.26590966
   0.51295599  0.38098142  0.94567748
   0.51295599  0.56469606  0.61901858
   0.51295599  0.05432252  0.43530394
   0.48655138  0.39472591  0.88351230
   0.48655138  0.48878539  0.60527409
   0.48655138  0.11648770  0.51121461
   0.62762052  0.30277721  0.84486246
   0.62762052  0.54208525  0.69722279
   0.62762052  0.15513754  0.45791475
   0.56206134  0.33856113  0.74215744
   0.56206134  0.40359632  0.66143887
   0.56206134  0.25784256  0.59640368
   0.56195203  0.26226490  0.67204322
   0.56195203  0.40977832  0.73773510
   0.56195203  0.32795678  0.59022168
   0.75187630  0.73681684  0.98813144
   0.75187630  0.25131460  0.26318316
   0.75187630  0.01186856  0.74868540
   0.71807620  0.84123851  0.97203807
   0.71807620  0.13079956  0.15876149
   0.71807620  0.02796193  0.86920044
   0.88327587  0.56521347  0.94623105
   0.88327587  0.38101758  0.43478653
   0.88327587  0.05376895  0.61898242
   0.92040473  0.45403635  0.83082217
   0.92040473  0.37678582  0.54596365
   0.92040473  0.16917783  0.62321418
   0.76197213  0.41290055  0.07215025
   0.76197213  0.65924871  0.58709945
   0.76197213  0.92784975  0.34075129
   0.80254962  0.53272331  0.17596693
   0.80254962  0.64324462  0.46727669
   0.80254962  0.82403307  0.35675538
   0.60152887  0.32422387  0.92079757
   0.60152887  0.59657369  0.67577613
   0.60152887  0.07920243  0.40342631
   0.55908680  0.34443564  0.81942209
   0.55908580  0.47498746  0.65556536
   0.55908580  0.18057791  0.52501254
   0.67678307  0.65172974  0.08873110
   0.67678307  0.43700036  0.34827026
   0.67678307  0.91126890  0.56299964
   0.59904760  0.58213314  0.96268475
   0.59904760  0.38055161  0.41786686
   0.59904760  0.03731525  0.61944839
   0.94065158  0.41666559  0.30692397
   0.94065158  0.89025838  0.58333541
   0.94065158  0.69307603  0.10974162
   0.89473230  0.33163710  0.17606453
   0.89473230  0.84442743  0.66836290
   0.89473230  0.82393547  0.15557257
   0.51138225  0.36715512  0.10398166
   0.51138225  0.73682554  0.63284488
   0.51138225  0.89601834  0.26317446
   0.59143824  0.24300504  0.03682026
   0.59143824  0.79381521  0.75699496
   0.59143824  0.96317974  0.20618479
   0.82611374  0.04212490  0.27106834
   0.82611374  0.22894344  0.95787510
   0.82611374  0.72893166  0.77105656
   0.87314442  0.14053684  0.39842568
   0.87314442  0.25788884  0.85946316
   0.87314442  0.60157432  0.74211116
unknown system                          
           1
     0.000000    0.000000  -11.517517
    -9.519839  -16.488845    0.000000
    -9.519839   16.488845   -0.000000
   Zn   H    C    N    O 
   6  96 144  24  24
Direct configuration=    47
   0.80905133  0.67013467  0.03416710
   0.80905133  0.36403242  0.32986533
   0.80905133  0.96583290  0.63596758
   0.69308758  0.30291012  0.00056724
   0.69308758  0.69765812  0.69708988
   0.69308758  0.99943276  0.30234188
   0.09415481  0.51564303  0.32874515
   0.09415481  0.81310212  0.48435697
   0.09415481  0.67125485  0.18689788
   0.01390883  0.35011589  0.07885050
   0.01390883  0.72873461  0.64988411
   0.01390983  0.92114950  0.27126539
   0.16658689  0.41433402  0.03633619
   0.16658689  0.62200117  0.58566598
   0.16658689  0.96366381  0.37799883
   0.24515358  0.58048145  0.28786520
   0.24515358  0.70738375  0.41951855
   0.24515358  0.71213480  0.29261625
   0.42719990  0.55556782  0.22814664
   0.42719990  0.67257882  0.44443218
   0.42719990  0.77185336  0.32742118
   0.21036493  0.53114683  0.03303537
   0.21036493  0.50188753  0.46885317
   0.21036493  0.96696463  0.49811247
   0.37499944  0.57739048  0.98046025
   0.37499944  0.40306977  0.42260952
   0.37499944  0.01953975  0.59693123
   0.58692904  0.60780340  0.17863490
   0.58692904  0.57083150  0.39219660
   0.58692904  0.82136510  0.42916850
   0.83596842  0.85009984  0.06535305
   0.83596842  0.21525321  0.14990016
   0.83596842  0.93464695  0.78474679
   0.63378065  0.65372981  0.89684898
   0.63378065  0.24311917  0.34627019
   0.63378065  0.10315102  0.75688083
   0.59639920  0.78540936  0.87228501
   0.59639920  0.08687565  0.21459064
   0.59639920  0.12771499  0.91312435
   0.71720522  0.97498783  0.11683338
   0.71720522  0.14184555  0.02501217
   0.71720522  0.88316662  0.85815445
   0.75661065  0.51707010  0.85118881
   0.75661065  0.33411871  0.48292990
   0.75661065  0.14881119  0.66588129
   0.04457737  0.57216908  0.00566366
   0.04457737  0.43349458  0.42783092
   0.04457737  0.99433634  0.56650542
   0.09147512  0.42882889  0.85935286
   0.09147512  0.43052397  0.57117111
   0.09147512  0.14064714  0.56947603
   0.91380159  0.29383059  0.77413065
   0.91380159  0.48030006  0.70616941
   0.91380159  0.22586935  0.51969994
   0.01915088  0.23765668  0.39511755
   0.01915088  0.15746186  0.76234332
   0.01915088  0.60488245  0.84253814
   0.97207685  0.01759041  0.16859091
   0.97207685  0.15099950  0.98240959
   0.97207685  0.83141009  0.84900050
   0.12611246  0.05994040  0.10570309
   0.12611246  0.04576270  0.94005960
   0.12611246  0.89429691  0.95423730
   0.17196703  0.28184814  0.33291656
   0.17196703  0.05106841  0.71815186
   0.17196703  0.66708344  0.94893159
   0.18906941  0.32726724  0.24332460
   0.18906941  0.91605836  0.67273276
   0.18906941  0.75667540  0.08394164
   0.32682638  0.08502179  0.10416821
   0.32682638  0.01914642  0.91497821
   0.32682638  0.89583179  0.98085358
   0.47982272  0.13656124  0.04891876
   0.47982272  0.91235753  0.86343876
   0.47982272  0.95108124  0.08764247
   0.34197162  0.37756293  0.18735918
   0.34197162  0.80979724  0.62243707
   0.34197162  0.81264082  0.19020276
   0.68849796  0.44924699  0.18908574
   0.68849796  0.73983975  0.55075301
   0.68849796  0.81091426  0.26016025
   0.86290404  0.42420332  0.98307728
   0.86290404  0.55887396  0.57579668
   0.86290404  0.01692272  0.44112604
   0.91100677  0.57834490  0.11511229
   0.91100677  0.53676639  0.42165510
   0.91100677  0.88488871  0.46323361
   0.80203637  0.52685003  0.31350877
   0.80203637  0.78665874  0.47314997
   0.80203637  0.68649123  0.21334126
   0.47703881  0.40719057  0.00630734
   0.47703881  0.59911777  0.59280943
   0.47703881  0.99369266  0.40088323
   0.42542603  0.43528686  0.87892567
   0.42542603  0.44363781  0.56471314
   0.42542603  0.12107433  0.55636219
   0.69922400  0.26347907  0.81084452
   0.69922400  0.54736445  0.73652093
   0.69922400  0.18915548  0.45263555
   0.55920574  0.20681035  0.67554606
   0.55920574  0.46873571  0.79318965
   0.55920574  0.32445394  0.53126429
   0.95368101  0.38827628  0.22901507
   0.95368101  0.84073880  0.61172372
   0.95368101  0.77098493  0.15926120
   0.04429634  0.42913186  0.20592720
   0.04429634  0.77679634  0.57086814
   0.04429634  0.79407280  0.22320366
   0.10982022  0.49402765  0.26472635
   0.10982022  0.77069870  0.50597235
   0.10982022  0.73527365  0.22930130
   0.06464987  0.40119479  0.12362341
   0.06464987  0.72242862  0.59880521
   0.06464987  0.87637659  0.27757138
   0.14890851  0.43779734  0.10056409
   0.14890851  0.66276676  0.56220266
   0.14890851  0.89943591  0.33723324
   0.19458831  0.53029226  0.24152330
   0.19458831  0.71123104  0.46970774
   0.19458831  0.75847670  0.28876896
   0.21546414  0.50287172  0.15900635
   0.21546414  0.65613463  0.49712828
   0.21546414  0.84099365  0.34386537
   0.30788534  0.53863738  0.13328316
   0.30788534  0.59464578  0.46136262
   0.30788534  0.86671684  0.40535422
   0.41386246  0.56272961  0.17536776
   0.41386246  0.61263815  0.43727039
   0.41386246  0.82463224  0.38736185
   0.29384983  0.54650505  0.06408267
   0.29384983  0.51757862  0.45349495
   0.29384983  0.93591733  0.48242138
   0.38482647  0.57252396  0.03484335
   0.38482647  0.46231938  0.42747604
   0.38482647  0.96515665  0.53768062
   0.50405630  0.59037643  0.14699457
   0.50405630  0.55661814  0.40962357
   0.50405630  0.85300543  0.44338186
   0.49200935  0.59257488  0.07489354
   0.49200935  0.48231866  0.40742512
   0.49200935  0.92510646  0.51768134
   0.59492289  0.60988225  0.03798925
   0.59492289  0.42810699  0.39011775
   0.59492289  0.96201075  0.57189301
   0.77752306  0.81416831  0.01544732
   0.77752306  0.20127800  0.18583069
   0.77752306  0.98455268  0.79872200
   0.67236132  0.71349376  0.92558519
   0.67236132  0.21209243  0.28650624
   0.67236132  0.07441481  0.78790757
   0.65099331  0.77796917  0.91454626
   0.65099331  0.13657710  0.22203083
   0.65099331  0.08545374  0.86342290
   0.72142024  0.92152907  0.98601517
   0.72142024  0.06448510  0.07847093
   0.72142024  0.01398483  0.93551490
   0.72145961  0.98579180  0.06581814
   0.72145961  0.08002734  0.01420820
   0.72145961  0.93418186  0.91997266
   0.84185876  0.51390036  0.87325467
   0.84185876  0.35935531  0.48609964
   0.84185876  0.12674533  0.64064469
   0.99263826  0.53843174  0.95138863
   0.99263826  0.41295689  0.46156826
   0.99263826  0.04861137  0.58704311
   0.01692728  0.46876798  0.88016391
   0.01692828  0.41139593  0.53123202
   0.01692728  0.11983609  0.58860407
   0.91254572  0.39247905  0.74755949
   0.91254572  0.35508044  0.60752095
   0.91254572  0.25244051  0.64491956
   0.91236681  0.31117888  0.72720116
   0.91236681  0.41602227  0.68882112
   0.91236681  0.27279884  0.58397773
   0.88895947  0.10206023  0.32281224
   0.88895947  0.22075201  0.89793977
   0.88895947  0.67718776  0.77924799
   0.98543813  0.12543474  0.28565397
   0.98543813  0.16021923  0.87456526
   0.98543813  0.71434603  0.83978077
   0.04309879  0.19942097  0.33168633
   0.04309879  0.13226536  0.80057903
   0.04309879  0.66831367  0.86773464
   0.01675760  0.07525917  0.20412269
   0.01675760  0.12886353  0.92474083
   0.01675760  0.79587731  0.87113647
   0.10325884  0.09914425  0.16939342
   0.10325884  0.07024917  0.90085575
   0.10325884  0.83060658  0.92975083
   0.12772799  0.22399203  0.29659561
   0.12772799  0.07260358  0.77600797
   0.12772799  0.70340439  0.92739642
   0.15916310  0.17456020  0.21466091
   0.15916310  0.04010071  0.82543980
   0.15916310  0.78533909  0.95989929
   0.24814726  0.20274632  0.17871295
   0.24814726  0.97596663  0.79725368
   0.24814726  0.82128705  0.02403337
   0.25380387  0.28534313  0.20179301
   0.25380387  0.91644988  0.71465687
   0.25380387  0.79820699  0.08355012
   0.32953896  0.14918985  0.12213475
   0.32953896  0.97294590  0.85081015
   0.32953896  0.87786525  0.02705410
   0.41555114  0.17793829  0.09153389
   0.41555114  0.91359560  0.82206171
   0.41555114  0.90846611  0.08640440
   0.33861259  0.31384220  0.17048164
   0.33861259  0.85663944  0.68615780
   0.33861259  0.82951836  0.14336056
   0.42136568  0.26059653  0.11571331
   0.42136668  0.85511678  0.73940347
   0.42136668  0.88428669  0.14488322
   0.51253435  0.29389652  0.08458198
   0.51253435  0.79068646  0.70610348
   0.51253435  0.91541802  0.20931354
   0.74420561  0.46171701  0.15075320
   0.74420561  0.68903619  0.53828299
   0.74420561  0.84924680  0.31096381
   0.83389764  0.45303399  0.04553177
   0.83389764  0.59249777  0.54696601
   0.83389764  0.95446823  0.40750223
   0.85935920  0.52819699  0.10952315
   0.85935920  0.58132616  0.47180301
   0.85935920  0.89047685  0.41867384
   0.80265542  0.60033429  0.25567663
   0.80265542  0.65534234  0.39966571
   0.80265542  0.74432337  0.34465766
   0.80266812  0.58770952  0.32180934
   0.80266812  0.73409982  0.41229048
   0.80266812  0.67819066  0.26590018
   0.51292968  0.38095480  0.94568576
   0.51292968  0.56473096  0.61904520
   0.51292968  0.05431424  0.43526904
   0.48649161  0.39468763  0.88350885
   0.48649161  0.48882022  0.60531237
   0.48649161  0.11649115  0.51117978
   0.62758430  0.30276388  0.84486209
   0.62758430  0.54209821  0.69723612
   0.62758430  0.15513791  0.45790179
   0.56202532  0.33856247  0.74215652
   0.56202532  0.40359405  0.66143753
   0.56202532  0.25784348  0.59640595
   0.56189665  0.26224456  0.67202530
   0.56189665  0.40978074  0.73775544
   0.56189665  0.32797470  0.59021926
   0.75182600  0.73680410  0.98809856
   0.75182600  0.25129445  0.26319590
   0.75182600  0.01190144  0.74870555
   0.71801613  0.84121789  0.97201377
   0.71801613  0.13079588  0.15878211
   0.71801613  0.02798623  0.86920412
   0.88326975  0.56520847  0.94621869
   0.88326975  0.38101022  0.43479153
   0.88326975  0.05378131  0.61898978
   0.92044265  0.45400431  0.83083516
   0.92044265  0.37683085  0.54599569
   0.92044265  0.16916484  0.62316915
   0.76200511  0.41289353  0.07215468
   0.76200511  0.65926015  0.58710647
   0.76200511  0.92784532  0.34073985
   0.80253158  0.53270475  0.17595583
   0.80253158  0.64325208  0.46729525
   0.80253158  0.82404417  0.35674792
   0.60152398  0.32421584  0.92078915
   0.60152398  0.59657331  0.67578416
   0.60152398  0.07921085  0.40342669
   0.55905676  0.34442917  0.81942795
   0.55905576  0.47499978  0.65557183
   0.55905576  0.18057205  0.52500022
   0.67675618  0.65169915  0.08872042
   0.67675618  0.43702027  0.34830085
   0.67675618  0.91127958  0.56297973
   0.59903426  0.58211248  0.96264397
   0.59903426  0.38053149  0.41788752
   0.59903426  0.03735603  0.61946851
   0.94060477  0.41667339  0.30690771
   0.94060477  0.89023432  0.58332761
   0.94060477  0.69309229  0.10976568
   0.89479977  0.33152369  0.17599230
   0.89479977  0.84446861  0.66847631
   0.89479977  0.82400770  0.15553139
   0.51139566  0.36716743  0.10400643
   0.51139566  0.73683801  0.63283257
   0.51139566  0.89599357  0.26316199
   0.59145342  0.24300025  0.03682904
   0.59145342  0.79382879  0.75699975
   0.59145342  0.96317096  0.20617121
   0.82616133  0.04218121  0.27109995
   0.82616133  0.22891873  0.95781879
   0.82616133  0.72890005  0.77108127
   0.87320130  0.14059055  0.39849143
   0.87320130  0.25790088  0.85940945
   0.87320130  0.60150857  0.74209912
unknown system                          
           1
     0.000000    0.000000  -11.518651
    -9.520076  -16.489256    0.000000
    -9.520076   16.489256   -0.000000
   Zn   H    C    N    O 
   6  96 144  24  24
Direct configuration=    48
   0.80904504  0.67013016  0.03414272
   0.80904504  0.36401256  0.32986984
   0.80904504  0.96585728  0.63598744
   0.69311473  0.30288785  0.00054173
   0.69311473  0.69765488  0.69711215
   0.69311473  0.99945827  0.30234512
   0.09400964  0.51565297  0.32872332
   0.09400964  0.81307036  0.48434703
   0.09400964  0.67127668  0.18692964
   0.01391492  0.34998917  0.07876202
   0.01391492  0.72877285  0.65001083
   0.01391592  0.92123798  0.27122715
   0.16656753  0.41429723  0.03628977
   0.16656753  0.62199154  0.58570277
   0.16656753  0.96371023  0.37800846
   0.24510203  0.58046485  0.28783108
   0.24510203  0.70736623  0.41953515
   0.24510203  0.71216892  0.29263377
   0.42717056  0.55557754  0.22816705
   0.42717056  0.67258950  0.44442246
   0.42717056  0.77183295  0.32741050
   0.21028624  0.53110607  0.03294119
   0.21028624  0.50183412  0.46889393
   0.21028624  0.96705881  0.49816588
   0.37496514  0.57739055  0.98039260
   0.37496514  0.40300205  0.42260945
   0.37496514  0.01960740  0.59699895
   0.58698619  0.60773482  0.17860594
   0.58698619  0.57087111  0.39226518
   0.58698619  0.82139406  0.42912889
   0.83598750  0.85006817  0.06529319
   0.83598750  0.21522503  0.14993183
   0.83598750  0.93470681  0.78477497
   0.63368234  0.65371394  0.89682689
   0.63368234  0.24311296  0.34628606
   0.63368234  0.10317311  0.75688704
   0.59626761  0.78540842  0.87231160
   0.59626761  0.08690319  0.21459158
   0.59626761  0.12768840  0.91309681
   0.71713870  0.97495253  0.11682541
   0.71713870  0.14187288  0.02504747
   0.71713870  0.88317459  0.85812712
   0.75674856  0.51713690  0.85111262
   0.75674856  0.33397572  0.48286310
   0.75674856  0.14888738  0.66602428
   0.04445630  0.57206119  0.00575626
   0.04445630  0.43369506  0.42793881
   0.04445630  0.99424374  0.56630494
   0.09138588  0.42870268  0.85946668
   0.09138588  0.43076400  0.57129732
   0.09138588  0.14053332  0.56923600
   0.91385665  0.29378050  0.77408588
   0.91385665  0.48030538  0.70621950
   0.91385665  0.22591412  0.51969462
   0.01930550  0.23768265  0.39524949
   0.01930550  0.15756784  0.76231735
   0.01930550  0.60475051  0.84243216
   0.97204573  0.01766473  0.16866566
   0.97204573  0.15099992  0.98233527
   0.97204573  0.83133534  0.84900008
   0.12617224  0.06003042  0.10581748
   0.12617224  0.04578706  0.93996958
   0.12617224  0.89418252  0.95421294
   0.17206883  0.28187917  0.33302866
   0.17206883  0.05114949  0.71812083
   0.17206883  0.66697134  0.94885051
   0.18915832  0.32732570  0.24342469
   0.18915832  0.91609999  0.67267430
   0.18915832  0.75657531  0.08390001
   0.32695303  0.08506906  0.10427518
   0.32695303  0.01920612  0.91493094
   0.32695303  0.89572482  0.98079388
   0.47989108  0.13657277  0.04894938
   0.47989108  0.91237661  0.86342723
   0.47989108  0.95105062  0.08762339
   0.34209426  0.37762146  0.18746392
   0.34209426  0.80984346  0.62237854
   0.34209426  0.81253608  0.19015654
   0.68849870  0.44919701  0.18907029
   0.68849870  0.73987427  0.55080299
   0.68849870  0.81092971  0.26012573
   0.86292905  0.42418950  0.98308369
   0.86292905  0.55889419  0.57581050
   0.86292905  0.01691631  0.44110581
   0.91097575  0.57834163  0.11511850
   0.91097575  0.53677588  0.42165837
   0.91097575  0.88488250  0.46322412
   0.80203339  0.52684250  0.31351195
   0.80203339  0.78666945  0.47315750
   0.80203339  0.68648805  0.21333055
   0.47700611  0.40715655  0.00630542
   0.47700611  0.59914987  0.59284345
   0.47700611  0.99369458  0.40085113
   0.42532316  0.43523338  0.87891053
   0.42532316  0.44367615  0.56476662
   0.42532316  0.12108947  0.55632385
   0.69922784  0.26349246  0.81084481
   0.69922784  0.54735135  0.73650754
   0.69922784  0.18915519  0.45264865
   0.55918867  0.20678297  0.67552858
   0.55918867  0.46874561  0.79321703
   0.55918867  0.32447142  0.53125439
   0.95364636  0.38822055  0.22898182
   0.95364636  0.84076127  0.61177945
   0.95364636  0.77101818  0.15923873
   0.04428262  0.42910438  0.20590342
   0.04428262  0.77680004  0.57089562
   0.04428262  0.79409658  0.22319996
   0.10977890  0.49400924  0.26470016
   0.10977890  0.77069091  0.50599076
   0.10977890  0.73529984  0.22930909
   0.06470221  0.40114674  0.12354979
   0.06470221  0.72240305  0.59885326
   0.06470221  0.87645021  0.27759695
   0.14895500  0.43777315  0.10049866
   0.14895500  0.66272550  0.56222685
   0.14895500  0.89950134  0.33727450
   0.19454582  0.53026240  0.24146336
   0.19454582  0.71120097  0.46973760
   0.19454582  0.75853664  0.28879903
   0.21539920  0.50282801  0.15895126
   0.21539920  0.65612326  0.49717199
   0.21539920  0.84104874  0.34387674
   0.30783237  0.53862050  0.13324809
   0.30783237  0.59462759  0.46137950
   0.30783237  0.86675191  0.40537241
   0.41380741  0.56272314  0.17536207
   0.41380741  0.61263893  0.43727686
   0.41380741  0.82463793  0.38736107
   0.29379841  0.54647496  0.06402669
   0.29379841  0.51755273  0.45352504
   0.29379841  0.93597331  0.48244727
   0.38479234  0.57251115  0.03478113
   0.38479234  0.46226999  0.42748885
   0.38479234  0.96521887  0.53773001
   0.50406709  0.59037119  0.14696509
   0.50406709  0.55659390  0.40962881
   0.50406709  0.85303491  0.44340610
   0.49197973  0.59256504  0.07486410
   0.49197973  0.48229906  0.40743496
   0.49197973  0.92513590  0.51770094
   0.59490021  0.60985910  0.03796277
   0.59490021  0.42810366  0.39014090
   0.59490021  0.96203723  0.57189634
   0.77747133  0.81414619  0.01540177
   0.77747133  0.20125458  0.18585281
   0.77747133  0.98459823  0.79874542
   0.67225577  0.71349604  0.92556919
   0.67225577  0.21207414  0.28650396
   0.67225577  0.07443081  0.78792586
   0.65084987  0.77793285  0.91452037
   0.65084987  0.13658752  0.22206715
   0.65084987  0.08547963  0.86341248
   0.72132135  0.92151638  0.98600557
   0.72132135  0.06448819  0.07848362
   0.72132135  0.01399443  0.93551181
   0.72135529  0.98577894  0.06582083
   0.72135529  0.08004289  0.01422106
   0.72135529  0.93417917  0.91995711
   0.84193755  0.51392147  0.87321443
   0.84193755  0.35929396  0.48607853
   0.84193755  0.12678557  0.64070604
   0.99256888  0.53840304  0.95148147
   0.99256888  0.41307843  0.46159696
   0.99256888  0.04851853  0.58692157
   0.01687509  0.46869338  0.88022646
   0.01687609  0.41153308  0.53130662
   0.01687509  0.11977354  0.58846692
   0.91266787  0.39244859  0.74757192
   0.91266787  0.35512333  0.60755141
   0.91266787  0.25242808  0.64487667
   0.91245653  0.31115785  0.72717052
   0.91245653  0.41601267  0.68884215
   0.91245653  0.27282948  0.58398733
   0.88900497  0.10211461  0.32287389
   0.88900497  0.22075928  0.89788539
   0.88900497  0.67712611  0.77924072
   0.98545288  0.12549688  0.28576425
   0.98545288  0.16026737  0.87450312
   0.98545288  0.71423575  0.83973263
   0.04320192  0.19944589  0.33178881
   0.04320192  0.13234292  0.80055411
   0.04320192  0.66821119  0.86765708
   0.01683403  0.07537567  0.20421721
   0.01683403  0.12884154  0.92462433
   0.01683403  0.79578279  0.87115846
   0.10334705  0.09923037  0.16950356
   0.10334705  0.07027319  0.90076963
   0.10334705  0.83049644  0.92972681
   0.12785806  0.22403992  0.29667229
   0.12785806  0.07263237  0.77596008
   0.12785806  0.70332771  0.92736763
   0.15923859  0.17459761  0.21475727
   0.15923859  0.04015966  0.82540239
   0.15923859  0.78524273  0.95984034
   0.24824480  0.20280000  0.17879271
   0.24824480  0.97599271  0.79720000
   0.24824480  0.82120729  0.02400729
   0.25390490  0.28539071  0.20188057
   0.25390490  0.91648986  0.71460929
   0.25390490  0.79811943  0.08351014
   0.32960341  0.14921211  0.12222860
   0.32960341  0.97301749  0.85078789
   0.32960341  0.87777140  0.02698251
   0.41562802  0.17794483  0.09157492
   0.41562802  0.91363008  0.82205517
   0.41562802  0.90842508  0.08636992
   0.33870731  0.31387784  0.17055713
   0.33870731  0.85667929  0.68612216
   0.33870731  0.82944287  0.14332071
   0.42134966  0.26062962  0.11577378
   0.42135066  0.85514416  0.73937038
   0.42135066  0.88422622  0.14485584
   0.51259273  0.29392204  0.08459350
   0.51259273  0.79067246  0.70607796
   0.51259273  0.91540650  0.20932754
   0.74421259  0.46167259  0.15073574
   0.74421259  0.68906316  0.53832741
   0.74421259  0.84926426  0.31093684
   0.83395784  0.45305257  0.04553980
   0.83395784  0.59248723  0.54694743
   0.83395784  0.95446020  0.40751277
   0.85936072  0.52814269  0.10946776
   0.85936072  0.58132507  0.47185731
   0.85936072  0.89053224  0.41867493
   0.80260814  0.60032050  0.25566795
   0.80260814  0.65534745  0.39967950
   0.80260814  0.74433205  0.34465255
   0.80261988  0.58770450  0.32181031
   0.80261988  0.73410581  0.41229550
   0.80261988  0.67818969  0.26589419
   0.51291787  0.38090723  0.94567258
   0.51291787  0.56476535  0.61909277
   0.51291787  0.05432742  0.43523465
   0.48641726  0.39465362  0.88352983
   0.48641726  0.48887522  0.60534638
   0.48641726  0.11647017  0.51112478
   0.62756826  0.30275292  0.84485502
   0.62756826  0.54210210  0.69724708
   0.62756826  0.15514498  0.45789790
   0.56196341  0.33857133  0.74216746
   0.56196341  0.40359613  0.66142867
   0.56196341  0.25783254  0.59640387
   0.56184835  0.26223549  0.67199866
   0.56184835  0.40976317  0.73776451
   0.56184835  0.32800134  0.59023683
   0.75174182  0.73678059  0.98806199
   0.75174182  0.25128140  0.26321941
   0.75174182  0.01193801  0.74871860
   0.71793114  0.84119525  0.97199433
   0.71793114  0.13079908  0.15880475
   0.71793114  0.02800567  0.86920092
   0.88329709  0.56521388  0.94620163
   0.88329709  0.38098775  0.43478612
   0.88329709  0.05379837  0.61901225
   0.92049460  0.45399057  0.83086886
   0.92049460  0.37687830  0.54600943
   0.92049460  0.16913114  0.62312170
   0.76203228  0.41288028  0.07215588
   0.76203228  0.65927460  0.58711972
   0.76203228  0.92784412  0.34072540
   0.80253128  0.53269911  0.17595402
   0.80253128  0.64325591  0.46730089
   0.80253128  0.82404598  0.35674409
   0.60146133  0.32421745  0.92079082
   0.60146133  0.59657337  0.67578255
   0.60146133  0.07920918  0.40342663
   0.55901276  0.34440003  0.81943279
   0.55901176  0.47503376  0.65560097
   0.55901176  0.18056721  0.52496624
   0.67673158  0.65163673  0.08867498
   0.67673158  0.43703725  0.34836327
   0.67673158  0.91132502  0.56296275
   0.59900949  0.58210184  0.96260851
   0.59900949  0.38050667  0.41789816
   0.59900949  0.03739149  0.61949333
   0.94054453  0.41667206  0.30686792
   0.94054453  0.89019586  0.58332894
   0.94054453  0.69313208  0.10980414
   0.89484818  0.33137646  0.17590341
   0.89484818  0.84452695  0.66862354
   0.89484818  0.82409659  0.15547305
   0.51141312  0.36722885  0.10404241
   0.51141312  0.73681257  0.63277115
   0.51141312  0.89595759  0.26318743
   0.59148852  0.24298092  0.03681912
   0.59148852  0.79383820  0.75701908
   0.59148852  0.96318088  0.20616180
   0.82622657  0.04226527  0.27117474
   0.82622657  0.22890947  0.95773473
   0.82622657  0.72882526  0.77109053
   0.87324562  0.14064155  0.39856402
   0.87324562  0.25792248  0.85935845
   0.87324562  0.60143598  0.74207752
unknown system                          
           1
     0.000000    0.000000  -11.519011
    -9.520152  -16.489386    0.000000
    -9.520152   16.489386   -0.000000
   Zn   H    C    N    O 
   6  96 144  24  24
Direct configuration=    49
   0.80904305  0.67012873  0.03413498
   0.80904305  0.36400625  0.32987127
   0.80904305  0.96586502  0.63599375
   0.69312334  0.30288078  0.00053363
   0.69312334  0.69765385  0.69711922
   0.69312334  0.99946637  0.30234615
   0.09396355  0.51565613  0.32871640
   0.09396355  0.81306027  0.48434387
   0.09396355  0.67128360  0.18693973
   0.01391685  0.34994894  0.07873393
   0.01391685  0.72878499  0.65005106
   0.01391785  0.92126607  0.27121501
   0.16656138  0.41428555  0.03627504
   0.16656138  0.62198849  0.58571445
   0.16656138  0.96372496  0.37801151
   0.24508567  0.58045957  0.28782024
   0.24508567  0.70736067  0.41954043
   0.24508567  0.71217976  0.29263933
   0.42716125  0.55558063  0.22817352
   0.42716125  0.67259289  0.44441937
   0.42716125  0.77182648  0.32740711
   0.21026127  0.53109313  0.03291129
   0.21026127  0.50181716  0.46890687
   0.21026127  0.96708871  0.49818284
   0.37495425  0.57739057  0.98037112
   0.37495425  0.40298055  0.42260943
   0.37495425  0.01962888  0.59702045
   0.58700434  0.60771305  0.17859674
   0.58700434  0.57088369  0.39228695
   0.58700434  0.82140326  0.42911631
   0.83599355  0.85005812  0.06527419
   0.83599355  0.21521608  0.14994188
   0.83599355  0.93472581  0.78478392
   0.63365114  0.65370890  0.89681988
   0.63365114  0.24311098  0.34629110
   0.63365114  0.10318012  0.75688902
   0.59622584  0.78540812  0.87232004
   0.59622584  0.08691193  0.21459188
   0.59622584  0.12767996  0.91308807
   0.71711759  0.97494132  0.11682288
   0.71711759  0.14188156  0.02505868
   0.71711759  0.88317712  0.85811844
   0.75679234  0.51715811  0.85108843
   0.75679234  0.33393032  0.48284189
   0.75679234  0.14891157  0.66606968
   0.04441787  0.57202694  0.00578566
   0.04441787  0.43375871  0.42797306
   0.04441787  0.99421434  0.56624129
   0.09135755  0.42866261  0.85950281
   0.09135755  0.43084020  0.57133739
   0.09135755  0.14049719  0.56915980
   0.91387413  0.29376460  0.77407167
   0.91387413  0.48030707  0.70623540
   0.91387413  0.22592833  0.51969293
   0.01935458  0.23769090  0.39529138
   0.01935458  0.15760149  0.76230910
   0.01935458  0.60470862  0.84239851
   0.97203585  0.01768833  0.16868939
   0.97203585  0.15100006  0.98231167
   0.97203585  0.83131161  0.84899994
   0.12619122  0.06005899  0.10585379
   0.12619122  0.04579480  0.93994101
   0.12619122  0.89414621  0.95420520
   0.17210115  0.28188902  0.33306424
   0.17210115  0.05117523  0.71811098
   0.17210115  0.66693576  0.94882477
   0.18918654  0.32734427  0.24345647
   0.18918654  0.91611320  0.67265573
   0.18918654  0.75654353  0.08388680
   0.32699323  0.08508407  0.10430914
   0.32699323  0.01922507  0.91491593
   0.32699323  0.89569086  0.98077493
   0.47991278  0.13657643  0.04895910
   0.47991278  0.91238267  0.86342357
   0.47991278  0.95104090  0.08761733
   0.34213319  0.37764004  0.18749718
   0.34213319  0.80985814  0.62235996
   0.34213319  0.81250282  0.19014186
   0.68849893  0.44918115  0.18906538
   0.68849893  0.73988524  0.55081885
   0.68849893  0.81093462  0.26011476
   0.86293699  0.42418511  0.98308572
   0.86293699  0.55890061  0.57581489
   0.86293699  0.01691428  0.44109939
   0.91096590  0.57834059  0.11512048
   0.91096590  0.53677889  0.42165941
   0.91096590  0.88488052  0.46322111
   0.80203244  0.52684011  0.31351296
   0.80203244  0.78667285  0.47315989
   0.80203244  0.68648704  0.21332715
   0.47699573  0.40714575  0.00630481
   0.47699573  0.59916006  0.59285425
   0.47699573  0.99369519  0.40084094
   0.42529050  0.43521640  0.87890572
   0.42529050  0.44368833  0.56478360
   0.42529050  0.12109428  0.55631167
   0.69922906  0.26349672  0.81084490
   0.69922906  0.54734719  0.73650328
   0.69922906  0.18915510  0.45265281
   0.55918325  0.20677428  0.67552303
   0.55918325  0.46874875  0.79322572
   0.55918325  0.32447697  0.53125125
   0.95363536  0.38820286  0.22897127
   0.95363536  0.84076841  0.61179714
   0.95363536  0.77102873  0.15923159
   0.04427826  0.42909566  0.20589588
   0.04427826  0.77680121  0.57090434
   0.04427826  0.79410412  0.22319879
   0.10976578  0.49400340  0.26469184
   0.10976578  0.77068844  0.50599660
   0.10976578  0.73530816  0.22931156
   0.06471883  0.40113148  0.12352642
   0.06471883  0.72239494  0.59886852
   0.06471883  0.87647358  0.27760506
   0.14896975  0.43776548  0.10047789
   0.14896975  0.66271241  0.56223452
   0.14896975  0.89952211  0.33728759
   0.19453233  0.53025291  0.24144433
   0.19453233  0.71119142  0.46974709
   0.19453233  0.75855567  0.28880858
   0.21537859  0.50281413  0.15893377
   0.21537859  0.65611964  0.49718587
   0.21537859  0.84106623  0.34388036
   0.30781555  0.53861514  0.13323696
   0.30781555  0.59462182  0.46138486
   0.30781555  0.86676304  0.40537818
   0.41378994  0.56272109  0.17536027
   0.41378994  0.61263918  0.43727891
   0.41378994  0.82463973  0.38736082
   0.29378208  0.54646540  0.06400891
   0.29378208  0.51754451  0.45353460
   0.29378208  0.93599109  0.48245549
   0.38478151  0.57250708  0.03476138
   0.38478151  0.46225430  0.42749292
   0.38478151  0.96523862  0.53774570
   0.50407051  0.59036952  0.14695573
   0.50407051  0.55658621  0.40963048
   0.50407051  0.85304427  0.44341379
   0.49197033  0.59256191  0.07485475
   0.49197033  0.48229284  0.40743809
   0.49197033  0.92514525  0.51770716
   0.59489301  0.60985176  0.03795436
   0.59489301  0.42810261  0.39014824
   0.59489301  0.96204564  0.57189739
   0.77745491  0.81413917  0.01538731
   0.77745491  0.20124714  0.18585983
   0.77745491  0.98461269  0.79875286
   0.67222227  0.71349677  0.92556411
   0.67222227  0.21206834  0.28650323
   0.67222227  0.07443589  0.78793166
   0.65080434  0.77792132  0.91451215
   0.65080434  0.13659083  0.22207868
   0.65080434  0.08548785  0.86340917
   0.72128996  0.92151235  0.98600252
   0.72128996  0.06448917  0.07848765
   0.72128996  0.01399748  0.93551083
   0.72132217  0.98577486  0.06582169
   0.72132217  0.08004783  0.01422514
   0.72132217  0.93417831  0.91995217
   0.84196257  0.51392817  0.87320165
   0.84196257  0.35927448  0.48607183
   0.84196257  0.12679835  0.64072552
   0.99254685  0.53839393  0.95151094
   0.99254685  0.41311701  0.46160607
   0.99254685  0.04848906  0.58688299
   0.01685852  0.46866969  0.88024631
   0.01685952  0.41157662  0.53133031
   0.01685852  0.11975369  0.58842338
   0.91270665  0.39243892  0.74757586
   0.91270665  0.35513694  0.60756108
   0.91270665  0.25242414  0.64486306
   0.91248501  0.31115117  0.72716079
   0.91248501  0.41600962  0.68884883
   0.91248501  0.27283921  0.58399038
   0.88901941  0.10213188  0.32289347
   0.88901941  0.22076159  0.89786812
   0.88901941  0.67710653  0.77923841
   0.98545756  0.12551661  0.28579926
   0.98545756  0.16028265  0.87448339
   0.98545756  0.71420074  0.83971735
   0.04323466  0.19945380  0.33182134
   0.04323466  0.13236754  0.80054620
   0.04323466  0.66817866  0.86763246
   0.01685830  0.07541265  0.20424722
   0.01685830  0.12883457  0.92458735
   0.01685830  0.79575278  0.87116543
   0.10337505  0.09925771  0.16953853
   0.10337505  0.07028082  0.90074229
   0.10337505  0.83046147  0.92971918
   0.12789935  0.22405513  0.29669663
   0.12789935  0.07264150  0.77594487
   0.12789935  0.70330337  0.92735850
   0.15926255  0.17460949  0.21478786
   0.15926255  0.04017837  0.82539051
   0.15926255  0.78521214  0.95982163
   0.24827577  0.20281704  0.17881803
   0.24827577  0.97600099  0.79718296
   0.24827577  0.82118197  0.02399901
   0.25393697  0.28540582  0.20190837
   0.25393697  0.91650255  0.71459418
   0.25393697  0.79809163  0.08349745
   0.32962387  0.14921918  0.12225840
   0.32962387  0.97304022  0.85078082
   0.32962387  0.87774160  0.02695978
   0.41565243  0.17794691  0.09158794
   0.41565243  0.91364103  0.82205309
   0.41565243  0.90841206  0.08635897
   0.33873738  0.31388915  0.17058109
   0.33873738  0.85669194  0.68611085
   0.33873738  0.82941891  0.14330806
   0.42134457  0.26064012  0.11579298
   0.42134557  0.85515286  0.73935988
   0.42134557  0.88420702  0.14484714
   0.51261127  0.29393014  0.08459715
   0.51261127  0.79066801  0.70606986
   0.51261127  0.91540285  0.20933199
   0.74421481  0.46165848  0.15073020
   0.74421481  0.68907172  0.53834152
   0.74421481  0.84926980  0.31092828
   0.83397695  0.45305847  0.04554235
   0.83397695  0.59248389  0.54694153
   0.83397695  0.95445765  0.40751611
   0.85936120  0.52812545  0.10945017
   0.85936120  0.58132472  0.47187455
   0.85936120  0.89054983  0.41867528
   0.80259313  0.60031612  0.25566520
   0.80259313  0.65534907  0.39968388
   0.80259313  0.74433480  0.34465093
   0.80260456  0.58770291  0.32181062
   0.80260456  0.73410771  0.41229709
   0.80260456  0.67818938  0.26589229
   0.51291412  0.38089213  0.94566840
   0.51291412  0.56477627  0.61910787
   0.51291412  0.05433160  0.43522373
   0.48639366  0.39464282  0.88353650
   0.48639366  0.48889267  0.60535718
   0.48639366  0.11646350  0.51110733
   0.62756317  0.30274944  0.84485277
   0.62756317  0.54210333  0.69725056
   0.62756317  0.15514723  0.45789667
   0.56194376  0.33857414  0.74217093
   0.56194376  0.40359679  0.66142586
   0.56194376  0.25782907  0.59640321
   0.56183302  0.26223262  0.67199021
   0.56183302  0.40975759  0.73776738
   0.56183302  0.32800979  0.59024241
   0.75171510  0.73677312  0.98805038
   0.75171510  0.25127726  0.26322688
   0.75171510  0.01194962  0.74872274
   0.71790416  0.84118806  0.97198816
   0.71790416  0.13080010  0.15881194
   0.71790416  0.02801184  0.86919990
   0.88330577  0.56521560  0.94619622
   0.88330577  0.38098062  0.43478440
   0.88330577  0.05380378  0.61901938
   0.92051109  0.45398620  0.83087956
   0.92051109  0.37689336  0.54601380
   0.92051109  0.16912044  0.62310664
   0.76204090  0.41287608  0.07215626
   0.76204090  0.65927919  0.58712392
   0.76204090  0.92784374  0.34072081
   0.80253118  0.53269732  0.17595344
   0.80253118  0.64325713  0.46730268
   0.80253118  0.82404656  0.35674287
   0.60144144  0.32421796  0.92079135
   0.60144144  0.59657339  0.67578204
   0.60144144  0.07920865  0.40342661
   0.55899880  0.34439078  0.81943432
   0.55899780  0.47504454  0.65561022
   0.55899780  0.18056568  0.52495546
   0.67672377  0.65161691  0.08866056
   0.67672377  0.43704265  0.34838309
   0.67672377  0.91133944  0.56295735
   0.59900162  0.58209846  0.96259725
   0.59900162  0.38049879  0.41790154
   0.59900162  0.03740275  0.61950121
   0.94052541  0.41667164  0.30685529
   0.94052541  0.89018365  0.58332936
   0.94052541  0.69314471  0.10981635
   0.89486355  0.33132972  0.17587520
   0.89486355  0.84454547  0.66867028
   0.89486355  0.82412480  0.15545453
   0.51141866  0.36724835  0.10405384
   0.51141866  0.73680449  0.63275165
   0.51141866  0.89594616  0.26319551
   0.59149966  0.24297478  0.03681597
   0.59149966  0.79384119  0.75702522
   0.59149966  0.96318403  0.20615881
   0.82624727  0.04229196  0.27119848
   0.82624727  0.22890652  0.95770804
   0.82624727  0.72880152  0.77109348
   0.87325969  0.14065773  0.39858707
   0.87325969  0.25792934  0.85934227
   0.87325969  0.60141293  0.74207066
unknown system                          
           1
     0.000000    0.000000  -11.520150
    -9.520193  -16.489458    0.000000
    -9.520193   16.489458   -0.000000
   Zn   H    C    N    O 
   6  96 144  24  24
Direct configuration=    50
   0.80901975  0.67012178  0.03412467
   0.80901975  0.36400289  0.32987822
   0.80901975  0.96587533  0.63599711
   0.69315973  0.30286311  0.00051160
   0.69315973  0.69764949  0.69713689
   0.69315973  0.99948840  0.30235051
   0.09384883  0.51566687  0.32869570
   0.09384883  0.81302883  0.48433313
   0.09384883  0.67130430  0.18697117
   0.01392492  0.34985266  0.07867395
   0.01392492  0.72882128  0.65014734
   0.01392592  0.92132605  0.27117872
   0.16655618  0.41424755  0.03622048
   0.16655618  0.62197194  0.58575245
   0.16655618  0.96377952  0.37802806
   0.24506098  0.58045022  0.28778740
   0.24506098  0.70733718  0.41954978
   0.24506098  0.71221260  0.29266282
   0.42713273  0.55559339  0.22819130
   0.42713273  0.67259791  0.44440661
   0.42713273  0.77180870  0.32740209
   0.21018755  0.53105013  0.03283198
   0.21018755  0.50178085  0.46894987
   0.21018755  0.96716802  0.49821915
   0.37493195  0.57738711  0.98031913
   0.37493195  0.40293202  0.42261289
   0.37493195  0.01968087  0.59706898
   0.58704687  0.60764905  0.17856178
   0.58704687  0.57091273  0.39235095
   0.58704687  0.82143822  0.42908727
   0.83602341  0.85002746  0.06522651
   0.83602341  0.21519906  0.14997254
   0.83602341  0.93477349  0.78480094
   0.63357001  0.65369190  0.89678739
   0.63357001  0.24309549  0.34630810
   0.63357001  0.10321261  0.75690451
   0.59610204  0.78540903  0.87232923
   0.59610204  0.08692020  0.21459097
   0.59610204  0.12767077  0.91307980
   0.71707703  0.97491694  0.11681534
   0.71707703  0.14189840  0.02508306
   0.71707703  0.88318466  0.85810160
   0.75685712  0.51720952  0.85101067
   0.75685712  0.33380115  0.48279048
   0.75685712  0.14898933  0.66619885
   0.04431870  0.57194868  0.00586665
   0.04431870  0.43391797  0.42805132
   0.04431870  0.99413335  0.56608203
   0.09130795  0.42856116  0.85958485
   0.09130795  0.43102369  0.57143884
   0.09130795  0.14041515  0.56897631
   0.91392075  0.29370251  0.77403705
   0.91392075  0.48033454  0.70629749
   0.91392075  0.22596295  0.51966546
   0.01948602  0.23770227  0.39539671
   0.01948602  0.15769544  0.76229773
   0.01948602  0.60460329  0.84230456
   0.97201411  0.01776826  0.16876229
   0.97201411  0.15099303  0.98223174
   0.97201411  0.83123871  0.84900697
   0.12624121  0.06012179  0.10594258
   0.12624121  0.04582079  0.93987821
   0.12624121  0.89405742  0.95417921
   0.17218335  0.28193460  0.33315965
   0.17218335  0.05122505  0.71806540
   0.17218335  0.66684035  0.94877495
   0.18925992  0.32738862  0.24354769
   0.18925992  0.91616007  0.67261138
   0.18925992  0.75645231  0.08383993
   0.32711752  0.08510461  0.10439563
   0.32711752  0.01929102  0.91489539
   0.32711752  0.89560437  0.98070898
   0.47999347  0.13658750  0.04897895
   0.47999347  0.91239145  0.86341250
   0.47999347  0.95102105  0.08760855
   0.34224215  0.37767620  0.18759187
   0.34224215  0.80991667  0.62232380
   0.34224215  0.81240813  0.19008333
   0.68849288  0.44913504  0.18906442
   0.68849288  0.73993037  0.55086496
   0.68849288  0.81093558  0.26006963
   0.86295132  0.42416456  0.98307636
   0.86295132  0.55891180  0.57583544
   0.86295132  0.01692364  0.44108820
   0.91094088  0.57832006  0.11511390
   0.91094088  0.53679285  0.42167994
   0.91094088  0.88488710  0.46320715
   0.80203748  0.52682680  0.31351263
   0.80203748  0.78668583  0.47317320
   0.80203748  0.68648737  0.21331417
   0.47696932  0.40711755  0.00629879
   0.47696932  0.59918224  0.59288245
   0.47696932  0.99370121  0.40081876
   0.42519882  0.43517606  0.87889205
   0.42519882  0.44371499  0.56482394
   0.42519882  0.12110795  0.55628501
   0.69927108  0.26348663  0.81083020
   0.69927108  0.54734257  0.73651337
   0.69927108  0.18916980  0.45265743
   0.55917904  0.20675382  0.67550919
   0.55917904  0.46875536  0.79324618
   0.55917904  0.32449081  0.53124464
   0.95362641  0.38814593  0.22891479
   0.95362641  0.84076886  0.61185407
   0.95362641  0.77108521  0.15923114
   0.04425403  0.42903825  0.20585464
   0.04425403  0.77681738  0.57096175
   0.04425403  0.79414536  0.22318262
   0.10972331  0.49400307  0.26465841
   0.10972331  0.77065534  0.50599693
   0.10972331  0.73534159  0.22934466
   0.06475210  0.40109678  0.12349783
   0.06475210  0.72240105  0.59890322
   0.06475210  0.87650217  0.27759895
   0.14899696  0.43776125  0.10044256
   0.14899696  0.66268132  0.56223875
   0.14899696  0.89955744  0.33731868
   0.19451077  0.53021697  0.24139046
   0.19451077  0.71117349  0.46978303
   0.19451077  0.75860954  0.28882651
   0.21539850  0.50279087  0.15887279
   0.21539850  0.65608192  0.49720913
   0.21539850  0.84112721  0.34391808
   0.30774822  0.53860748  0.13322941
   0.30774822  0.59462193  0.46139252
   0.30774822  0.86677059  0.40537807
   0.41373799  0.56273235  0.17533074
   0.41373799  0.61259838  0.43726765
   0.41373799  0.82466926  0.38740162
   0.29375129  0.54644075  0.06397505
   0.29375129  0.51753529  0.45355925
   0.29375129  0.93602495  0.48246471
   0.38477145  0.57249695  0.03474821
   0.38477145  0.46225126  0.42750305
   0.38477145  0.96525179  0.53774874
   0.50403770  0.59034289  0.14693247
   0.50403770  0.55658958  0.40965711
   0.50403770  0.85306753  0.44341042
   0.49195195  0.59256400  0.07481687
   0.49195195  0.48225288  0.40743600
   0.49195195  0.92518313  0.51774712
   0.59486549  0.60983452  0.03793903
   0.59486549  0.42810452  0.39016548
   0.59486549  0.96206097  0.57189548
   0.77742621  0.81411904  0.01535050
   0.77742621  0.20123046  0.18587996
   0.77742621  0.98464950  0.79876954
   0.67212530  0.71347261  0.92553349
   0.67212530  0.21206188  0.28652739
   0.67212530  0.07446651  0.78793812
   0.65070678  0.77792213  0.91451062
   0.65070678  0.13658849  0.22207787
   0.65070678  0.08548938  0.86341151
   0.72120163  0.92150481  0.98599048
   0.72120163  0.06448467  0.07849519
   0.72120163  0.01400952  0.93551533
   0.72123983  0.98575913  0.06581244
   0.72123983  0.08005431  0.01424087
   0.72123983  0.93418756  0.91994569
   0.84200129  0.51396156  0.87319910
   0.84200129  0.35923854  0.48603844
   0.84200129  0.12680090  0.64076146
   0.99249951  0.53834377  0.95154144
   0.99249951  0.41319766  0.46165623
   0.99249951  0.04845856  0.58680234
   0.01683031  0.46860998  0.88030756
   0.01683131  0.41169758  0.53139002
   0.01683031  0.11969244  0.58830242
   0.91281762  0.39243770  0.74758601
   0.91281762  0.35514831  0.60756230
   0.91281762  0.25241399  0.64485169
   0.91255759  0.31112405  0.72714802
   0.91255759  0.41602397  0.68887595
   0.91255759  0.27285198  0.58397603
   0.88905962  0.10218773  0.32296270
   0.88905962  0.22077497  0.89781227
   0.88905962  0.67703730  0.77922503
   0.98550867  0.12557102  0.28585647
   0.98550867  0.16028544  0.87442898
   0.98550867  0.71414353  0.83971456
   0.04331835  0.19947939  0.33187426
   0.04331835  0.13239487  0.80052061
   0.04331835  0.66812574  0.86760513
   0.01690571  0.07547228  0.20431792
   0.01690571  0.12884563  0.92452772
   0.01690571  0.79568208  0.87115437
   0.10344354  0.09934254  0.16961123
   0.10344354  0.07026869  0.90065746
   0.10344354  0.83038877  0.92973131
   0.12795695  0.22406513  0.29677214
   0.12795695  0.07270702  0.77593487
   0.12795695  0.70322786  0.92729298
   0.15934238  0.17466932  0.21487550
   0.15934238  0.04020618  0.82533068
   0.15934238  0.78512450  0.95979382
   0.24832297  0.20284482  0.17888317
   0.24832297  0.97603835  0.79715518
   0.24832297  0.82111683  0.02396165
   0.25402273  0.28545448  0.20197574
   0.25402273  0.91652127  0.71454552
   0.25402273  0.79802426  0.08347873
   0.32970799  0.14927119  0.12233456
   0.32970799  0.97306437  0.85072881
   0.32970799  0.87766544  0.02693563
   0.41565701  0.17795769  0.09163746
   0.41565701  0.91367977  0.82204231
   0.41565701  0.90836254  0.08632023
   0.33880485  0.31392217  0.17064782
   0.33880485  0.85672565  0.68607783
   0.33880485  0.82935218  0.14327435
   0.42136833  0.26063199  0.11581017
   0.42136933  0.85517818  0.73936801
   0.42136933  0.88418983  0.14482182
   0.51262781  0.29396615  0.08463179
   0.51262781  0.79066663  0.70603385
   0.51262781  0.91536821  0.20933337
   0.74421926  0.46163228  0.15072714
   0.74421926  0.68909485  0.53836772
   0.74421926  0.84927286  0.31090515
   0.83401862  0.45304126  0.04552566
   0.83401862  0.59248440  0.54695874
   0.83401862  0.95447434  0.40751560
   0.85935878  0.52814314  0.10946341
   0.85935878  0.58132027  0.47185686
   0.85935878  0.89053659  0.41867973
   0.80256123  0.60032003  0.25566255
   0.80256123  0.65534252  0.39967997
   0.80256123  0.74433745  0.34465748
   0.80255405  0.58769799  0.32180348
   0.80255405  0.73410549  0.41230201
   0.80255405  0.67819652  0.26589451
   0.51286825  0.38087350  0.94567935
   0.51286825  0.56480585  0.61912650
   0.51286825  0.05432065  0.43519415
   0.48633733  0.39462332  0.88353675
   0.48633733  0.48891243  0.60537668
   0.48633733  0.11646325  0.51108757
   0.62756365  0.30275366  0.84485380
   0.62756365  0.54210014  0.69724634
   0.62756365  0.15514620  0.45789986
   0.56188137  0.33855163  0.74217500
   0.56188137  0.40362336  0.66144837
   0.56188137  0.25782500  0.59637664
   0.56180968  0.26223588  0.67199819
   0.56180968  0.40976231  0.73776412
   0.56180968  0.32800181  0.59023769
   0.75163608  0.73675600  0.98802876
   0.75163608  0.25127276  0.26324400
   0.75163608  0.01197124  0.74872724
   0.71780559  0.84117311  0.97196633
   0.71780559  0.13079322  0.15882689
   0.71780559  0.02803367  0.86920678
   0.88335780  0.56523925  0.94619232
   0.88335780  0.38095307  0.43476075
   0.88335780  0.05380768  0.61904693
   0.92054848  0.45397694  0.83089153
   0.92054848  0.37691459  0.54602306
   0.92054848  0.16910847  0.62308541
   0.76206531  0.41285277  0.07213221
   0.76206531  0.65927844  0.58714723
   0.76206531  0.92786779  0.34072156
   0.80253620  0.53267112  0.17593559
   0.80253620  0.64326547  0.46732888
   0.80253620  0.82406441  0.35673453
   0.60140371  0.32419294  0.92078867
   0.60140371  0.59659574  0.67580706
   0.60140371  0.07921133  0.40340426
   0.55893488  0.34436221  0.81943162
   0.55893388  0.47507041  0.65563879
   0.55893388  0.18056838  0.52492959
   0.67673813  0.65155333  0.08860163
   0.67673813  0.43704730  0.34844667
   0.67673813  0.91139837  0.56295270
   0.59896992  0.58210906  0.96259886
   0.59896992  0.38048980  0.41789094
   0.59896992  0.03740114  0.61951020
   0.94045371  0.41665062  0.30680169
   0.94045371  0.89015108  0.58335038
   0.94045371  0.69319831  0.10984892
   0.89492215  0.33126284  0.17586371
   0.89492215  0.84460087  0.66873716
   0.89492215  0.82413629  0.15539913
   0.51145390  0.36727337  0.10406275
   0.51145390  0.73678838  0.63272663
   0.51145390  0.89593725  0.26321162
   0.59151114  0.24298388  0.03681270
   0.59151114  0.79382881  0.75701612
   0.59151114  0.96318730  0.20617119
   0.82627388  0.04234900  0.27127514
   0.82627388  0.22892614  0.95765100
   0.82627388  0.72872486  0.77107386
   0.87326965  0.14067889  0.39862932
   0.87326965  0.25795043  0.85932111
   0.87326965  0.60137068  0.74204957
unknown system                          
           1
     0.000000    0.000000  -11.520737
    -9.520214  -16.489494    0.000000
    -9.520214   16.489494   -0.000000
   Zn   H    C    N    O 
   6  96 144  24  24
Direct configuration=    51
   0.80900773  0.67011818  0.03411935
   0.80900773  0.36400116  0.32988182
   0.80900773  0.96588065  0.63599884
   0.69317851  0.30285399  0.00050023
   0.69317851  0.69764724  0.69714601
   0.69317851  0.99949977  0.30235276
   0.09378960  0.51567242  0.32868501
   0.09378960  0.81301259  0.48432758
   0.09378960  0.67131499  0.18698741
   0.01392909  0.34980296  0.07864298
   0.01392909  0.72884002  0.65019704
   0.01393009  0.92135702  0.27115998
   0.16655350  0.41422793  0.03619232
   0.16655350  0.62196339  0.58577207
   0.16655350  0.96380768  0.37803661
   0.24504823  0.58044539  0.28777044
   0.24504823  0.70732505  0.41955461
   0.24504823  0.71222956  0.29267495
   0.42711801  0.55559998  0.22820048
   0.42711801  0.67260050  0.44440002
   0.42711801  0.77179952  0.32739950
   0.21014949  0.53102793  0.03279103
   0.21014949  0.50176210  0.46897207
   0.21014949  0.96720897  0.49823790
   0.37492043  0.57738533  0.98029229
   0.37492043  0.40290696  0.42261467
   0.37492043  0.01970771  0.59709404
   0.58706883  0.60761600  0.17854373
   0.58706883  0.57092773  0.39238400
   0.58706883  0.82145627  0.42907227
   0.83603882  0.85001163  0.06520190
   0.83603882  0.21519027  0.14998837
   0.83603882  0.93479810  0.78480973
   0.63352813  0.65368312  0.89677061
   0.63352813  0.24308749  0.34631688
   0.63352813  0.10322939  0.75691251
   0.59603812  0.78540950  0.87233397
   0.59603812  0.08692448  0.21459050
   0.59603812  0.12766603  0.91307552
   0.71705609  0.97490435  0.11681144
   0.71705609  0.14190709  0.02509565
   0.71705609  0.88318856  0.85809291
   0.75689057  0.51723607  0.85097053
   0.75689057  0.33373446  0.48276393
   0.75689057  0.14902947  0.66626554
   0.04426750  0.57190827  0.00590846
   0.04426750  0.43400020  0.42809173
   0.04426750  0.99409154  0.56599980
   0.09128234  0.42850878  0.85962720
   0.09128234  0.43111842  0.57149122
   0.09128234  0.14037280  0.56888158
   0.91394482  0.29367046  0.77401918
   0.91394482  0.48034872  0.70632954
   0.91394482  0.22598082  0.51965128
   0.01955387  0.23770815  0.39545109
   0.01955387  0.15774395  0.76229185
   0.01955387  0.60454891  0.84225605
   0.97200289  0.01780953  0.16879993
   0.97200289  0.15098940  0.98219047
   0.97200289  0.83120107  0.84901060
   0.12626701  0.06015422  0.10598843
   0.12626701  0.04583421  0.93984578
   0.12626701  0.89401157  0.95416579
   0.17222578  0.28195813  0.33320891
   0.17222578  0.05125078  0.71804187
   0.17222578  0.66679109  0.94874922
   0.18929780  0.32741152  0.24359478
   0.18929780  0.91618426  0.67258848
   0.18929780  0.75640522  0.08381574
   0.32718169  0.08511521  0.10444028
   0.32718169  0.01932507  0.91488479
   0.32718169  0.89555972  0.98067493
   0.48003512  0.13659322  0.04898920
   0.48003512  0.91239598  0.86340678
   0.48003512  0.95101080  0.08760402
   0.34229839  0.37769487  0.18764077
   0.34229839  0.80994689  0.62230513
   0.34229839  0.81235923  0.19005311
   0.68848975  0.44911124  0.18906392
   0.68848975  0.73995367  0.55088876
   0.68848975  0.81093608  0.26004633
   0.86295872  0.42415395  0.98307153
   0.86295872  0.55891758  0.57584605
   0.86295872  0.01692847  0.44108242
   0.91092796  0.57830945  0.11511051
   0.91092796  0.53680005  0.42169055
   0.91092796  0.88489049  0.46319995
   0.80204008  0.52681992  0.31351246
   0.80204008  0.78669254  0.47318008
   0.80204008  0.68648754  0.21330746
   0.47695568  0.40710299  0.00629569
   0.47695568  0.59919370  0.59289701
   0.47695568  0.99370431  0.40080730
   0.42515149  0.43515524  0.87888499
   0.42515149  0.44372875  0.56484476
   0.42515149  0.12111501  0.55627125
   0.69929278  0.26348143  0.81082261
   0.69929278  0.54734018  0.73651857
   0.69929278  0.18917739  0.45265982
   0.55917686  0.20674326  0.67550204
   0.55917686  0.46875878  0.79325674
   0.55917686  0.32449796  0.53124122
   0.95362178  0.38811654  0.22888564
   0.95362178  0.84076910  0.61188346
   0.95362178  0.77111436  0.15923090
   0.04424151  0.42900861  0.20583334
   0.04424151  0.77682573  0.57099139
   0.04424151  0.79416666  0.22317427
   0.10970138  0.49400289  0.26464115
   0.10970138  0.77063825  0.50599711
   0.10970138  0.73535885  0.22936175
   0.06476928  0.40107887  0.12348307
   0.06476928  0.72240420  0.59892113
   0.06476928  0.87651693  0.27759580
   0.14901100  0.43775906  0.10042433
   0.14901100  0.66266526  0.56224094
   0.14901100  0.89957567  0.33733474
   0.19449964  0.53019841  0.24136265
   0.19449964  0.71116424  0.46980159
   0.19449964  0.75863735  0.28883576
   0.21540878  0.50277886  0.15884131
   0.21540878  0.65606245  0.49722114
   0.21540878  0.84115869  0.34393755
   0.30771346  0.53860353  0.13322551
   0.30771346  0.59462198  0.46139647
   0.30771346  0.86677449  0.40537802
   0.41371118  0.56273817  0.17531549
   0.41371118  0.61257732  0.43726183
   0.41371118  0.82468451  0.38742268
   0.29373539  0.54642803  0.06395756
   0.29373539  0.51753053  0.45357197
   0.29373539  0.93604244  0.48246947
   0.38476626  0.57249173  0.03474141
   0.38476626  0.46224968  0.42750827
   0.38476626  0.96525859  0.53775032
   0.50402077  0.59032914  0.14692047
   0.50402077  0.55659132  0.40967086
   0.50402077  0.85307953  0.44340868
   0.49194247  0.59256508  0.07479732
   0.49194247  0.48223224  0.40743492
   0.49194247  0.92520268  0.51776776
   0.59485129  0.60982562  0.03793112
   0.59485129  0.42810550  0.39017438
   0.59485129  0.96206888  0.57189450
   0.77741140  0.81410865  0.01533150
   0.77741140  0.20122185  0.18589035
   0.77741140  0.98466850  0.79877815
   0.67207525  0.71346014  0.92551768
   0.67207525  0.21205854  0.28653986
   0.67207525  0.07448232  0.78794146
   0.65065641  0.77792255  0.91450983
   0.65065641  0.13658728  0.22207745
   0.65065641  0.08549017  0.86341272
   0.72115603  0.92150091  0.98598426
   0.72115603  0.06448234  0.07849909
   0.72115603  0.01401574  0.93551766
   0.72119732  0.98575101  0.06580767
   0.72119732  0.08005766  0.01424899
   0.72119732  0.93419233  0.91994234
   0.84202128  0.51397881  0.87319779
   0.84202128  0.35921998  0.48602119
   0.84202128  0.12680221  0.64078002
   0.99247508  0.53831788  0.95155718
   0.99247508  0.41323930  0.46168212
   0.99247508  0.04844282  0.58676070
   0.01681575  0.46857915  0.88033918
   0.01681675  0.41176003  0.53142085
   0.01681575  0.11966082  0.58823997
   0.91287491  0.39243707  0.74759125
   0.91287491  0.35515418  0.60756293
   0.91287491  0.25240875  0.64484582
   0.91259507  0.31111004  0.72714142
   0.91259507  0.41603138  0.68888996
   0.91259507  0.27285858  0.58396862
   0.88908038  0.10221657  0.32299844
   0.88908038  0.22078187  0.89778343
   0.88908038  0.67700156  0.77921813
   0.98553506  0.12559912  0.28588600
   0.98553506  0.16028688  0.87440088
   0.98553506  0.71411400  0.83971312
   0.04336155  0.19949261  0.33190158
   0.04336155  0.13240898  0.80050739
   0.04336155  0.66809842  0.86759102
   0.01693019  0.07550307  0.20435442
   0.01693019  0.12885135  0.92449693
   0.01693019  0.79564558  0.87114865
   0.10347889  0.09938634  0.16964877
   0.10347889  0.07026243  0.90061366
   0.10347889  0.83035123  0.92973757
   0.12798669  0.22407029  0.29681113
   0.12798669  0.07274084  0.77592971
   0.12798669  0.70318887  0.92725916
   0.15938360  0.17470021  0.21492075
   0.15938360  0.04022054  0.82529979
   0.15938360  0.78507925  0.95977946
   0.24834734  0.20285916  0.17891681
   0.24834734  0.97605764  0.79714084
   0.24834734  0.82108319  0.02394236
   0.25406701  0.28547960  0.20201053
   0.25406701  0.91653093  0.71452040
   0.25406701  0.79798947  0.08346907
   0.32975141  0.14929804  0.12237388
   0.32975141  0.97307684  0.85070196
   0.32975141  0.87762612  0.02692316
   0.41565938  0.17796325  0.09166303
   0.41565938  0.91369978  0.82203675
   0.41565938  0.90833697  0.08630022
   0.33883969  0.31393922  0.17068228
   0.33883969  0.85674305  0.68606078
   0.33883969  0.82931772  0.14325695
   0.42138059  0.26062780  0.11581905
   0.42138159  0.85519125  0.73937220
   0.42138159  0.88418095  0.14480875
   0.51263635  0.29398475  0.08464967
   0.51263635  0.79066592  0.70601525
   0.51263635  0.91535033  0.20933408
   0.74422156  0.46161876  0.15072556
   0.74422156  0.68910680  0.53838124
   0.74422156  0.84927444  0.31089320
   0.83404013  0.45303238  0.04551705
   0.83404013  0.59248467  0.54696762
   0.83404013  0.95448295  0.40751533
   0.85935753  0.52815227  0.10947024
   0.85935753  0.58131797  0.47184773
   0.85935753  0.89052976  0.41868203
   0.80254476  0.60032205  0.25566119
   0.80254476  0.65533913  0.39967795
   0.80254476  0.74433881  0.34466087
   0.80252798  0.58769545  0.32179979
   0.80252798  0.73410435  0.41230455
   0.80252798  0.67820021  0.26589565
   0.51284458  0.38086388  0.94568501
   0.51284458  0.56482113  0.61913612
   0.51284458  0.05431499  0.43517887
   0.48630825  0.39461325  0.88353688
   0.48630825  0.48892263  0.60538675
   0.48630825  0.11646312  0.51107737
   0.62756390  0.30275584  0.84485433
   0.62756390  0.54209849  0.69724416
   0.62756390  0.15514567  0.45790151
   0.56184916  0.33854001  0.74217710
   0.56184916  0.40363708  0.66145999
   0.56184916  0.25782290  0.59636292
   0.56179763  0.26223756  0.67200231
   0.56179763  0.40976474  0.73776244
   0.56179763  0.32799769  0.59023526
   0.75159529  0.73674715  0.98801760
   0.75159529  0.25127045  0.26325285
   0.75159529  0.01198240  0.74872955
   0.71775471  0.84116539  0.97195506
   0.71775471  0.13078967  0.15883461
   0.71775471  0.02804494  0.86921033
   0.88338466  0.56525146  0.94619031
   0.88338466  0.38093885  0.43474854
   0.88338466  0.05380969  0.61906115
   0.92056778  0.45397215  0.83089771
   0.92056778  0.37692556  0.54602785
   0.92056778  0.16910229  0.62307444
   0.76207791  0.41284074  0.07211980
   0.76207791  0.65927806  0.58715926
   0.76207791  0.92788020  0.34072194
   0.80253879  0.53265759  0.17592637
   0.80253879  0.64326978  0.46734241
   0.80253879  0.82407363  0.35673022
   0.60138423  0.32418002  0.92078729
   0.60138423  0.59660728  0.67581998
   0.60138423  0.07921271  0.40339272
   0.55890188  0.34434745  0.81943022
   0.55890088  0.47508377  0.65565355
   0.55890088  0.18056978  0.52491623
   0.67674555  0.65152050  0.08857121
   0.67674555  0.43704970  0.34847950
   0.67674555  0.91142879  0.56295030
   0.59895355  0.58211454  0.96259970
   0.59895355  0.38048516  0.41788546
   0.59895355  0.03740030  0.61951484
   0.94041669  0.41663976  0.30677402
   0.94041669  0.89013426  0.58336124
   0.94041669  0.69322598  0.10986574
   0.89495240  0.33122831  0.17585778
   0.89495240  0.84462947  0.66877169
   0.89495240  0.82414222  0.15537053
   0.51147209  0.36728628  0.10406735
   0.51147209  0.73678007  0.63271372
   0.51147209  0.89593265  0.26321993
   0.59151707  0.24298858  0.03681100
   0.59151707  0.79382242  0.75701142
   0.59151707  0.96318900  0.20617758
   0.82628761  0.04237845  0.27131472
   0.82628761  0.22893627  0.95762155
   0.82628761  0.72868528  0.77106373
   0.87327479  0.14068981  0.39865113
   0.87327479  0.25796132  0.85931019
   0.87327479  0.60134887  0.74203868
unknown system                          
           1
     0.000000    0.000000  -11.521407
    -9.519717  -16.488634    0.000000
    -9.519717   16.488634   -0.000000
   Zn   H    C    N    O 
   6  96 144  24  24
Direct configuration=    52
   0.80897372  0.67011058  0.03411533
   0.80897372  0.36400475  0.32988942
   0.80897372  0.96588467  0.63599525
   0.69321905  0.30283575  0.00047669
   0.69321905  0.69764194  0.69716425
   0.69321905  0.99952331  0.30235806
   0.09368733  0.51568350  0.32864551
   0.09368733  0.81296201  0.48431650
   0.09368733  0.67135449  0.18703799
   0.01398295  0.34975105  0.07862267
   0.01398295  0.72887162  0.65024895
   0.01398395  0.92137733  0.27112838
   0.16655642  0.41418777  0.03613277
   0.16655642  0.62194400  0.58581223
   0.16655642  0.96386723  0.37805600
   0.24502170  0.58042379  0.28771822
   0.24502170  0.70729443  0.41957621
   0.24502170  0.71228178  0.29270557
   0.42707386  0.55562121  0.22818174
   0.42707386  0.67256053  0.44437879
   0.42707386  0.77181826  0.32743947
   0.21012734  0.53098705  0.03273024
   0.21012734  0.50174219  0.46901295
   0.21012734  0.96726976  0.49825781
   0.37490769  0.57737509  0.98027659
   0.37490769  0.40290151  0.42262491
   0.37490769  0.01972341  0.59709949
   0.58705520  0.60753553  0.17848293
   0.58705520  0.57094740  0.39246447
   0.58705520  0.82151707  0.42905260
   0.83606333  0.84996881  0.06514159
   0.83606333  0.21517278  0.15003119
   0.83606333  0.93485841  0.78482722
   0.63343858  0.65365541  0.89672321
   0.63343858  0.24306780  0.34634459
   0.63343858  0.10327679  0.75693220
   0.59590184  0.78541276  0.87233462
   0.59590184  0.08692187  0.21458724
   0.59590184  0.12766538  0.91307813
   0.71702323  0.97488399  0.11679797
   0.71702323  0.14191398  0.02511601
   0.71702323  0.88320203  0.85808602
   0.75695419  0.51728710  0.85089181
   0.75695419  0.33360471  0.48271290
   0.75695419  0.14910819  0.66639529
   0.04415681  0.57183002  0.00598171
   0.04415681  0.43415169  0.42816998
   0.04415681  0.99401829  0.56584831
   0.09123230  0.42841707  0.85970797
   0.09123230  0.43129090  0.57158293
   0.09123230  0.14029203  0.56870910
   0.91399379  0.29359466  0.77398575
   0.91399379  0.48039109  0.70640534
   0.91399379  0.22601425  0.51960891
   0.01970115  0.23769575  0.39552475
   0.01970115  0.15783001  0.76230425
   0.01970115  0.60447525  0.84216999
   0.97199534  0.01791080  0.16888378
   0.97199534  0.15097198  0.98208920
   0.97199534  0.83111722  0.84902802
   0.12632521  0.06020657  0.10606351
   0.12632521  0.04585694  0.93979343
   0.12632521  0.89393649  0.95414306
   0.17228580  0.28199080  0.33329312
   0.17228580  0.05130231  0.71800920
   0.17228580  0.66670688  0.94869769
   0.18938996  0.32744787  0.24368652
   0.18938996  0.91623965  0.67255213
   0.18938996  0.75631348  0.08376035
   0.32732310  0.08515131  0.10453669
   0.32732310  0.01938537  0.91484869
   0.32732310  0.89546331  0.98061463
   0.48008864  0.13662855  0.04903410
   0.48008864  0.91240555  0.86337145
   0.48008864  0.95096590  0.08759445
   0.34241769  0.37772427  0.18774296
   0.34241769  0.81001969  0.62227573
   0.34241769  0.81225704  0.18998031
   0.68849530  0.44906577  0.18906144
   0.68849530  0.73999667  0.55093423
   0.68849530  0.81093856  0.26000333
   0.86297588  0.42412271  0.98304032
   0.86297588  0.55891760  0.57587729
   0.86297588  0.01695968  0.44108240
   0.91092529  0.57830118  0.11510184
   0.91092529  0.53679965  0.42169882
   0.91092529  0.88489916  0.46320035
   0.80204955  0.52680988  0.31350924
   0.80204955  0.78669936  0.47319012
   0.80204955  0.68649076  0.21330064
   0.47691955  0.40708028  0.00630197
   0.47691955  0.59922269  0.59291972
   0.47691955  0.99369803  0.40077831
   0.42505980  0.43511276  0.87887047
   0.42505980  0.44375671  0.56488724
   0.42505980  0.12112953  0.55624329
   0.69933060  0.26347550  0.81081326
   0.69933060  0.54733676  0.73652450
   0.69933060  0.18918674  0.45266324
   0.55917927  0.20673348  0.67548808
   0.55917927  0.46875460  0.79326652
   0.55917927  0.32451192  0.53124540
   0.95365566  0.38808423  0.22884968
   0.95365566  0.84076545  0.61191577
   0.95365566  0.77115032  0.15923455
   0.04424850  0.42895377  0.20577915
   0.04424850  0.77682638  0.57104623
   0.04424850  0.79422085  0.22317362
   0.10963204  0.49399456  0.26459195
   0.10963204  0.77059739  0.50600544
   0.10963204  0.73540805  0.22940261
   0.06477046  0.40101537  0.12344310
   0.06477046  0.72242772  0.59898463
   0.06477046  0.87655690  0.27757228
   0.14898969  0.43773119  0.10038492
   0.14898969  0.66265373  0.56226881
   0.14898969  0.89961508  0.33734627
   0.19449767  0.53017165  0.24132409
   0.19449767  0.71115244  0.46982835
   0.19449767  0.75867591  0.28884756
   0.21544316  0.50276372  0.15880713
   0.21544316  0.65604341  0.49723628
   0.21544316  0.84119287  0.34395659
   0.30768018  0.53861765  0.13319750
   0.30768018  0.59457985  0.46138235
   0.30768018  0.86680250  0.40542015
   0.41365664  0.56275146  0.17531577
   0.41365664  0.61256432  0.43724854
   0.41365664  0.82468423  0.38743568
   0.29367720  0.54639840  0.06392352
   0.29367720  0.51752613  0.45360160
   0.29367720  0.93607648  0.48247387
   0.38474150  0.57248295  0.03471567
   0.38474150  0.46223272  0.42751705
   0.38474150  0.96528433  0.53776728
   0.50400235  0.59030053  0.14688409
   0.50400235  0.55658356  0.40969947
   0.50400235  0.85311591  0.44341644
   0.49192216  0.59256879  0.07479216
   0.49192216  0.48222337  0.40743121
   0.49192216  0.92520784  0.51777663
   0.59482604  0.60981226  0.03791447
   0.59482604  0.42810220  0.39018774
   0.59482604  0.96208553  0.57189780
   0.77737392  0.81408139  0.01528973
   0.77737392  0.20120734  0.18591761
   0.77737392  0.98471027  0.79879266
   0.67199048  0.71344355  0.92549637
   0.67199048  0.21205383  0.28655645
   0.67199048  0.07450363  0.78794617
   0.65056407  0.77793227  0.91451589
   0.65056407  0.13658362  0.22206773
   0.65056407  0.08548411  0.86341638
   0.72105945  0.92149506  0.98596390
   0.72105945  0.06446784  0.07850494
   0.72105945  0.01403610  0.93553216
   0.72111657  0.98573534  0.06579559
   0.72111657  0.08006125  0.01426466
   0.72111657  0.93420441  0.91993875
   0.84204944  0.51400808  0.87319174
   0.84204944  0.35918467  0.48599192
   0.84204944  0.12680826  0.64081533
   0.99246581  0.53826623  0.95158366
   0.99246581  0.41331743  0.46173377
   0.99246581  0.04841634  0.58668257
   0.01679348  0.46850685  0.88039046
   0.01679448  0.41188361  0.53149315
   0.01679348  0.11960954  0.58811639
   0.91297813  0.39243685  0.74759606
   0.91297813  0.35515921  0.60756315
   0.91297813  0.25240394  0.64484079
   0.91267995  0.31109010  0.72714353
   0.91267995  0.41605343  0.68890990
   0.91267995  0.27285647  0.58394657
   0.88912032  0.10226133  0.32305020
   0.88912032  0.22078887  0.89773867
   0.88912032  0.67694980  0.77921113
   0.98559938  0.12564488  0.28592193
   0.98559938  0.16027704  0.87435512
   0.98559938  0.71407807  0.83972296
   0.04340977  0.19954185  0.33198697
   0.04340977  0.13244512  0.80045815
   0.04340977  0.66801303  0.86755488
   0.01698028  0.07553839  0.20440260
   0.01698028  0.12886421  0.92446161
   0.01698028  0.79559740  0.87113579
   0.10350373  0.09945935  0.16972122
   0.10350373  0.07026187  0.90054065
   0.10350373  0.83027878  0.92973813
   0.12806978  0.22412043  0.29692059
   0.12806978  0.07280016  0.77587957
   0.12806978  0.70307941  0.92719984
   0.15947142  0.17476584  0.21499879
   0.15947142  0.04023295  0.82523416
   0.15947142  0.78500121  0.95976705
   0.24840265  0.20290902  0.17898942
   0.24840265  0.97608040  0.79709098
   0.24840265  0.82101058  0.02391960
   0.25411912  0.28551868  0.20208659
   0.25411912  0.91656792  0.71448132
   0.25411912  0.79791341  0.08343208
   0.32980257  0.14932043  0.12245624
   0.32980257  0.97313681  0.85067957
   0.32980257  0.87754376  0.02686319
   0.41571599  0.17796931  0.09167935
   0.41571599  0.91371003  0.82203069
   0.41571599  0.90832065  0.08628997
   0.33892644  0.31396254  0.17073564
   0.33892644  0.85677310  0.68603746
   0.33892644  0.82926436  0.14322690
   0.42143001  0.26063815  0.11583458
   0.42143101  0.85519644  0.73936185
   0.42143101  0.88416542  0.14480356
   0.51264906  0.29399960  0.08467690
   0.51264906  0.79067830  0.70600040
   0.51264906  0.91532310  0.20932170
   0.74423195  0.46158950  0.15070902
   0.74423195  0.68911953  0.53841050
   0.74423195  0.84929098  0.31088047
   0.83405593  0.45301646  0.04552454
   0.83405593  0.59250808  0.54698354
   0.83405593  0.95447546  0.40749192
   0.85931966  0.52814973  0.10949013
   0.85931966  0.58134040  0.47185027
   0.85931966  0.89050987  0.41865960
   0.80251283  0.60032350  0.25565125
   0.80251283  0.65532775  0.39967650
   0.80251283  0.74434875  0.34467225
   0.80247471  0.58768447  0.32179115
   0.80247471  0.73410668  0.41231553
   0.80247471  0.67820885  0.26589332
   0.51278742  0.38084473  0.94567625
   0.51278742  0.56483153  0.61915527
   0.51278742  0.05432375  0.43516847
   0.48625808  0.39459223  0.88352999
   0.48625808  0.48893677  0.60540777
   0.48625808  0.11647001  0.51106323
   0.62757983  0.30275571  0.84485987
   0.62757983  0.54210416  0.69724429
   0.62757983  0.15514013  0.45789584
   0.56178695  0.33852243  0.74217149
   0.56178695  0.40364906  0.66147757
   0.56178695  0.25782851  0.59635094
   0.56177625  0.26222302  0.67200026
   0.56177625  0.40977724  0.73777698
   0.56177625  0.32799974  0.59022276
   0.75150905  0.73673133  0.98799184
   0.75150905  0.25126050  0.26326867
   0.75150905  0.01200816  0.74873950
   0.71766036  0.84116195  0.97194360
   0.71766036  0.13078166  0.15883805
   0.71766036  0.02805640  0.86921834
   0.88343536  0.56528442  0.94619001
   0.88343536  0.38090559  0.43471558
   0.88343536  0.05380999  0.61909441
   0.92058874  0.45397401  0.83091119
   0.92058874  0.37693718  0.54602599
   0.92058874  0.16908881  0.62306282
   0.76211287  0.41282473  0.07209516
   0.76211287  0.65926943  0.58717527
   0.76211287  0.92790484  0.34073057
   0.80253852  0.53263952  0.17592637
   0.80253852  0.64328784  0.46736048
   0.80253852  0.82407363  0.35671216
   0.60136147  0.32414305  0.92077693
   0.60136147  0.59663389  0.67585695
   0.60136147  0.07922307  0.40336611
   0.55882403  0.34432263  0.81942626
   0.55882303  0.47510463  0.65567837
   0.55882303  0.18057374  0.52489537
   0.67679191  0.65145581  0.08851757
   0.67679191  0.43706076  0.34854419
   0.67679191  0.91148243  0.56293924
   0.59890632  0.58212770  0.96259690
   0.59890632  0.38046920  0.41787230
   0.59890632  0.03740310  0.61953080
   0.94032998  0.41661155  0.30671492
   0.94032998  0.89010337  0.58338945
   0.94032998  0.69328508  0.10989663
   0.89498531  0.33115592  0.17584287
   0.89498531  0.84468695  0.66884408
   0.89498531  0.82415713  0.15531305
   0.51151679  0.36728898  0.10406679
   0.51151679  0.73677681  0.63271102
   0.51151679  0.89593321  0.26322319
   0.59149094  0.24303699  0.03683057
   0.59149094  0.79379358  0.75696301
   0.59149094  0.96316943  0.20620642
   0.82630543  0.04242752  0.27139469
   0.82630543  0.22896717  0.95757248
   0.82630543  0.72860531  0.77103283
   0.87326975  0.14071930  0.39871564
   0.87326975  0.25799633  0.85928070
   0.87326975  0.60128436  0.74200367
unknown system                          
           1
     0.000000    0.000000  -11.522011
    -9.519269  -16.487858    0.000000
    -9.519269   16.487858   -0.000000
   Zn   H    C    N    O 
   6  96 144  24  24
Direct configuration=    53
   0.80894305  0.67010373  0.03411172
   0.80894305  0.36400799  0.32989627
   0.80894305  0.96588828  0.63599201
   0.69325560  0.30281931  0.00045546
   0.69325560  0.69763715  0.69718069
   0.69325560  0.99954454  0.30236285
   0.09359509  0.51569349  0.32860988
   0.09359509  0.81291639  0.48430651
   0.09359509  0.67139012  0.18708361
   0.01403151  0.34970423  0.07860436
   0.01403151  0.72890013  0.65029577
   0.01403251  0.92139564  0.27109987
   0.16655904  0.41415155  0.03607905
   0.16655904  0.62192650  0.58584845
   0.16655904  0.96392095  0.37807350
   0.24499778  0.58040431  0.28767112
   0.24499778  0.70726681  0.41959569
   0.24499778  0.71232888  0.29273319
   0.42703405  0.55564036  0.22816485
   0.42703405  0.67252448  0.44435964
   0.42703405  0.77183515  0.32747552
   0.21010736  0.53095018  0.03267542
   0.21010736  0.50172424  0.46904982
   0.21010736  0.96732458  0.49827576
   0.37489621  0.57736585  0.98026244
   0.37489621  0.40289659  0.42263415
   0.37489621  0.01973756  0.59710441
   0.58704292  0.60746295  0.17842809
   0.58704292  0.57096515  0.39253705
   0.58704292  0.82157191  0.42903485
   0.83608544  0.84993019  0.06508719
   0.83608544  0.21515700  0.15006981
   0.83608544  0.93491281  0.78484300
   0.63335781  0.65363041  0.89668046
   0.63335781  0.24305005  0.34636959
   0.63335781  0.10331954  0.75694995
   0.59577893  0.78541570  0.87233521
   0.59577893  0.08691951  0.21458430
   0.59577893  0.12766479  0.91308049
   0.71699360  0.97486563  0.11678582
   0.71699360  0.14192019  0.02513437
   0.71699360  0.88321418  0.85807981
   0.75701157  0.51733313  0.85082081
   0.75701157  0.33348768  0.48266687
   0.75701157  0.14917919  0.66651232
   0.04405698  0.57175944  0.00604777
   0.04405698  0.43428833  0.42824056
   0.04405698  0.99395223  0.56571167
   0.09118717  0.42833435  0.85978082
   0.09118717  0.43144647  0.57166565
   0.09118717  0.14021918  0.56855353
   0.91403796  0.29352629  0.77395560
   0.91403796  0.48042931  0.70647371
   0.91403796  0.22604440  0.51957069
   0.01983398  0.23768456  0.39559119
   0.01983398  0.15790763  0.76231544
   0.01983398  0.60440881  0.84209237
   0.97198853  0.01800214  0.16895940
   0.97198853  0.15095627  0.98199786
   0.97198853  0.83104160  0.84904373
   0.12637771  0.06025380  0.10613123
   0.12637771  0.04587744  0.93974620
   0.12637771  0.89386877  0.95412256
   0.17233993  0.28202027  0.33336906
   0.17233993  0.05134880  0.71797973
   0.17233993  0.66663094  0.94865120
   0.18947308  0.32748065  0.24376926
   0.18947308  0.91628961  0.67251935
   0.18947308  0.75623074  0.08371039
   0.32745062  0.08518387  0.10462364
   0.32745062  0.01943976  0.91481613
   0.32745062  0.89537636  0.98056024
   0.48013690  0.13666041  0.04907459
   0.48013690  0.91241418  0.86333959
   0.48013690  0.95092541  0.08758582
   0.34252527  0.37775079  0.18783513
   0.34252527  0.81008534  0.62224921
   0.34252527  0.81216487  0.18991466
   0.68850029  0.44902476  0.18905921
   0.68850029  0.74003545  0.55097524
   0.68850029  0.81094079  0.25996455
   0.86299137  0.42409454  0.98301217
   0.86299137  0.55891763  0.57590546
   0.86299137  0.01698783  0.44108237
   0.91092288  0.57829372  0.11509402
   0.91092288  0.53679929  0.42170628
   0.91092288  0.88490698  0.46320071
   0.80205809  0.52680082  0.31350634
   0.80205809  0.78670552  0.47319918
   0.80205809  0.68649366  0.21329448
   0.47688696  0.40705980  0.00630763
   0.47688696  0.59924883  0.59294020
   0.47688696  0.99369237  0.40075217
   0.42497712  0.43507445  0.87885738
   0.42497712  0.44378193  0.56492555
   0.42497712  0.12114262  0.55621807
   0.69936472  0.26347015  0.81080482
   0.69936472  0.54733367  0.73652985
   0.69936472  0.18919518  0.45266633
   0.55918144  0.20672466  0.67547549
   0.55918144  0.46875083  0.79327534
   0.55918144  0.32452451  0.53124917
   0.95368622  0.38805508  0.22881724
   0.95368622  0.84076216  0.61194492
   0.95368622  0.77118276  0.15923784
   0.04425480  0.42890430  0.20573027
   0.04425480  0.77682697  0.57109570
   0.04425480  0.79426973  0.22317303
   0.10956951  0.49398705  0.26454758
   0.10956951  0.77056054  0.50601295
   0.10956951  0.73545242  0.22943946
   0.06477153  0.40095811  0.12340704
   0.06477153  0.72244894  0.59904189
   0.06477153  0.87659296  0.27755106
   0.14897048  0.43770605  0.10034938
   0.14897048  0.66264333  0.56229395
   0.14897048  0.89965062  0.33735667
   0.19449589  0.53014751  0.24128932
   0.19449589  0.71114181  0.46985249
   0.19449589  0.75871068  0.28885819
   0.21547416  0.50275007  0.15877631
   0.21547416  0.65602624  0.49724993
   0.21547416  0.84122369  0.34397376
   0.30765016  0.53863039  0.13317224
   0.30765016  0.59454185  0.46136961
   0.30765016  0.86682776  0.40545815
   0.41360745  0.56276344  0.17531603
   0.41360745  0.61255259  0.43723656
   0.41360745  0.82468397  0.38744741
   0.29362472  0.54637167  0.06389282
   0.29362472  0.51752215  0.45362833
   0.29362472  0.93610718  0.48247785
   0.38471917  0.57247504  0.03469247
   0.38471917  0.46221742  0.42752496
   0.38471917  0.96530753  0.53778258
   0.50398575  0.59027472  0.14685127
   0.50398575  0.55657655  0.40972528
   0.50398575  0.85314873  0.44342345
   0.49190385  0.59257213  0.07478750
   0.49190385  0.48221537  0.40742787
   0.49190385  0.92521250  0.51778463
   0.59480328  0.60980022  0.03789945
   0.59480328  0.42809923  0.39019978
   0.59480328  0.96210055  0.57190077
   0.77734012  0.81405681  0.01525206
   0.77734012  0.20119425  0.18594219
   0.77734012  0.98474794  0.79880575
   0.67191404  0.71342858  0.92547715
   0.67191404  0.21204957  0.28657142
   0.67191404  0.07452285  0.78795043
   0.65048080  0.77794103  0.91452135
   0.65048080  0.13658032  0.22205897
   0.65048080  0.08547865  0.86341968
   0.72097235  0.92148978  0.98594554
   0.72097235  0.06445476  0.07851022
   0.72097235  0.01405446  0.93554524
   0.72104374  0.98572120  0.06578470
   0.72104374  0.08006449  0.01427880
   0.72104374  0.93421530  0.91993551
   0.84207484  0.51403448  0.87318629
   0.84207484  0.35915281  0.48596552
   0.84207484  0.12681371  0.64084719
   0.99245745  0.53821965  0.95160755
   0.99245745  0.41338790  0.46178035
   0.99245745  0.04839245  0.58661210
   0.01677339  0.46844163  0.88043671
   0.01677439  0.41199507  0.53155837
   0.01677339  0.11956329  0.58800493
   0.91307122  0.39243665  0.74760040
   0.91307122  0.35516375  0.60756335
   0.91307122  0.25239960  0.64483625
   0.91275650  0.31107211  0.72714543
   0.91275650  0.41607332  0.68892789
   0.91275650  0.27285457  0.58392668
   0.88915634  0.10230170  0.32309687
   0.88915634  0.22079518  0.89769830
   0.88915634  0.67690313  0.77920482
   0.98565739  0.12568616  0.28595433
   0.98565739  0.16026817  0.87431384
   0.98565739  0.71404567  0.83973183
   0.04345325  0.19958626  0.33206398
   0.04345325  0.13247772  0.80041374
   0.04345325  0.66793602  0.86752228
   0.01702546  0.07557025  0.20444605
   0.01702546  0.12887580  0.92442975
   0.01702546  0.79555395  0.87112420
   0.10352613  0.09952521  0.16978657
   0.10352613  0.07026135  0.90047479
   0.10352613  0.83021343  0.92973865
   0.12814472  0.22416565  0.29701931
   0.12814472  0.07285366  0.77583435
   0.12814472  0.70298069  0.92714634
   0.15955062  0.17482504  0.21506919
   0.15955062  0.04024415  0.82517496
   0.15955062  0.78493081  0.95975585
   0.24845253  0.20295398  0.17905491
   0.24845253  0.97610092  0.79704602
   0.24845253  0.82094509  0.02389908
   0.25416611  0.28555392  0.20215520
   0.25416611  0.91660128  0.71444608
   0.25416611  0.79784480  0.08339872
   0.32984871  0.14934061  0.12253051
   0.32984871  0.97319090  0.85065939
   0.32984871  0.87746949  0.02680910
   0.41576704  0.17797478  0.09169406
   0.41576704  0.91371928  0.82202522
   0.41576704  0.90830594  0.08628072
   0.33900468  0.31398356  0.17078377
   0.33900468  0.85680020  0.68601644
   0.33900468  0.82921623  0.14319980
   0.42147458  0.26064748  0.11584859
   0.42147558  0.85520111  0.73935252
   0.42147558  0.88415141  0.14479889
   0.51266053  0.29401300  0.08470146
   0.51266053  0.79068946  0.70598700
   0.51266053  0.91529854  0.20931054
   0.74424131  0.46156310  0.15069411
   0.74424131  0.68913100  0.53843690
   0.74424131  0.84930589  0.31086900
   0.83407019  0.45300210  0.04553130
   0.83407019  0.59252920  0.54699790
   0.83407019  0.95446870  0.40747080
   0.85928550  0.52814744  0.10950807
   0.85928550  0.58136063  0.47185256
   0.85928550  0.89049193  0.41863937
   0.80248404  0.60032481  0.25564228
   0.80248404  0.65531748  0.39967519
   0.80248404  0.74435772  0.34468252
   0.80242668  0.58767457  0.32178336
   0.80242668  0.73410879  0.41232543
   0.80242668  0.67821664  0.26589121
   0.51273588  0.38082745  0.94566836
   0.51273588  0.56484091  0.61917255
   0.51273588  0.05433164  0.43515909
   0.48621283  0.39457327  0.88352379
   0.48621283  0.48894952  0.60542673
   0.48621283  0.11647621  0.51105048
   0.62759420  0.30275559  0.84486487
   0.62759420  0.54210928  0.69724441
   0.62759420  0.15513513  0.45789072
   0.56173085  0.33850657  0.74216643
   0.56173085  0.40365987  0.66149343
   0.56173085  0.25783357  0.59634013
   0.56175697  0.26220991  0.67199842
   0.56175697  0.40978851  0.73779009
   0.56175697  0.32800158  0.59021149
   0.75143127  0.73671707  0.98796860
   0.75143127  0.25125154  0.26328293
   0.75143127  0.01203140  0.74874846
   0.71757528  0.84115884  0.97193327
   0.71757528  0.13077443  0.15884116
   0.71757528  0.02806673  0.86922557
   0.88348109  0.56531414  0.94618973
   0.88348109  0.38087559  0.43468586
   0.88348109  0.05381027  0.61912441
   0.92060764  0.45397569  0.83092335
   0.92060764  0.37694766  0.54602431
   0.92060764  0.16907665  0.62305234
   0.76214440  0.41281028  0.07207293
   0.76214440  0.65926165  0.58718972
   0.76214440  0.92792707  0.34073835
   0.80253827  0.53262323  0.17592636
   0.80253827  0.64330413  0.46737677
   0.80253827  0.82407364  0.35669587
   0.60134095  0.32410970  0.92076759
   0.60134095  0.59665789  0.67589030
   0.60134095  0.07923241  0.40334211
   0.55875382  0.34430025  0.81942268
   0.55875282  0.47512344  0.65570075
   0.55875282  0.18057732  0.52487656
   0.67683372  0.65139745  0.08846919
   0.67683372  0.43707073  0.34860255
   0.67683372  0.91153081  0.56292927
   0.59886372  0.58213958  0.96259439
   0.59886372  0.38045481  0.41786042
   0.59886372  0.03740561  0.61954519
   0.94025179  0.41658610  0.30666162
   0.94025179  0.89007551  0.58341490
   0.94025179  0.69333838  0.10992449
   0.89501499  0.33109063  0.17582942
   0.89501499  0.84473879  0.66890937
   0.89501499  0.82417058  0.15526121
   0.51155710  0.36729141  0.10406628
   0.51155710  0.73677387  0.63270859
   0.51155710  0.89593372  0.26322613
   0.59146737  0.24308065  0.03684821
   0.59146737  0.79376756  0.75691935
   0.59146737  0.96315179  0.20623244
   0.82632149  0.04247178  0.27146682
   0.82632149  0.22899504  0.95752822
   0.82632149  0.72853318  0.77100496
   0.87326521  0.14074590  0.39877382
   0.87326521  0.25802791  0.85925410
   0.87326521  0.60122618  0.74197209
unknown system                          
           1
     0.000000    0.000000  -11.521702
    -9.518444  -16.486429    0.000000
    -9.518444   16.486429   -0.000000
   Zn   H    C    N    O 
   6  96 144  24  24
Direct configuration=    54
   0.80890264  0.67010152  0.03410748
   0.80890264  0.36400595  0.32989848
   0.80890264  0.96589252  0.63599405
   0.69328806  0.30280414  0.00043090
   0.69328806  0.69762776  0.69719586
   0.69328806  0.99956910  0.30237224
   0.09348930  0.51570461  0.32853385
   0.09348930  0.81282924  0.48429539
   0.09348930  0.67146615  0.18717076
   0.01411160  0.34965654  0.07859184
   0.01411160  0.72893529  0.65034346
   0.01411260  0.92140816  0.27106471
   0.16655968  0.41411010  0.03602630
   0.16655968  0.62191520  0.58588990
   0.16655968  0.96397370  0.37808480
   0.24497366  0.58037857  0.28760611
   0.24497366  0.70722755  0.41962143
   0.24497366  0.71239389  0.29277245
   0.42696523  0.55566826  0.22812976
   0.42696523  0.67246150  0.44433174
   0.42696523  0.77187024  0.32753850
   0.21012805  0.53090134  0.03262363
   0.21012805  0.50172128  0.46909866
   0.21012805  0.96737637  0.49827872
   0.37488974  0.57734811  0.98026680
   0.37488974  0.40291869  0.42265189
   0.37488974  0.01973320  0.59708231
   0.58697691  0.60735551  0.17833502
   0.58697691  0.57097951  0.39264449
   0.58697691  0.82166498  0.42902049
   0.83609261  0.84986002  0.06499290
   0.83609261  0.21513288  0.15013998
   0.83609261  0.93500710  0.78486712
   0.63325004  0.65359871  0.89661711
   0.63325004  0.24301840  0.34640129
   0.63325004  0.10338289  0.75698160
   0.59562682  0.78542239  0.87234304
   0.59562682  0.08692065  0.21457761
   0.59562682  0.12765696  0.91307935
   0.71695871  0.97484299  0.11676496
   0.71695871  0.14192196  0.02515701
   0.71695871  0.88323504  0.85807804
   0.75712442  0.51739524  0.85074280
   0.75712442  0.33334756  0.48260476
   0.75712442  0.14925720  0.66665244
   0.04393193  0.57167164  0.00613072
   0.04393193  0.43445908  0.42832836
   0.04393193  0.99386928  0.56554092
   0.09112647  0.42823180  0.85987048
   0.09112647  0.43163869  0.57176820
   0.09112647  0.14012952  0.56836131
   0.91409884  0.29343318  0.77392384
   0.91409884  0.48049066  0.70656682
   0.91409884  0.22607616  0.51950934
   0.01999422  0.23767290  0.39568799
   0.01999422  0.15801609  0.76232710
   0.01999422  0.60431201  0.84198391
   0.97197200  0.01809498  0.16903576
   0.97197200  0.15093978  0.98190502
   0.97197200  0.83096524  0.84906022
   0.12645252  0.06030980  0.10620536
   0.12645252  0.04589556  0.93969020
   0.12645252  0.89379464  0.95410444
   0.17241132  0.28207481  0.33348127
   0.17241132  0.05140645  0.71792519
   0.17241132  0.66651873  0.94859355
   0.18958772  0.32752801  0.24388719
   0.18958772  0.91636018  0.67247199
   0.18958772  0.75611281  0.08363982
   0.32761909  0.08522628  0.10474861
   0.32761909  0.01952233  0.91477372
   0.32761909  0.89525139  0.98047767
   0.48019535  0.13670254  0.04913253
   0.48019535  0.91242999  0.86329746
   0.48019535  0.95086747  0.08757001
   0.34267994  0.37778995  0.18796185
   0.34267994  0.81017289  0.62221005
   0.34267994  0.81203815  0.18982711
   0.68854608  0.44897733  0.18903295
   0.68854608  0.74005662  0.55102267
   0.68854608  0.81096705  0.25994338
   0.86299968  0.42407058  0.98299703
   0.86299968  0.55892645  0.57592942
   0.86299968  0.01700297  0.44107355
   0.91092051  0.57828307  0.11508618
   0.91092051  0.53680211  0.42171693
   0.91092051  0.88491482  0.46319789
   0.80207008  0.52678870  0.31349606
   0.80207008  0.78670736  0.47321130
   0.80207008  0.68650394  0.21329264
   0.47683616  0.40703492  0.00631893
   0.47683616  0.59928501  0.59296508
   0.47683616  0.99368107  0.40071599
   0.42487560  0.43501950  0.87883942
   0.42487560  0.44381892  0.56498050
   0.42487560  0.12116058  0.55618108
   0.69937644  0.26348544  0.81081278
   0.69937644  0.54732634  0.73651456
   0.69937644  0.18918722  0.45267366
   0.55918755  0.20670685  0.67545937
   0.55918755  0.46875252  0.79329315
   0.55918755  0.32454063  0.53124748
   0.95369837  0.38799650  0.22877105
   0.95369837  0.84077456  0.61200350
   0.95369837  0.77122895  0.15922544
   0.04429106  0.42886641  0.20568540
   0.04429106  0.77681999  0.57113359
   0.04429106  0.79431460  0.22318001
   0.10950120  0.49397588  0.26448210
   0.10950120  0.77050622  0.50602412
   0.10950120  0.73551790  0.22949378
   0.06481402  0.40089353  0.12334116
   0.06481402  0.72244763  0.59910647
   0.06481402  0.87665884  0.27755237
   0.14892442  0.43764992  0.10029837
   0.14892442  0.66264845  0.56235008
   0.14892442  0.89970163  0.33735155
   0.19447951  0.53011510  0.24125392
   0.19447951  0.71113882  0.46988490
   0.19447951  0.75874608  0.28886118
   0.21544055  0.50269944  0.15874618
   0.21544055  0.65604674  0.49730056
   0.21544055  0.84125382  0.34395326
   0.30765782  0.53865733  0.13314686
   0.30765782  0.59448953  0.46134267
   0.30765782  0.86685314  0.40551047
   0.41357042  0.56279104  0.17529482
   0.41357042  0.61250378  0.43720896
   0.41357042  0.82470518  0.38749622
   0.29360906  0.54636197  0.06382217
   0.29360906  0.51746120  0.45363803
   0.29360906  0.93617783  0.48253880
   0.38465719  0.57246154  0.03468409
   0.38465719  0.46222255  0.42753846
   0.38465719  0.96531591  0.53777745
   0.50394438  0.59023687  0.14682915
   0.50394438  0.55659228  0.40976313
   0.50394438  0.85317085  0.44340772
   0.49184209  0.59256617  0.07478380
   0.49184209  0.48221763  0.40743383
   0.49184209  0.92521620  0.51778237
   0.59479774  0.60979681  0.03789379
   0.59479774  0.42809698  0.39020319
   0.59479774  0.96210621  0.57190302
   0.77728227  0.81403822  0.01521238
   0.77728227  0.20117316  0.18596078
   0.77728227  0.98478762  0.79882684
   0.67181223  0.71342276  0.92545936
   0.67181223  0.21203760  0.28657724
   0.67181223  0.07454064  0.78796240
   0.65033717  0.77793782  0.91450249
   0.65033717  0.13656467  0.22206218
   0.65033717  0.08549751  0.86343533
   0.72085876  0.92148444  0.98592789
   0.72085876  0.06444245  0.07851556
   0.72085876  0.01407211  0.93555755
   0.72094791  0.98570209  0.06577393
   0.72094791  0.08007284  0.01429791
   0.72094791  0.93422607  0.91992716
   0.84212694  0.51406336  0.87316322
   0.84212694  0.35910086  0.48593664
   0.84212694  0.12683678  0.64089914
   0.99245052  0.53818107  0.95165168
   0.99245052  0.41347061  0.46181893
   0.99245052  0.04834832  0.58652939
   0.01670846  0.46835713  0.88047574
   0.01670946  0.41211861  0.53164287
   0.01670846  0.11952426  0.58788139
   0.91316187  0.39242220  0.74760434
   0.91316187  0.35518214  0.60757780
   0.91316187  0.25239566  0.64481786
   0.91287730  0.31107012  0.72715258
   0.91287730  0.41608246  0.68892988
   0.91287730  0.27284742  0.58391754
   0.88919357  0.10235405  0.32316638
   0.88919357  0.22081233  0.89764595
   0.88919357  0.67683362  0.77918767
   0.98569409  0.12573865  0.28602723
   0.98569409  0.16028858  0.87426135
   0.98569409  0.71397277  0.83971142
   0.04351765  0.19963209  0.33214296
   0.04351765  0.13251087  0.80036791
   0.04351765  0.66785704  0.86748913
   0.01710665  0.07564610  0.20450876
   0.01710665  0.12886266  0.92435390
   0.01710665  0.79549124  0.87113734
   0.10355202  0.09959094  0.16985521
   0.10355202  0.07026427  0.90040906
   0.10355202  0.83014479  0.92973573
   0.12825999  0.22423094  0.29712962
   0.12825999  0.07289868  0.77576906
   0.12825999  0.70287038  0.92710132
   0.15958703  0.17489054  0.21518272
   0.15958703  0.04029217  0.82510946
   0.15958703  0.78481728  0.95970783
   0.24854942  0.20300887  0.17913566
   0.24854942  0.97612679  0.79699113
   0.24854942  0.82086434  0.02387321
   0.25426450  0.28560181  0.20222593
   0.25426450  0.91662412  0.71439819
   0.25426450  0.79777407  0.08337588
   0.32994714  0.14937494  0.12260538
   0.32994714  0.97323144  0.85062506
   0.32994714  0.87739462  0.02676856
   0.41579862  0.17799342  0.09173272
   0.41579862  0.91373930  0.82200658
   0.41579862  0.90826728  0.08626070
   0.33908857  0.31398332  0.17084532
   0.33908857  0.85686200  0.68601668
   0.33908857  0.82915468  0.14313800
   0.42152388  0.26068229  0.11588790
   0.42152488  0.85520562  0.73931771
   0.42152488  0.88411210  0.14479438
   0.51267079  0.29402608  0.08471929
   0.51267079  0.79069421  0.70597392
   0.51267079  0.91528071  0.20930579
   0.74422690  0.46151759  0.15068663
   0.74422690  0.68916905  0.53848241
   0.74422690  0.84931337  0.31083095
   0.83409973  0.45297800  0.04550276
   0.83409973  0.59252476  0.54702200
   0.83409973  0.95449724  0.40747524
   0.85926845  0.52813792  0.10950498
   0.85926845  0.58136706  0.47186208
   0.85926845  0.89049502  0.41863294
   0.80243476  0.60031998  0.25563951
   0.80243476  0.65531953  0.39968002
   0.80243476  0.74436049  0.34468047
   0.80237382  0.58766723  0.32177950
   0.80237382  0.73411227  0.41233277
   0.80237382  0.67822050  0.26588773
   0.51269434  0.38078030  0.94565198
   0.51269434  0.56487168  0.61921970
   0.51269434  0.05434802  0.43512832
   0.48614438  0.39454510  0.88350877
   0.48614438  0.48896268  0.60545490
   0.48614438  0.11649123  0.51103732
   0.62759553  0.30274526  0.84485602
   0.62759553  0.54211075  0.69725474
   0.62759553  0.15514398  0.45788925
   0.56167364  0.33851560  0.74216210
   0.56167364  0.40364649  0.66148440
   0.56167364  0.25783790  0.59635351
   0.56171937  0.26219403  0.67195986
   0.56171937  0.40976582  0.73780597
   0.56171937  0.32804014  0.59023418
   0.75134384  0.73668363  0.98792988
   0.75134384  0.25124626  0.26331637
   0.75134384  0.01207012  0.74875374
   0.71749558  0.84116526  0.97193437
   0.71749558  0.13076911  0.15883474
   0.71749558  0.02806563  0.86923089
   0.88353393  0.56533571  0.94617870
   0.88353393  0.38084299  0.43466429
   0.88353393  0.05382130  0.61915701
   0.92062820  0.45397643  0.83094395
   0.92062820  0.37696752  0.54602357
   0.92062820  0.16905605  0.62303248
   0.76216243  0.41278338  0.07206815
   0.76216243  0.65928377  0.58721662
   0.76216243  0.92793185  0.34071623
   0.80251055  0.53261726  0.17595729
   0.80251055  0.64334103  0.46738274
   0.80251055  0.82404271  0.35665897
   0.60130312  0.32409068  0.92076063
   0.60130312  0.59666995  0.67590932
   0.60130312  0.07923937  0.40333005
   0.55870956  0.34425745  0.81940155
   0.55870856  0.47514510  0.65574355
   0.55870856  0.18059845  0.52485490
   0.67689289  0.65132162  0.08843209
   0.67689289  0.43710947  0.34867838
   0.67689289  0.91156791  0.56289053
   0.59878120  0.58214200  0.96254981
   0.59878120  0.38040780  0.41785800
   0.59878120  0.03745019  0.61959220
   0.94016729  0.41658175  0.30663104
   0.94016729  0.89004930  0.58341925
   0.94016729  0.69336896  0.10995070
   0.89505410  0.33100520  0.17579331
   0.89505410  0.84478811  0.66899480
   0.89505410  0.82420669  0.15521189
   0.51159351  0.36731335  0.10408272
   0.51159351  0.73676837  0.63268665
   0.51159351  0.89591728  0.26323163
   0.59145754  0.24311966  0.03685810
   0.59145754  0.79373843  0.75688034
   0.59145754  0.96314190  0.20626157
   0.82635453  0.04251630  0.27153593
   0.82635453  0.22901963  0.95748370
   0.82635453  0.72846407  0.77098037
   0.87327372  0.14078976  0.39884922
   0.87327372  0.25805946  0.85921024
   0.87327372  0.60115078  0.74194054
unknown system                          
           1
     0.000000    0.000000  -11.521586
    -9.518135  -16.485894    0.000000
    -9.518135   16.485894   -0.000000
   Zn   H    C    N    O 
   6  96 144  24  24
Direct configuration=    55
   0.80888752  0.67010070  0.03410589
   0.80888752  0.36400519  0.32989930
   0.80888752  0.96589411  0.63599481
   0.69330021  0.30279846  0.00042170
   0.69330021  0.69762425  0.69720154
   0.69330021  0.99957830  0.30237575
   0.09344971  0.51570877  0.32850539
   0.09344971  0.81279662  0.48429123
   0.09344971  0.67149461  0.18720338
   0.01414157  0.34963869  0.07858715
   0.01414157  0.72894845  0.65036131
   0.01414257  0.92141285  0.27105155
   0.16655992  0.41409459  0.03600656
   0.16655992  0.62191097  0.58590541
   0.16655992  0.96399344  0.37808903
   0.24496464  0.58036893  0.28758178
   0.24496464  0.70721285  0.41963107
   0.24496464  0.71241822  0.29278715
   0.42693947  0.55567870  0.22811663
   0.42693947  0.67243793  0.44432130
   0.42693947  0.77188337  0.32756207
   0.21013579  0.53088307  0.03260424
   0.21013579  0.50172018  0.46911693
   0.21013579  0.96739576  0.49827982
   0.37488732  0.57734147  0.98026843
   0.37488732  0.40292696  0.42265853
   0.37488732  0.01973157  0.59707404
   0.58695220  0.60731530  0.17830019
   0.58695220  0.57098488  0.39268470
   0.58695220  0.82169981  0.42901512
   0.83609529  0.84983376  0.06495761
   0.83609529  0.21512385  0.15016624
   0.83609529  0.93504239  0.78487615
   0.63320970  0.65358684  0.89659340
   0.63320970  0.24300656  0.34641316
   0.63320970  0.10340660  0.75699344
   0.59556989  0.78542490  0.87234597
   0.59556989  0.08692107  0.21457510
   0.59556989  0.12765403  0.91307893
   0.71694565  0.97483452  0.11675715
   0.71694565  0.14192263  0.02516548
   0.71694565  0.88324285  0.85807737
   0.75716665  0.51741848  0.85071360
   0.75716665  0.33329512  0.48258152
   0.75716665  0.14928640  0.66670488
   0.04388513  0.57163878  0.00616177
   0.04388513  0.43452299  0.42836122
   0.04388513  0.99383823  0.56547701
   0.09110375  0.42819341  0.85990404
   0.09110375  0.43171063  0.57180659
   0.09110375  0.14009596  0.56828937
   0.91412162  0.29339834  0.77391196
   0.91412162  0.48051362  0.70660166
   0.91412162  0.22608804  0.51948638
   0.02005419  0.23766854  0.39572422
   0.02005419  0.15805668  0.76233146
   0.02005419  0.60427578  0.84194332
   0.97196582  0.01812973  0.16906434
   0.97196582  0.15093361  0.98187027
   0.97196582  0.83093666  0.84906639
   0.12648051  0.06033076  0.10623310
   0.12648051  0.04590234  0.93966924
   0.12648051  0.89376690  0.95409766
   0.17243803  0.28209522  0.33352326
   0.17243803  0.05142804  0.71790478
   0.17243803  0.66647674  0.94857196
   0.18963063  0.32754573  0.24393132
   0.18963063  0.91638659  0.67245427
   0.18963063  0.75606868  0.08361341
   0.32768214  0.08524215  0.10479539
   0.32768214  0.01955324  0.91475785
   0.32768214  0.89520461  0.98044676
   0.48021722  0.13671830  0.04915421
   0.48021722  0.91243591  0.86328170
   0.48021722  0.95084579  0.08756409
   0.34273782  0.37780461  0.18800927
   0.34273782  0.81020566  0.62219539
   0.34273782  0.81199073  0.18979434
   0.68856322  0.44895958  0.18902312
   0.68856322  0.74006455  0.55104042
   0.68856322  0.81097688  0.25993545
   0.86300279  0.42406161  0.98299137
   0.86300279  0.55892975  0.57593839
   0.86300279  0.01700863  0.44107025
   0.91091962  0.57827908  0.11508324
   0.91091962  0.53680316  0.42172092
   0.91091962  0.88491776  0.46319684
   0.80207456  0.52678416  0.31349221
   0.80207456  0.78670805  0.47321584
   0.80207456  0.68650779  0.21329195
   0.47681714  0.40702561  0.00632316
   0.47681714  0.59929855  0.59297439
   0.47681714  0.99367684  0.40070245
   0.42483761  0.43499893  0.87883269
   0.42483761  0.44383276  0.56500107
   0.42483761  0.12116731  0.55616724
   0.69938083  0.26349117  0.81081576
   0.69938083  0.54732359  0.73650883
   0.69938083  0.18918424  0.45267641
   0.55918984  0.20670019  0.67545334
   0.55918984  0.46875315  0.79329981
   0.55918984  0.32454666  0.53124685
   0.95370291  0.38797457  0.22875377
   0.95370291  0.84077920  0.61202543
   0.95370291  0.77124623  0.15922080
   0.04430463  0.42885223  0.20566861
   0.04430463  0.77681738  0.57114777
   0.04430463  0.79433139  0.22318262
   0.10947563  0.49397170  0.26445758
   0.10947563  0.77048589  0.50602830
   0.10947563  0.73554242  0.22951411
   0.06482993  0.40086936  0.12331651
   0.06482993  0.72244715  0.59913064
   0.06482993  0.87668349  0.27755285
   0.14890718  0.43762891  0.10027927
   0.14890718  0.66265037  0.56237109
   0.14890718  0.89972073  0.33734963
   0.19447337  0.53010297  0.24124067
   0.19447337  0.71113770  0.46989703
   0.19447337  0.75875933  0.28886230
   0.21542797  0.50268050  0.15873491
   0.21542797  0.65605441  0.49731950
   0.21542797  0.84126509  0.34394559
   0.30766069  0.53866742  0.13313736
   0.30766069  0.59446994  0.46133258
   0.30766069  0.86686264  0.40553006
   0.41355656  0.56280138  0.17528689
   0.41355656  0.61248551  0.43719862
   0.41355656  0.82471311  0.38751449
   0.29360320  0.54635834  0.06379573
   0.29360320  0.51743839  0.45364166
   0.29360320  0.93620427  0.48256161
   0.38463399  0.57245649  0.03468096
   0.38463399  0.46222447  0.42754351
   0.38463399  0.96531904  0.53777553
   0.50392889  0.59022271  0.14682087
   0.50392889  0.55659817  0.40977729
   0.50392889  0.85317913  0.44340183
   0.49181897  0.59256394  0.07478241
   0.49181897  0.48221847  0.40743606
   0.49181897  0.92521759  0.51778153
   0.59479567  0.60979553  0.03789167
   0.59479567  0.42809614  0.39020447
   0.59479567  0.96210833  0.57190386
   0.77726062  0.81403126  0.01519753
   0.77726062  0.20116527  0.18596774
   0.77726062  0.98480247  0.79883473
   0.67177413  0.71342058  0.92545270
   0.67177413  0.21203312  0.28657942
   0.67177413  0.07454730  0.78796688
   0.65028342  0.77793662  0.91449542
   0.65028342  0.13655881  0.22206338
   0.65028342  0.08550458  0.86344119
   0.72081624  0.92148244  0.98592129
   0.72081624  0.06443785  0.07851756
   0.72081624  0.01407871  0.93556215
   0.72091204  0.98569493  0.06576990
   0.72091204  0.08007596  0.01430507
   0.72091204  0.93423010  0.91992404
   0.84214644  0.51407417  0.87315459
   0.84214644  0.35908142  0.48592583
   0.84214644  0.12684541  0.64091858
   0.99244793  0.53816663  0.95166819
   0.99244793  0.41350157  0.46183337
   0.99244793  0.04833181  0.58649843
   0.01668415  0.46832550  0.88049035
   0.01668515  0.41216485  0.53167450
   0.01668415  0.11950965  0.58783515
   0.91319580  0.39241679  0.74760582
   0.91319580  0.35518902  0.60758321
   0.91319580  0.25239418  0.64481098
   0.91292251  0.31106938  0.72715526
   0.91292251  0.41608588  0.68893062
   0.91292251  0.27284474  0.58391412
   0.88920751  0.10237365  0.32319239
   0.88920751  0.22081875  0.89762635
   0.88920751  0.67680761  0.77918125
   0.98570783  0.12575830  0.28605452
   0.98570783  0.16029622  0.87424170
   0.98570783  0.71394548  0.83970378
   0.04354176  0.19964924  0.33217251
   0.04354176  0.13252327  0.80035076
   0.04354176  0.66782749  0.86747673
   0.01713704  0.07567449  0.20453223
   0.01713704  0.12885774  0.92432551
   0.01713704  0.79546777  0.87114226
   0.10356171  0.09961555  0.16988090
   0.10356171  0.07026536  0.90038445
   0.10356171  0.83011910  0.92973464
   0.12830313  0.22425538  0.29717091
   0.12830313  0.07291553  0.77574462
   0.12830313  0.70282909  0.92708447
   0.15960066  0.17491506  0.21522521
   0.15960066  0.04031015  0.82508494
   0.15960066  0.78477479  0.95968985
   0.24858568  0.20302942  0.17916589
   0.24858568  0.97613648  0.79697058
   0.24858568  0.82083411  0.02386352
   0.25430132  0.28561974  0.20225240
   0.25430132  0.91663267  0.71438026
   0.25430132  0.79774760  0.08336733
   0.32998398  0.14938779  0.12263340
   0.32998398  0.97324661  0.85061221
   0.32998398  0.87736660  0.02675339
   0.41581044  0.17800039  0.09174718
   0.41581044  0.91374679  0.82199961
   0.41581044  0.90825282  0.08625321
   0.33911996  0.31398323  0.17086836
   0.33911996  0.85688513  0.68601677
   0.33911996  0.82913164  0.14311487
   0.42154233  0.26069531  0.11590261
   0.42154333  0.85520730  0.73930469
   0.42154333  0.88409739  0.14479270
   0.51267464  0.29403098  0.08472596
   0.51267464  0.79069598  0.70596902
   0.51267464  0.91527404  0.20930402
   0.74422151  0.46150055  0.15068384
   0.74422151  0.68918329  0.53849945
   0.74422151  0.84931616  0.31081671
   0.83411079  0.45296898  0.04549207
   0.83411079  0.59252310  0.54703102
   0.83411079  0.95450793  0.40747690
   0.85926207  0.52813436  0.10950382
   0.85926207  0.58136946  0.47186564
   0.85926207  0.89049618  0.41863054
   0.80241633  0.60031818  0.25563847
   0.80241633  0.65532029  0.39968182
   0.80241633  0.74436153  0.34467971
   0.80235404  0.58766448  0.32177806
   0.80235404  0.73411357  0.41233552
   0.80235404  0.67822194  0.26588643
   0.51267879  0.38076265  0.94564585
   0.51267879  0.56488320  0.61923735
   0.51267879  0.05435415  0.43511680
   0.48611875  0.39453455  0.88350315
   0.48611875  0.48896760  0.60546545
   0.48611875  0.11649685  0.51103240
   0.62759602  0.30274140  0.84485270
   0.62759602  0.54211130  0.69725860
   0.62759602  0.15514730  0.45788870
   0.56165223  0.33851898  0.74216047
   0.56165223  0.40364149  0.66148102
   0.56165223  0.25783953  0.59635851
   0.56170530  0.26218809  0.67194542
   0.56170530  0.40975733  0.73781191
   0.56170530  0.32805458  0.59024267
   0.75131112  0.73667111  0.98791539
   0.75131112  0.25124428  0.26332889
   0.75131112  0.01208461  0.74875572
   0.71746575  0.84116766  0.97193478
   0.71746575  0.13076711  0.15883234
   0.71746575  0.02806522  0.86923289
   0.88355371  0.56534379  0.94617458
   0.88355371  0.38083079  0.43465621
   0.88355371  0.05382542  0.61916921
   0.92063590  0.45397671  0.83095166
   0.92063590  0.37697495  0.54602329
   0.92063590  0.16904834  0.62302505
   0.76216918  0.41277331  0.07206636
   0.76216918  0.65929205  0.58722669
   0.76216918  0.92793364  0.34070795
   0.80250017  0.53261502  0.17596886
   0.80250017  0.64335484  0.46738498
   0.80250017  0.82403114  0.35664516
   0.60128896  0.32408356  0.92075802
   0.60128896  0.59667446  0.67591644
   0.60128896  0.07924198  0.40332554
   0.55869300  0.34424143  0.81939364
   0.55869200  0.47515321  0.65575957
   0.55869200  0.18060636  0.52484679
   0.67691503  0.65129324  0.08841821
   0.67691503  0.43712397  0.34870676
   0.67691503  0.91158179  0.56287603
   0.59875032  0.58214291  0.96253312
   0.59875032  0.38039021  0.41785709
   0.59875032  0.03746688  0.61960979
   0.94013567  0.41658012  0.30661960
   0.94013567  0.89003948  0.58342088
   0.94013567  0.69338040  0.10996052
   0.89506873  0.33097322  0.17577979
   0.89506873  0.84480657  0.66902678
   0.89506873  0.82422021  0.15519343
   0.51160713  0.36732156  0.10408887
   0.51160713  0.73676631  0.63267844
   0.51160713  0.89591113  0.26323369
   0.59145386  0.24313426  0.03686180
   0.59145386  0.79372753  0.75686574
   0.59145386  0.96313820  0.20627247
   0.82636690  0.04253296  0.27156179
   0.82636690  0.22902883  0.95746704
   0.82636690  0.72843821  0.77097117
   0.87327690  0.14080617  0.39887744
   0.87327690  0.25807127  0.85919383
   0.87327690  0.60112256  0.74192873
unknown system                          
           1
     0.000000    0.000000  -11.520890
    -9.517590  -16.484950    0.000000
    -9.517590   16.484950   -0.000000
   Zn   H    C    N    O 
   6  96 144  24  24
Direct configuration=    56
   0.80886264  0.67010382  0.03409245
   0.80886264  0.36398863  0.32989618
   0.80886264  0.96590755  0.63601137
   0.69330578  0.30279258  0.00040147
   0.69330578  0.69760989  0.69720742
   0.69330578  0.99959853  0.30239011
   0.09335225  0.51572312  0.32841836
   0.09335225  0.81269524  0.48427688
   0.09335225  0.67158164  0.18730476
   0.01420138  0.34956513  0.07854984
   0.01420138  0.72898471  0.65043487
   0.01420238  0.92145016  0.27101529
   0.16655264  0.41406034  0.03597466
   0.16655264  0.62191332  0.58593966
   0.16655264  0.96402534  0.37808668
   0.24495600  0.58035441  0.28752858
   0.24495600  0.70717417  0.41964559
   0.24495600  0.71247142  0.29282583
   0.42685840  0.55570588  0.22808935
   0.42685840  0.67238347  0.44429412
   0.42685840  0.77191065  0.32761653
   0.21016370  0.53082741  0.03255406
   0.21016370  0.50172565  0.46917259
   0.21016370  0.96744594  0.49827435
   0.37488598  0.57732122  0.98027170
   0.37488598  0.40295048  0.42267878
   0.37488598  0.01972830  0.59705052
   0.58690192  0.60721203  0.17821555
   0.58690192  0.57100352  0.39278797
   0.58690192  0.82178445  0.42899648
   0.83609819  0.84976018  0.06486039
   0.83609819  0.21510021  0.15023982
   0.83609819  0.93513961  0.78489979
   0.63311175  0.65357502  0.89653546
   0.63311175  0.24296044  0.34642498
   0.63311175  0.10346454  0.75703956
   0.59541113  0.78543788  0.87234839
   0.59541113  0.08691050  0.21456212
   0.59541113  0.12765161  0.91308950
   0.71691023  0.97480916  0.11674306
   0.71691023  0.14193390  0.02519084
   0.71691023  0.88325694  0.85806610
   0.75731193  0.51748449  0.85065173
   0.75731193  0.33316723  0.48251551
   0.75731193  0.14934827  0.66683277
   0.04379503  0.57156863  0.00626000
   0.04379503  0.43469136  0.42843137
   0.04379503  0.99374000  0.56530864
   0.09102411  0.42809778  0.85998541
   0.09102411  0.43188763  0.57190222
   0.09102411  0.14001459  0.56811237
   0.91418757  0.29331903  0.77387982
   0.91418757  0.48056079  0.70668097
   0.91418757  0.22612018  0.51943921
   0.02018863  0.23767234  0.39584393
   0.02018863  0.15817259  0.76232766
   0.02018863  0.60415607  0.84182741
   0.97195746  0.01820105  0.16911811
   0.97195746  0.15091605  0.98179895
   0.97195746  0.83088289  0.84908395
   0.12655966  0.06038436  0.10629237
   0.12655966  0.04590801  0.93961564
   0.12655966  0.89370763  0.95409199
   0.17253271  0.28218624  0.33366179
   0.17253271  0.05147555  0.71781376
   0.17253271  0.66633821  0.94852445
   0.18976159  0.32759677  0.24405179
   0.18976159  0.91645603  0.67240323
   0.18976159  0.75594821  0.08354397
   0.32784518  0.08528233  0.10492978
   0.32784518  0.01964745  0.91471767
   0.32784518  0.89507022  0.98035255
   0.48027619  0.13675107  0.04920864
   0.48027619  0.91245757  0.86324893
   0.48027619  0.95079136  0.08754243
   0.34290234  0.37782996  0.18813348
   0.34290234  0.81030452  0.62217004
   0.34290234  0.81186652  0.18969548
   0.68860542  0.44890726  0.18899846
   0.68860542  0.74009220  0.55109274
   0.68860542  0.81100154  0.25990780
   0.86301062  0.42404140  0.98297670
   0.86301062  0.55893530  0.57595860
   0.86301062  0.01702330  0.44106470
   0.91091332  0.57826896  0.11508162
   0.91091332  0.53681166  0.42173104
   0.91091332  0.88491938  0.46318834
   0.80208446  0.52676969  0.31347623
   0.80208446  0.78670654  0.47323031
   0.80208446  0.68652377  0.21329346
   0.47677090  0.40699126  0.00631728
   0.47677090  0.59932702  0.59300874
   0.47677090  0.99368272  0.40067398
   0.42473487  0.43494581  0.87881140
   0.42473487  0.44386459  0.56505419
   0.42473487  0.12118860  0.55613541
   0.69937500  0.26352016  0.81083533
   0.69937500  0.54731417  0.73647984
   0.69937500  0.18916467  0.45268583
   0.55919740  0.20668258  0.67543447
   0.55919740  0.46875189  0.79331742
   0.55919740  0.32456553  0.53124811
   0.95368981  0.38791556  0.22872159
   0.95368981  0.84080602  0.61208444
   0.95368981  0.77127841  0.15919398
   0.04431371  0.42880483  0.20561691
   0.04431371  0.77681308  0.57119517
   0.04431371  0.79438309  0.22318692
   0.10943946  0.49396898  0.26441645
   0.10943946  0.77044748  0.50603102
   0.10943946  0.73558355  0.22955252
   0.06488721  0.40082784  0.12328611
   0.06488721  0.72245827  0.59917216
   0.06488721  0.87671389  0.27754173
   0.14892260  0.43757794  0.10020775
   0.14892260  0.66262981  0.56242206
   0.14892260  0.89979225  0.33737019
   0.19444079  0.53006993  0.24119483
   0.19444079  0.71112490  0.46993007
   0.19444079  0.75880517  0.28887510
   0.21538545  0.50262694  0.15868446
   0.21538545  0.65605752  0.49737306
   0.21538545  0.84131554  0.34394248
   0.30760406  0.53866086  0.13310536
   0.30760406  0.59444450  0.46133914
   0.30760406  0.86689464  0.40555550
   0.41350368  0.56282129  0.17525937
   0.41350368  0.61243808  0.43717871
   0.41350368  0.82474063  0.38756192
   0.29360445  0.54635517  0.06377182
   0.29360445  0.51741766  0.45364483
   0.29360445  0.93622818  0.48258234
   0.38462726  0.57246609  0.03466814
   0.38462726  0.46220205  0.42753391
   0.38462726  0.96533186  0.53779795
   0.50387286  0.59019658  0.14677546
   0.50387286  0.55657888  0.40980342
   0.50387286  0.85322454  0.44342112
   0.49176929  0.59255437  0.07477417
   0.49176929  0.48221981  0.40744563
   0.49176929  0.92522583  0.51778019
   0.59477201  0.60976630  0.03783976
   0.59477201  0.42807346  0.39023370
   0.59477201  0.96216024  0.57192654
   0.77717343  0.81399800  0.01515382
   0.77717343  0.20115483  0.18600100
   0.77717343  0.98484618  0.79884517
   0.67163833  0.71340223  0.92541834
   0.67163833  0.21201711  0.28659777
   0.67163833  0.07458166  0.78798289
   0.65016002  0.77793293  0.91449283
   0.65016002  0.13655990  0.22206707
   0.65016002  0.08550717  0.86344010
   0.72071589  0.92148339  0.98592128
   0.72071589  0.06443690  0.07851661
   0.72071589  0.01407872  0.93556310
   0.72081429  0.98568612  0.06576171
   0.72081429  0.08007660  0.01431388
   0.72081429  0.93423829  0.91992340
   0.84223099  0.51410908  0.87312400
   0.84223099  0.35901591  0.48589092
   0.84223099  0.12687600  0.64098409
   0.99239823  0.53812565  0.95168950
   0.99239823  0.41356385  0.46187435
   0.99239823  0.04831050  0.58643615
   0.01662478  0.46826627  0.88054127
   0.01662578  0.41227501  0.53173373
   0.01662478  0.11945873  0.58772499
   0.91325729  0.39241032  0.74761594
   0.91325729  0.35520562  0.60758968
   0.91325729  0.25238406  0.64479438
   0.91305096  0.31104902  0.72715571
   0.91305096  0.41610669  0.68895098
   0.91305096  0.27284429  0.58389331
   0.88922214  0.10241873  0.32327104
   0.88922214  0.22085231  0.89758127
   0.88922214  0.67672896  0.77914769
   0.98573232  0.12582349  0.28615759
   0.98573232  0.16033410  0.87417651
   0.98573232  0.71384241  0.83966590
   0.04362862  0.19967843  0.33223363
   0.04362862  0.13255520  0.80032157
   0.04362862  0.66776637  0.86744480
   0.01714793  0.07575088  0.20461115
   0.01714793  0.12886027  0.92424912
   0.01714793  0.79538885  0.87113973
   0.10363200  0.09967458  0.16992860
   0.10363200  0.07025403  0.90032542
   0.10363200  0.83007140  0.92974597
   0.12837888  0.22429984  0.29725719
   0.12837888  0.07295735  0.77570016
   0.12837888  0.70274281  0.92704265
   0.15964123  0.17497226  0.21531709
   0.15964123  0.04034483  0.82502774
   0.15964123  0.78468291  0.95965517
   0.24867736  0.20305376  0.17924908
   0.24867736  0.97619532  0.79694624
   0.24867736  0.82075092  0.02380468
   0.25438816  0.28565282  0.20232684
   0.25438816  0.91667402  0.71434718
   0.25438816  0.79767316  0.08332598
   0.33008957  0.14942677  0.12269936
   0.33008957  0.97327359  0.85057323
   0.33008957  0.87730064  0.02672641
   0.41584116  0.17805306  0.09180476
   0.41584116  0.91375170  0.82194694
   0.41584116  0.90819524  0.08624830
   0.33921337  0.31403712  0.17094295
   0.33921337  0.85690583  0.68596288
   0.33921337  0.82905705  0.14309417
   0.42157769  0.26071005  0.11594834
   0.42157869  0.85523829  0.73928995
   0.42157869  0.88405166  0.14476171
   0.51268402  0.29407535  0.08474017
   0.51268402  0.79066582  0.70592465
   0.51268402  0.91525983  0.20933418
   0.74424381  0.46148084  0.15067405
   0.74424381  0.68919320  0.53851916
   0.74424381  0.84932595  0.31080680
   0.83411434  0.45296404  0.04548968
   0.83411434  0.59252564  0.54703596
   0.83411434  0.95451032  0.40747436
   0.85926238  0.52811174  0.10948346
   0.85926238  0.58137172  0.47188826
   0.85926238  0.89051654  0.41862828
   0.80235269  0.60032047  0.25566153
   0.80235269  0.65534106  0.39967953
   0.80235269  0.74433847  0.34465894
   0.80231526  0.58767027  0.32179229
   0.80231526  0.73412202  0.41232973
   0.80231526  0.67820771  0.26587798
   0.51262459  0.38072016  0.94564701
   0.51262459  0.56492685  0.61927984
   0.51262459  0.05435299  0.43507315
   0.48607158  0.39447470  0.88348075
   0.48607158  0.48900504  0.60552530
   0.48607158  0.11651925  0.51099496
   0.62755106  0.30272756  0.84483576
   0.62755106  0.54210820  0.69727244
   0.62755106  0.15516424  0.45789180
   0.56162409  0.33849790  0.74214872
   0.56162409  0.40365082  0.66150210
   0.56162409  0.25785128  0.59634918
   0.56165100  0.26218143  0.67192918
   0.56165100  0.40974775  0.73781857
   0.56165100  0.32807082  0.59025225
   0.75125206  0.73664292  0.98787495
   0.75125206  0.25123203  0.26335708
   0.75125206  0.01212505  0.74876797
   0.71737718  0.84115004  0.97190628
   0.71737718  0.13075624  0.15884996
   0.71737718  0.02809372  0.86924376
   0.88359016  0.56535102  0.94616097
   0.88359016  0.38080995  0.43464898
   0.88359016  0.05383903  0.61919005
   0.92065081  0.45394219  0.83094190
   0.92065081  0.37699971  0.54605781
   0.92065081  0.16905810  0.62300029
   0.76217563  0.41273546  0.07207091
   0.76217563  0.65933445  0.58726454
   0.76217563  0.92792909  0.34066555
   0.80245852  0.53257971  0.17595327
   0.80245852  0.64337456  0.46742029
   0.80245852  0.82404673  0.35662544
   0.60126830  0.32407810  0.92075222
   0.60126830  0.59667412  0.67592190
   0.60126830  0.07924778  0.40332588
   0.55867853  0.34420914  0.81936634
   0.55867753  0.47515820  0.65579186
   0.55867753  0.18063366  0.52484180
   0.67695555  0.65121638  0.08841135
   0.67695555  0.43719397  0.34878362
   0.67695555  0.91158865  0.56280603
   0.59864817  0.58215827  0.96251058
   0.59864817  0.38035232  0.41784173
   0.59864817  0.03748942  0.61964768
   0.94008553  0.41660481  0.30661870
   0.94008553  0.89001389  0.58339619
   0.94008553  0.69338130  0.10998611
   0.89511258  0.33088077  0.17571325
   0.89511258  0.84483248  0.66911923
   0.89511258  0.82428675  0.15516752
   0.51161374  0.36736882  0.10412986
   0.51161374  0.73676004  0.63263118
   0.51161374  0.89587014  0.26323996
   0.59149108  0.24311946  0.03683799
   0.59149108  0.79371853  0.75688054
   0.59149108  0.96316201  0.20628147
   0.82642327  0.04256737  0.27159850
   0.82642327  0.22903113  0.95743263
   0.82642327  0.72840150  0.77096887
   0.87330741  0.14086121  0.39894966
   0.87330741  0.25808845  0.85913879
   0.87330741  0.60105034  0.74191155
