Zn2 H44 C40 N8 O8                       
   1.0000000000000000     
    -7.6263512444856323    0.0000000000000000    1.7486259207057369
    -3.8131756222428161   -7.7876744968773490    0.8743129603528684
     0.1142430208769505    0.0000000000000000   16.5758537611948675
   C    H    N    O    Zn
    40    44     8     8     2
Direct
  0.9294482982660455  0.8520339351485902  0.5043153001907257
  0.7814822334146427  0.1479660648514098  0.0043153001907257
  0.1104351920961335  0.9856427285378828  0.4975646655543287
  0.0960779206340234  0.0143572714621172  0.9975646655543287
  0.9335358942136125  0.1048313542605186  0.4808756460789709
  0.0383672484741382  0.8951686457394814  0.9808756460789709
  0.6276987350485541  0.0851922441275050  0.4651754557370609
  0.7128909791760663  0.9148077558724879  0.9651754557370609
  0.6432656247295654  0.0919442601036238  0.3716462040145672
  0.7352098848331821  0.9080557398963762  0.8716462040145672
  0.4521292873985843  0.1234561684212849  0.3481522225250657
  0.5755854558198763  0.8765438315787151  0.8481522225250657
  0.4757484176468978  0.1255070660094688  0.2545887415494477
  0.6012544836563620  0.8744929339905312  0.7545887415494477
  0.2412308216055408  0.2690557543691483  0.1599662435212963
  0.5102865759746962  0.7309442456308588  0.6599662435212963
  0.0228333576817761  0.1742002414924499  0.2060654707297900
  0.1970335991742260  0.8257997585075501  0.7060654707297971
  0.1572656059006903  0.1079169255918302  0.2566399576698899
  0.2651825314925205  0.8920830744081698  0.7566399576698899
  0.1162769464686377  0.4402952837749439  0.6365826194044999
  0.5565722302435887  0.5597047162250561  0.1365826194044928
  0.1044419264162855  0.2827488713853583  0.6828088307942153
  0.3871907978016367  0.7172511286146417  0.1828088307942153
  0.9036063072401106  0.3141704211447873  0.7285190431012509
  0.2177777283849025  0.6858295788552127  0.2285190431012509
  0.8301829822396272  0.3852875690307300  0.8081531287553858
  0.2154705512703572  0.6147124309692700  0.3081531287553858
  0.6367668988032591  0.4296892396922090  0.8462231114856138
  0.0664561384954681  0.5703107603077910  0.3462231114856138
  0.5100732858203756  0.4060688261426080  0.8060049003647052
  0.9161421119629836  0.5939311738573920  0.3060049003647123
  0.5862296946840075  0.3280406660125479  0.7280775889854496
  0.9142703606965554  0.6719593339874521  0.2280775889854496
  0.7801021075165764  0.2821402901483978  0.6901839730252775
  0.0622423976649742  0.7178597098516022  0.1901839730252775
  0.2961964672477393  0.4742850285026066  0.8422154467440208
  0.7704814957503459  0.5257149714973934  0.3422154467440208
  0.2349211769984549  0.4010843890865061  0.9250949933364652
  0.6360055660849611  0.5989156109134939  0.4250949933364652
  0.8754002935057414  0.7559383120776175  0.5110864841863147
  0.6313396055833564  0.2440616879223825  0.0110864841863147
  0.2386485253473936  0.0005689652798324  0.5013503834566393
  0.2392164906272285  0.9994310347201676  0.0013503834566393
  0.8746422843728254  0.2412776434423165  0.4680174768585630
  0.1159209278151394  0.7587223565576906  0.9680174768585630
  0.5366339518572332  0.2120436115556217  0.4937236773304789
  0.7486775634128620  0.7879563884443783  0.9937236773304789
  0.5666856935570621  0.9963590669959217  0.4924040085907748
  0.5630447605529838  0.0036409330040783  0.9924040085907748
  0.7592440827912768  0.9687399174114333  0.3451724169748971
  0.7279840002027100  0.0312600825885596  0.8451724169748971
  0.6852935155416091  0.1941487130840542  0.3458248572543212
  0.8794422286256633  0.8058512869159458  0.8458248572543212
  0.4123831467444177  0.0206589605496390  0.3749875184979530
  0.4330421072940567  0.9793410394503610  0.8749875184979530
  0.3341647363809201  0.2464717147237749  0.3735711675572375
  0.5806364511046880  0.7535282852762251  0.8735711675572375
  0.5251652522507797  0.2219015384672716  0.2269181523777419
  0.7470677907180630  0.7780984615327284  0.7269181523777419
  0.5852002516453609  0.9988512087447887  0.2292165395674814
  0.5840524603901471  0.0011487912552113  0.7292165395674886
  0.3226619854208224  0.3357596869978821  0.1259416101848458
  0.6584216724187044  0.6642403130021179  0.6259416101848458
  0.8930573189364921  0.1572679979579945  0.2080613549860502
  0.0503253168944866  0.8427320020420055  0.7080613549860502
  0.1666655644787198  0.0245856142363294  0.3100591574258544
  0.1912511787150493  0.9754143857636706  0.8100591574258544
  0.2077353231964381  0.2417534077573364  0.7252430713758145
  0.4494887309537745  0.7582465922426636  0.2252430713758145
  0.1636826436146137  0.1778339369319895  0.6378720611561803
  0.3415165805465961  0.8221660630680105  0.1378720611561803
  0.9229664213976747  0.4100129284475287  0.8405456411449492
  0.3329803498452009  0.5899870715524713  0.3405456411449492
  0.5821532407588990  0.4871508519645928  0.9077977298438356
  0.0693040927234847  0.5128491480354000  0.4077977298438356
  0.4908964601222010  0.3102129900103563  0.6944358997516673
  0.8011094501325502  0.6897870099896437  0.1944358997516673
  0.8351454503331937  0.2242386569931369  0.6287792530962975
  0.0593831073263331  0.7757613430068631  0.1287792530962975
  0.2193491235749434  0.4558902133955058  0.7984436122360918
  0.6752393369704492  0.5441097866044942  0.2984436122360918
  0.2320448655653990  0.6145465080946124  0.8491414912568800
  0.8465903736600140  0.3854534919053876  0.3491414912568729
  0.1058125378743284  0.8283805833665241  0.5120997943056480
  0.9341941212408500  0.1716194166334759  0.0120997943056480
  0.8211124285420439  0.0178200056490141  0.4858273666139823
  0.8389324341910580  0.9821799943509859  0.9858273666139823
  0.2943687874034708  0.1690995313491044  0.2264107520737255
  0.4634683187525681  0.8309004686508956  0.7264107520737255
  0.0768229354977947  0.2746047698471870  0.1461391418438893
  0.3514277053449817  0.7253952301528130  0.6461391418438893
  0.2860961330874403  0.4087470828660003  0.5911821704289153
  0.6948432159534477  0.5912529171339997  0.0911821704289153
  0.9737405484111363  0.5850625211285703  0.6445999196838841
  0.5588030695396995  0.4149374788714297  0.1445999196838841
  0.3511429609330250  0.2697412640726142  0.9560339604674510
  0.6208842250056392  0.7302587359273858  0.4560339604674510
  0.0510763767067886  0.4884702857462813  0.9573169149362073
  0.5395466624530698  0.5115297142537187  0.4573169149362073
  0.3211281601530289  0.6176821228057462  0.5503803679910496
  0.9388238174664423  0.3823178771942466  0.0512838709674170

  0.00000000E+00  0.00000000E+00  0.00000000E+00
  0.00000000E+00  0.00000000E+00  0.00000000E+00
  0.00000000E+00  0.00000000E+00  0.00000000E+00
  0.00000000E+00  0.00000000E+00  0.00000000E+00
  0.00000000E+00  0.00000000E+00  0.00000000E+00
  0.00000000E+00  0.00000000E+00  0.00000000E+00
  0.00000000E+00  0.00000000E+00  0.00000000E+00
  0.00000000E+00  0.00000000E+00  0.00000000E+00
  0.00000000E+00  0.00000000E+00  0.00000000E+00
  0.00000000E+00  0.00000000E+00  0.00000000E+00
  0.00000000E+00  0.00000000E+00  0.00000000E+00
  0.00000000E+00  0.00000000E+00  0.00000000E+00
  0.00000000E+00  0.00000000E+00  0.00000000E+00
  0.00000000E+00  0.00000000E+00  0.00000000E+00
  0.00000000E+00  0.00000000E+00  0.00000000E+00
  0.00000000E+00  0.00000000E+00  0.00000000E+00
  0.00000000E+00  0.00000000E+00  0.00000000E+00
  0.00000000E+00  0.00000000E+00  0.00000000E+00
  0.00000000E+00  0.00000000E+00  0.00000000E+00
  0.00000000E+00  0.00000000E+00  0.00000000E+00
  0.00000000E+00  0.00000000E+00  0.00000000E+00
  0.00000000E+00  0.00000000E+00  0.00000000E+00
  0.00000000E+00  0.00000000E+00  0.00000000E+00
  0.00000000E+00  0.00000000E+00  0.00000000E+00
  0.00000000E+00  0.00000000E+00  0.00000000E+00
  0.00000000E+00  0.00000000E+00  0.00000000E+00
  0.00000000E+00  0.00000000E+00  0.00000000E+00
  0.00000000E+00  0.00000000E+00  0.00000000E+00
  0.00000000E+00  0.00000000E+00  0.00000000E+00
  0.00000000E+00  0.00000000E+00  0.00000000E+00
  0.00000000E+00  0.00000000E+00  0.00000000E+00
  0.00000000E+00  0.00000000E+00  0.00000000E+00
  0.00000000E+00  0.00000000E+00  0.00000000E+00
  0.00000000E+00  0.00000000E+00  0.00000000E+00
  0.00000000E+00  0.00000000E+00  0.00000000E+00
  0.00000000E+00  0.00000000E+00  0.00000000E+00
  0.00000000E+00  0.00000000E+00  0.00000000E+00
  0.00000000E+00  0.00000000E+00  0.00000000E+00
  0.00000000E+00  0.00000000E+00  0.00000000E+00
  0.00000000E+00  0.00000000E+00  0.00000000E+00
  0.00000000E+00  0.00000000E+00  0.00000000E+00
  0.00000000E+00  0.00000000E+00  0.00000000E+00
  0.00000000E+00  0.00000000E+00  0.00000000E+00
  0.00000000E+00  0.00000000E+00  0.00000000E+00
  0.00000000E+00  0.00000000E+00  0.00000000E+00
  0.00000000E+00  0.00000000E+00  0.00000000E+00
  0.00000000E+00  0.00000000E+00  0.00000000E+00
  0.00000000E+00  0.00000000E+00  0.00000000E+00
  0.00000000E+00  0.00000000E+00  0.00000000E+00
  0.00000000E+00  0.00000000E+00  0.00000000E+00
  0.00000000E+00  0.00000000E+00  0.00000000E+00
  0.00000000E+00  0.00000000E+00  0.00000000E+00
  0.00000000E+00  0.00000000E+00  0.00000000E+00
  0.00000000E+00  0.00000000E+00  0.00000000E+00
  0.00000000E+00  0.00000000E+00  0.00000000E+00
  0.00000000E+00  0.00000000E+00  0.00000000E+00
  0.00000000E+00  0.00000000E+00  0.00000000E+00
  0.00000000E+00  0.00000000E+00  0.00000000E+00
  0.00000000E+00  0.00000000E+00  0.00000000E+00
  0.00000000E+00  0.00000000E+00  0.00000000E+00
  0.00000000E+00  0.00000000E+00  0.00000000E+00
  0.00000000E+00  0.00000000E+00  0.00000000E+00
  0.00000000E+00  0.00000000E+00  0.00000000E+00
  0.00000000E+00  0.00000000E+00  0.00000000E+00
  0.00000000E+00  0.00000000E+00  0.00000000E+00
  0.00000000E+00  0.00000000E+00  0.00000000E+00
  0.00000000E+00  0.00000000E+00  0.00000000E+00
  0.00000000E+00  0.00000000E+00  0.00000000E+00
  0.00000000E+00  0.00000000E+00  0.00000000E+00
  0.00000000E+00  0.00000000E+00  0.00000000E+00
  0.00000000E+00  0.00000000E+00  0.00000000E+00
  0.00000000E+00  0.00000000E+00  0.00000000E+00
  0.00000000E+00  0.00000000E+00  0.00000000E+00
  0.00000000E+00  0.00000000E+00  0.00000000E+00
  0.00000000E+00  0.00000000E+00  0.00000000E+00
  0.00000000E+00  0.00000000E+00  0.00000000E+00
  0.00000000E+00  0.00000000E+00  0.00000000E+00
  0.00000000E+00  0.00000000E+00  0.00000000E+00
  0.00000000E+00  0.00000000E+00  0.00000000E+00
  0.00000000E+00  0.00000000E+00  0.00000000E+00
  0.00000000E+00  0.00000000E+00  0.00000000E+00
  0.00000000E+00  0.00000000E+00  0.00000000E+00
  0.00000000E+00  0.00000000E+00  0.00000000E+00
  0.00000000E+00  0.00000000E+00  0.00000000E+00
  0.00000000E+00  0.00000000E+00  0.00000000E+00
  0.00000000E+00  0.00000000E+00  0.00000000E+00
  0.00000000E+00  0.00000000E+00  0.00000000E+00
  0.00000000E+00  0.00000000E+00  0.00000000E+00
  0.00000000E+00  0.00000000E+00  0.00000000E+00
  0.00000000E+00  0.00000000E+00  0.00000000E+00
  0.00000000E+00  0.00000000E+00  0.00000000E+00
  0.00000000E+00  0.00000000E+00  0.00000000E+00
  0.00000000E+00  0.00000000E+00  0.00000000E+00
  0.00000000E+00  0.00000000E+00  0.00000000E+00
  0.00000000E+00  0.00000000E+00  0.00000000E+00
  0.00000000E+00  0.00000000E+00  0.00000000E+00
  0.00000000E+00  0.00000000E+00  0.00000000E+00
  0.00000000E+00  0.00000000E+00  0.00000000E+00
  0.00000000E+00  0.00000000E+00  0.00000000E+00
  0.00000000E+00  0.00000000E+00  0.00000000E+00
  0.00000000E+00  0.00000000E+00  0.00000000E+00
  0.00000000E+00  0.00000000E+00  0.00000000E+00
