Zn2 H44 C40 N8 O8                       
   1.0000000000000000     
    -7.6263512444856323    0.0000000000000000    1.7486259207057369
    -3.8131756222428161   -7.7876744968773490    0.8743129603528684
     0.1142430208769505    0.0000000000000000   16.5758537611948675
   C    H    N    O    Zn
    40    44     8     8     2
Direct
  0.9294482982660468  0.8520339351485930  0.5043153001907275
  0.7814822334146402  0.1479660648514069  0.0043153001907281
  0.1104351920961303  0.9856427285378864  0.4975646655543255
  0.0960779206340237  0.0143572714621137  0.9975646655543255
  0.9335358942136136  0.1048313542605210  0.4808756460789712
  0.0383672484741354  0.8951686457394792  0.9808756460789706
  0.6276987350485556  0.0851922441275085  0.4651754557370596
  0.7128909791760643  0.9148077558724913  0.9651754557370591
  0.6432656247295628  0.0919442601036215  0.3716462040145664
  0.7352098848331843  0.9080557398963780  0.8716462040145661
  0.4521292873985870  0.1234561684212870  0.3481522225250667
  0.5755854558198742  0.8765438315787132  0.8481522225250671
  0.4757484176468944  0.1255070660094701  0.2545887415494505
  0.6012544836563604  0.8744929339905301  0.7545887415494493
  0.2412308216055428  0.2690557543691513  0.1599662435212991
  0.5102865759746945  0.7309442456308560  0.6599662435212990
  0.0228333576817739  0.1742002414924491  0.2060654707297929
  0.1970335991742231  0.8257997585075511  0.7060654707297935
  0.1572656059006918  0.1079169255918303  0.2566399576698906
  0.2651825314925224  0.8920830744081694  0.7566399576698905
  0.1162769464686407  0.4402952837749471  0.6365826194044967
  0.5565722302435883  0.5597047162250528  0.1365826194044961
  0.1044419264162842  0.2827488713853551  0.6828088307942144
  0.3871907978016393  0.7172511286146450  0.1828088307942147
  0.9036063072401134  0.3141704211447894  0.7285190431012479
  0.2177777283849007  0.6858295788552102  0.2285190431012480
  0.8301829822396239  0.3852875690307321  0.8081531287553888
  0.2154705512703554  0.6147124309692681  0.3081531287553891
  0.6367668988032612  0.4296892396922096  0.8462231114856108
  0.0664561384954709  0.5703107603077914  0.3462231114856113
  0.5100732858203787  0.4060688261426067  0.8060049003647078
  0.9161421119629855  0.5939311738573939  0.3060049003647158
  0.5862296946840089  0.3280406660125457  0.7280775889854469
  0.9142703606965544  0.6719593339874532  0.2280775889854470
  0.7801021075165747  0.2821402901483997  0.6901839730252798
  0.0622423976649746  0.7178597098516001  0.1901839730252797
  0.2961964672477409  0.4742850285026039  0.8422154467440206
  0.7704814957503443  0.5257149714973962  0.3422154467440210
  0.2349211769984529  0.4010843890865087  0.9250949933364617
  0.6360055660849619  0.5989156109134909  0.4250949933364622
  0.8754002935057418  0.7559383120776144  0.5110864841863126
  0.6313396055833546  0.2440616879223856  0.0110864841863126
  0.2386485253473959  0.0005689652798328  0.5013503834566363
  0.2392164906272313 -0.0005689652798326  0.0013503834566358
  0.8746422843728228  0.2412776434423132  0.4680174768585645
  0.1159209278151404  0.7587223565576872  0.9680174768585641
  0.5366339518572352  0.2120436115556198  0.4937236773304762
  0.7486775634128628  0.7879563884443802  0.9937236773304764
  0.5666856935570646  0.9963590669959230  0.4924040085907749
  0.5630447605529867  0.0036409330040767  0.9924040085907752
  0.7592440827912801  0.9687399174114320  0.3451724169748955
  0.7279840002027111  0.0312600825885615  0.8451724169748951
  0.6852935155416088  0.1941487130840538  0.3458248572543228
  0.8794422286256618  0.8058512869159470  0.8458248572543237
  0.4123831467444202  0.0206589605496411  0.3749875184979515
  0.4330421072940541  0.9793410394503601  0.8749875184979503
  0.3341647363809213  0.2464717147237764  0.3735711675572366
  0.5806364511046906  0.7535282852762244  0.8735711675572364
  0.5251652522507827  0.2219015384672744  0.2269181523777430
  0.7470677907180615  0.7780984615327259  0.7269181523777419
  0.5852002516453595  0.9988512087447867  0.2292165395674849
  0.5840524603901441  0.0011487912552133  0.7292165395674854
  0.3226619854208191  0.3357596869978817  0.1259416101848439
  0.6584216724187018  0.6642403130021179  0.6259416101848446
  0.8930573189364887  0.1572679979579959  0.2080613549860511
  0.0503253168944853  0.8427320020420034  0.7080613549860512
  0.1666655644787190  0.0245856142363288  0.3100591574258540
  0.1912511787150478  0.9754143857636713  0.8100591574258542
  0.2077353231964365  0.2417534077573380  0.7252430713758168
  0.4494887309537748  0.7582465922426612  0.2252430713758166
  0.1636826436146110  0.1778339369319861  0.6378720611561781
  0.3415165805465970  0.8221660630680139  0.1378720611561788
  0.9229664213976733  0.4100129284475269  0.8405456411449481
  0.3329803498451978  0.5899870715524734  0.3405456411449498
  0.5821532407588972  0.4871508519645960  0.9077977298438329
  0.0693040927234863  0.5128491480354030  0.4077977298438326
  0.4908964601221978  0.3102129900103529  0.6944358997516649
  0.8011094501325507  0.6897870099896473  0.1944358997516656
  0.8351454503331920  0.2242386569931377  0.6287792530962949
  0.0593831073263321  0.7757613430068613  0.1287792530962952
  0.2193491235749410  0.4558902133955079  0.7984436122360903
  0.6752393369704481  0.5441097866044918  0.2984436122360907
  0.2320448655653992  0.6145465080946094  0.8491414912568765
  0.8465903736600108  0.3854534919053905  0.3491414912568759
  0.1058125378743276  0.8283805833665211  0.5120997943056473
  0.9341941212408531  0.1716194166334791  0.0120997943056484
  0.8211124285420461  0.0178200056490162  0.4858273666139854
  0.8389324341910612  0.9821799943509836  0.9858273666139838
  0.2943687874034738  0.1690995313491047  0.2264107520737265
  0.4634683187525714  0.8309004686508963  0.7264107520737263
  0.0768229354977971  0.2746047698471867  0.1461391418438877
  0.3514277053449832  0.7253952301528146  0.6461391418438872
  0.2860961330874390  0.4087470828660032  0.5911821704289155
  0.6948432159534482  0.5912529171339965  0.0911821704289155
  0.9737405484111329  0.5850625211285682  0.6445999196838870
  0.5588030695397004  0.4149374788714315  0.1445999196838869
  0.3511429609330253  0.2697412640726125  0.9560339604674503
  0.6208842250056373  0.7302587359273881  0.4560339604674495
  0.0510763767067864  0.4884702857462835  0.9573169149362065
  0.5395466624530688  0.5115297142537160  0.4573169149362056
  0.3211416946606938  0.6176821228057496  0.5512838709674144
  0.9388238174664424  0.3823178771942498  0.0512838709674143

  0.00000000E+00  0.00000000E+00  0.00000000E+00
  0.00000000E+00  0.00000000E+00  0.00000000E+00
  0.00000000E+00  0.00000000E+00  0.00000000E+00
  0.00000000E+00  0.00000000E+00  0.00000000E+00
  0.00000000E+00  0.00000000E+00  0.00000000E+00
  0.00000000E+00  0.00000000E+00  0.00000000E+00
  0.00000000E+00  0.00000000E+00  0.00000000E+00
  0.00000000E+00  0.00000000E+00  0.00000000E+00
  0.00000000E+00  0.00000000E+00  0.00000000E+00
  0.00000000E+00  0.00000000E+00  0.00000000E+00
  0.00000000E+00  0.00000000E+00  0.00000000E+00
  0.00000000E+00  0.00000000E+00  0.00000000E+00
  0.00000000E+00  0.00000000E+00  0.00000000E+00
  0.00000000E+00  0.00000000E+00  0.00000000E+00
  0.00000000E+00  0.00000000E+00  0.00000000E+00
  0.00000000E+00  0.00000000E+00  0.00000000E+00
  0.00000000E+00  0.00000000E+00  0.00000000E+00
  0.00000000E+00  0.00000000E+00  0.00000000E+00
  0.00000000E+00  0.00000000E+00  0.00000000E+00
  0.00000000E+00  0.00000000E+00  0.00000000E+00
  0.00000000E+00  0.00000000E+00  0.00000000E+00
  0.00000000E+00  0.00000000E+00  0.00000000E+00
  0.00000000E+00  0.00000000E+00  0.00000000E+00
  0.00000000E+00  0.00000000E+00  0.00000000E+00
  0.00000000E+00  0.00000000E+00  0.00000000E+00
  0.00000000E+00  0.00000000E+00  0.00000000E+00
  0.00000000E+00  0.00000000E+00  0.00000000E+00
  0.00000000E+00  0.00000000E+00  0.00000000E+00
  0.00000000E+00  0.00000000E+00  0.00000000E+00
  0.00000000E+00  0.00000000E+00  0.00000000E+00
  0.00000000E+00  0.00000000E+00  0.00000000E+00
  0.00000000E+00  0.00000000E+00  0.00000000E+00
  0.00000000E+00  0.00000000E+00  0.00000000E+00
  0.00000000E+00  0.00000000E+00  0.00000000E+00
  0.00000000E+00  0.00000000E+00  0.00000000E+00
  0.00000000E+00  0.00000000E+00  0.00000000E+00
  0.00000000E+00  0.00000000E+00  0.00000000E+00
  0.00000000E+00  0.00000000E+00  0.00000000E+00
  0.00000000E+00  0.00000000E+00  0.00000000E+00
  0.00000000E+00  0.00000000E+00  0.00000000E+00
  0.00000000E+00  0.00000000E+00  0.00000000E+00
  0.00000000E+00  0.00000000E+00  0.00000000E+00
  0.00000000E+00  0.00000000E+00  0.00000000E+00
  0.00000000E+00  0.00000000E+00  0.00000000E+00
  0.00000000E+00  0.00000000E+00  0.00000000E+00
  0.00000000E+00  0.00000000E+00  0.00000000E+00
  0.00000000E+00  0.00000000E+00  0.00000000E+00
  0.00000000E+00  0.00000000E+00  0.00000000E+00
  0.00000000E+00  0.00000000E+00  0.00000000E+00
  0.00000000E+00  0.00000000E+00  0.00000000E+00
  0.00000000E+00  0.00000000E+00  0.00000000E+00
  0.00000000E+00  0.00000000E+00  0.00000000E+00
  0.00000000E+00  0.00000000E+00  0.00000000E+00
  0.00000000E+00  0.00000000E+00  0.00000000E+00
  0.00000000E+00  0.00000000E+00  0.00000000E+00
  0.00000000E+00  0.00000000E+00  0.00000000E+00
  0.00000000E+00  0.00000000E+00  0.00000000E+00
  0.00000000E+00  0.00000000E+00  0.00000000E+00
  0.00000000E+00  0.00000000E+00  0.00000000E+00
  0.00000000E+00  0.00000000E+00  0.00000000E+00
  0.00000000E+00  0.00000000E+00  0.00000000E+00
  0.00000000E+00  0.00000000E+00  0.00000000E+00
  0.00000000E+00  0.00000000E+00  0.00000000E+00
  0.00000000E+00  0.00000000E+00  0.00000000E+00
  0.00000000E+00  0.00000000E+00  0.00000000E+00
  0.00000000E+00  0.00000000E+00  0.00000000E+00
  0.00000000E+00  0.00000000E+00  0.00000000E+00
  0.00000000E+00  0.00000000E+00  0.00000000E+00
  0.00000000E+00  0.00000000E+00  0.00000000E+00
  0.00000000E+00  0.00000000E+00  0.00000000E+00
  0.00000000E+00  0.00000000E+00  0.00000000E+00
  0.00000000E+00  0.00000000E+00  0.00000000E+00
  0.00000000E+00  0.00000000E+00  0.00000000E+00
  0.00000000E+00  0.00000000E+00  0.00000000E+00
  0.00000000E+00  0.00000000E+00  0.00000000E+00
  0.00000000E+00  0.00000000E+00  0.00000000E+00
  0.00000000E+00  0.00000000E+00  0.00000000E+00
  0.00000000E+00  0.00000000E+00  0.00000000E+00
  0.00000000E+00  0.00000000E+00  0.00000000E+00
  0.00000000E+00  0.00000000E+00  0.00000000E+00
  0.00000000E+00  0.00000000E+00  0.00000000E+00
  0.00000000E+00  0.00000000E+00  0.00000000E+00
  0.00000000E+00  0.00000000E+00  0.00000000E+00
  0.00000000E+00  0.00000000E+00  0.00000000E+00
  0.00000000E+00  0.00000000E+00  0.00000000E+00
  0.00000000E+00  0.00000000E+00  0.00000000E+00
  0.00000000E+00  0.00000000E+00  0.00000000E+00
  0.00000000E+00  0.00000000E+00  0.00000000E+00
  0.00000000E+00  0.00000000E+00  0.00000000E+00
  0.00000000E+00  0.00000000E+00  0.00000000E+00
  0.00000000E+00  0.00000000E+00  0.00000000E+00
  0.00000000E+00  0.00000000E+00  0.00000000E+00
  0.00000000E+00  0.00000000E+00  0.00000000E+00
  0.00000000E+00  0.00000000E+00  0.00000000E+00
  0.00000000E+00  0.00000000E+00  0.00000000E+00
  0.00000000E+00  0.00000000E+00  0.00000000E+00
  0.00000000E+00  0.00000000E+00  0.00000000E+00
  0.00000000E+00  0.00000000E+00  0.00000000E+00
  0.00000000E+00  0.00000000E+00  0.00000000E+00
  0.00000000E+00  0.00000000E+00  0.00000000E+00
  0.00000000E+00  0.00000000E+00  0.00000000E+00
  0.00000000E+00  0.00000000E+00  0.00000000E+00
