submit directory /gpfs/home3/srinidhi/BEC_work/highthroughput/mof_calcs/02-02-2022_Zn/GAXQAZ_FSR/piezo_isym
 running on  128 total cores
 distrk:  each k-point on   32 cores,    4 groups
 distr:  one band on    1 cores,   32 groups
 using from now: INCAR     
 vasp.5.4.4.18Apr17-6-g9f103f2a35 (build Oct 14 2021 09:59:43) complex           
 POSCAR found type information on POSCAR  C  H  N  O  Zn
 POSCAR found :  5 types and     102 ions
 scaLAPACK will be used

 ----------------------------------------------------------------------------- 
|                                                                             |
|           W    W    AA    RRRRR   N    N  II  N    N   GGGG   !!!           |
|           W    W   A  A   R    R  NN   N  II  NN   N  G    G  !!!           |
|           W    W  A    A  R    R  N N  N  II  N N  N  G       !!!           |
|           W WW W  AAAAAA  RRRRR   N  N N  II  N  N N  G  GGG   !            |
|           WW  WW  A    A  R   R   N   NN  II  N   NN  G    G                |
|           W    W  A    A  R    R  N    N  II  N    N   GGGG   !!!           |
|                                                                             |
|      For optimal performance we recommend to set                            |
|        NCORE= 4 - approx SQRT( number of cores)                             |
|      NCORE specifies how many cores store one orbital (NPAR=cpu/NCORE).     |
|      This setting can  greatly improve the performance of VASP for DFT.     |
|      The default,   NCORE=1            might be grossly inefficient         |
|      on modern multi-core architectures or massively parallel machines.     |
|      Do your own testing !!!!                                               |
|      Unfortunately you need to use the default for GW and RPA calculations. |
|      (for HF NCORE is supported but not extensively tested yet)             |
|                                                                             |
 ----------------------------------------------------------------------------- 


 ----------------------------------------------------------------------------- 
|                                                                             |
|           W    W    AA    RRRRR   N    N  II  N    N   GGGG   !!!           |
|           W    W   A  A   R    R  NN   N  II  NN   N  G    G  !!!           |
|           W    W  A    A  R    R  N N  N  II  N N  N  G       !!!           |
|           W WW W  AAAAAA  RRRRR   N  N N  II  N  N N  G  GGG   !            |
|           WW  WW  A    A  R   R   N   NN  II  N   NN  G    G                |
|           W    W  A    A  R    R  N    N  II  N    N   GGGG   !!!           |
|                                                                             |
|      You have enabled k-point parallelism (KPAR>1).                         |
|      This developmental code was originally  written by Paul Kent at ORNL,  |
|      and carefully double checked in Vienna.                                |
|      GW as well as linear response parallelism added by Martijn Marsman     |
|      and Georg Kresse.                                                      |
|      Carefully verify results versus KPAR=1.                                |
|      Report problems to Paul Kent and Vienna.                               |
|                                                                             |
 ----------------------------------------------------------------------------- 


 ----------------------------------------------------------------------------- 
|                                                                             |
|  ADVICE TO THIS USER RUNNING 'VASP/VAMP'   (HEAR YOUR MASTER'S VOICE ...):  |
|                                                                             |
|      You have a (more or less) 'large supercell' and for larger cells       |
|      it might be more efficient to use real space projection opertators     |
|      So try LREAL= Auto  in the INCAR   file.                               |
|      Mind:          For very  accurate calculation you might also keep the  |
|      reciprocal projection scheme          (i.e. LREAL=.FALSE.)             |
|                                                                             |
 ----------------------------------------------------------------------------- 

 LDA part: xc-table for Pade appr. of Perdew
 POSCAR, INCAR and KPOINTS ok, starting setup
 FFT: planning ...
 WAVECAR not read
 entering main loop
       N       E                     dE             d eps       ncg     rms          rms(c)
DAV:   1     0.187841888173E+04    0.18784E+04   -0.14810E+05  1344   0.130E+03
DAV:   2    -0.471610883363E+03   -0.23500E+04   -0.22192E+04  1536   0.301E+02
DAV:   3    -0.697852909121E+03   -0.22624E+03   -0.22384E+03  1600   0.103E+02
DAV:   4    -0.703767581598E+03   -0.59147E+01   -0.58850E+01  1728   0.184E+01
DAV:   5    -0.703906576661E+03   -0.13900E+00   -0.13883E+00  1728   0.268E+00    0.431E+01
RMM:   6    -0.658545497121E+03    0.45361E+02   -0.83500E+01  1344   0.150E+01    0.229E+01
RMM:   7    -0.650310538204E+03    0.82350E+01   -0.23643E+01  1344   0.778E+00    0.107E+01
RMM:   8    -0.649736307039E+03    0.57423E+00   -0.32332E+00  1365   0.336E+00    0.320E+00
RMM:   9    -0.649725994554E+03    0.10312E-01   -0.31541E-01  1344   0.111E+00    0.691E-01
RMM:  10    -0.649737300735E+03   -0.11306E-01   -0.27061E-02  1374   0.400E-01    0.379E-01
RMM:  11    -0.649742613345E+03   -0.53126E-02   -0.96580E-03  1353   0.195E-01    0.146E-01
RMM:  12    -0.649743971740E+03   -0.13584E-02   -0.19535E-03  1344   0.896E-02    0.602E-02
RMM:  13    -0.649744203032E+03   -0.23129E-03   -0.52311E-04  1344   0.501E-02    0.224E-02
RMM:  14    -0.649744213709E+03   -0.10677E-04   -0.74221E-05  1372   0.188E-02    0.963E-03
RMM:  15    -0.649744213574E+03    0.13485E-06   -0.17973E-05  1348   0.839E-03    0.333E-03
RMM:  16    -0.649744213833E+03   -0.25879E-06   -0.19888E-06  1330   0.299E-03    0.163E-03
RMM:  17    -0.649744213961E+03   -0.12824E-06   -0.51728E-07  1153   0.165E-03    0.757E-04
RMM:  18    -0.649744213969E+03   -0.75088E-08   -0.58979E-08   870   0.548E-04
 Linear response reoptimize wavefunctions to high precision
DAV:   1    -0.649744214018E+03    0.73535E+01   -0.32825E-08  1056   0.590E-04
DAV:   2    -0.649744214019E+03   -0.76034E-09   -0.74167E-09  1248   0.196E-04
DAV:   3    -0.649744214019E+03   -0.48749E-09   -0.12186E-09  1152   0.843E-05
 Linear response G [H, r] |phi>, progress :
  Direction:   1
       N       E                     dE             d eps       ncg     rms
RMM:   1    -0.154225764827E+04   -0.15423E+04   -0.10722E+03  3552   0.965E+01
RMM:   2    -0.112468023881E+04    0.41758E+03   -0.19253E+02  2459   0.303E+01
RMM:   3    -0.112732141535E+04   -0.26412E+01   -0.45861E+00  2501   0.413E+00
RMM:   4    -0.112741077527E+04   -0.89360E-01   -0.10736E-01  2547   0.646E-01
RMM:   5    -0.112741291735E+04   -0.21421E-02   -0.61664E-03  2572   0.140E-01
RMM:   6    -0.112741311284E+04   -0.19549E-03    0.83309E-04  2787   0.525E-02
RMM:   7    -0.112741311815E+04   -0.53038E-05    0.14772E-03  2910   0.382E-02
RMM:   8    -0.112741309711E+04    0.21038E-04    0.18153E-03  2941   0.349E-02
RMM:   9    -0.112741309883E+04   -0.17183E-05    0.18098E-03  2959   0.342E-02
RMM:  10    -0.112741310349E+04   -0.46665E-05    0.17649E-03  2949   0.340E-02
 Linear response G [H, r] |phi>, progress :
  Direction:   2
       N       E                     dE             d eps       ncg     rms
RMM:   1    -0.131983340055E+04   -0.13198E+04    0.39224E+02  3340   0.978E+01
RMM:   2    -0.112524760109E+04    0.19459E+03   -0.13943E+02  2417   0.263E+01
RMM:   3    -0.112761733450E+04   -0.23697E+01   -0.33723E+00  2516   0.349E+00
RMM:   4    -0.112768682400E+04   -0.69489E-01   -0.91100E-02  2558   0.560E-01
RMM:   5    -0.112768884930E+04   -0.20253E-02   -0.71144E-03  2565   0.119E-01
RMM:   6    -0.112768896528E+04   -0.11598E-03   -0.23144E-03  2669   0.437E-02
RMM:   7    -0.112768895714E+04    0.81413E-05   -0.17594E-03  2803   0.322E-02
RMM:   8    -0.112768899103E+04   -0.33884E-04   -0.20354E-03  2844   0.299E-02
RMM:   9    -0.112768896975E+04    0.21274E-04   -0.18153E-03  2861   0.294E-02
 Linear response G [H, r] |phi>, progress :
  Direction:   3
       N       E                     dE             d eps       ncg     rms
RMM:   1    -0.140983729409E+04   -0.14098E+04   -0.32788E+02  3370   0.964E+01
RMM:   2    -0.112503699106E+04    0.28480E+03   -0.14886E+02  2447   0.272E+01
RMM:   3    -0.112755343394E+04   -0.25164E+01   -0.36546E+00  2508   0.373E+00
RMM:   4    -0.112763294989E+04   -0.79516E-01   -0.10802E-01  2555   0.617E-01
RMM:   5    -0.112763535700E+04   -0.24071E-02   -0.96803E-03  2556   0.136E-01
RMM:   6    -0.112763556009E+04   -0.20309E-03   -0.31679E-03  2752   0.501E-02
RMM:   7    -0.112763559624E+04   -0.36149E-04   -0.28046E-03  2894   0.355E-02
RMM:   8    -0.112763559592E+04    0.31531E-06   -0.27007E-03  2930   0.323E-02
RMM:   9    -0.112763560853E+04   -0.12605E-04   -0.28148E-03  2947   0.316E-02
RMM:  10    -0.112763560704E+04    0.14836E-05   -0.27981E-03  2933   0.314E-02
 Linear response to external field, progress :
  Direction:   1
       N       E                     dE             d eps       ncg     rms          rms(c)
RMM:   1    -0.633984494820E+01   -0.63398E+01   -0.24528E+01  2779   0.419E+00
RMM:   2    -0.649430999813E+01   -0.15447E+00   -0.13363E-01  2437   0.754E-01    0.550E+00
RMM:   3    -0.540871533440E+01    0.10856E+01   -0.23844E+00  2487   0.223E+00    0.262E+00
RMM:   4    -0.536162908343E+01    0.47086E-01   -0.20969E-01  2476   0.766E-01    0.137E+00
RMM:   5    -0.541941932139E+01   -0.57790E-01   -0.95417E-02  2469   0.467E-01    0.443E-01
RMM:   6    -0.546326771046E+01   -0.43848E-01   -0.12925E-02  2467   0.167E-01    0.210E-01
RMM:   7    -0.548015179068E+01   -0.16884E-01   -0.38874E-03  2376   0.659E-02    0.612E-02
RMM:   8    -0.548723522493E+01   -0.70834E-02   -0.28361E-03  2461   0.287E-02    0.202E-02
RMM:   9    -0.548840749521E+01   -0.11723E-02   -0.25366E-03  2527   0.140E-02    0.665E-03
RMM:  10    -0.548841838444E+01   -0.10889E-04   -0.24488E-03  2660   0.559E-03    0.266E-03
RMM:  11    -0.548837495544E+01    0.43429E-04   -0.25374E-03  2844   0.372E-03    0.968E-04
RMM:  12    -0.548830894309E+01    0.66012E-04   -0.25678E-03  3059   0.315E-03    0.390E-04
RMM:  13    -0.548828923799E+01    0.19705E-04   -0.26178E-03  3103   0.304E-03    0.175E-04
RMM:  14    -0.548827766073E+01    0.11577E-04   -0.26398E-03  3106   0.303E-03    0.107E-04
RMM:  15    -0.548826937692E+01    0.82838E-05   -0.26467E-03  3118   0.303E-03    0.514E-05
RMM:  16    -0.548826783065E+01    0.15463E-05   -0.26515E-03  3116   0.302E-03    0.455E-05
RMM:  17    -0.548826724119E+01    0.58946E-06   -0.26515E-03  3121   0.302E-03    0.371E-05
RMM:  18    -0.548826638684E+01    0.85435E-06   -0.26507E-03  3118   0.302E-03    0.334E-05
RMM:  19    -0.548826685208E+01   -0.46524E-06   -0.26552E-03  3119   0.302E-03    0.335E-05
RMM:  20    -0.548826639899E+01    0.45308E-06   -0.26477E-03  3118   0.302E-03    0.306E-05
 change of polarisation eV/A/(eV/A) component  1 :    10.417    -0.025    -0.141
 dielectric tensor                  component  1 :     2.912    -0.005    -0.026
 Linear response to external field, progress :
  Direction:   2
       N       E                     dE             d eps       ncg     rms          rms(c)
RMM:   1    -0.501345029234E+01   -0.50135E+01   -0.15625E+01  3645   0.391E+00
RMM:   2    -0.520142347172E+01   -0.18797E+00   -0.14014E-01  3130   0.778E-01    0.508E+00
RMM:   3    -0.426041090895E+01    0.94101E+00   -0.22821E+00  3255   0.222E+00    0.249E+00
RMM:   4    -0.419525627043E+01    0.65155E-01   -0.22434E-01  3276   0.821E-01    0.120E+00
RMM:   5    -0.426375821310E+01   -0.68502E-01   -0.10291E-01  3252   0.530E-01    0.403E-01
RMM:   6    -0.431389720071E+01   -0.50139E-01   -0.88938E-04  3319   0.151E-01    0.215E-01
RMM:   7    -0.434602847217E+01   -0.32131E-01    0.68938E-03  3152   0.785E-02    0.529E-02
RMM:   8    -0.435542372961E+01   -0.93953E-02    0.87863E-03  3335   0.262E-02    0.246E-02
RMM:   9    -0.435912937327E+01   -0.37056E-02    0.92493E-03  3323   0.153E-02    0.696E-03
RMM:  10    -0.435963422794E+01   -0.50485E-03    0.11059E-02  3676   0.588E-03    0.371E-03
RMM:  11    -0.435991119276E+01   -0.27696E-03    0.11019E-02  3884   0.439E-03    0.139E-03
RMM:  12    -0.435983936436E+01    0.71828E-04    0.12272E-02  4328   0.337E-03    0.729E-04
RMM:  13    -0.435989198816E+01   -0.52624E-04    0.11698E-02  4442   0.323E-03    0.351E-04
RMM:  14    -0.435980490392E+01    0.87084E-04    0.12501E-02  4466   0.318E-03    0.160E-04
RMM:  15    -0.435987403999E+01   -0.69136E-04    0.11801E-02  4487   0.317E-03    0.765E-05
RMM:  16    -0.435980611298E+01    0.67927E-04    0.12489E-02  4485   0.317E-03    0.445E-05
RMM:  17    -0.435988602457E+01   -0.79912E-04    0.11705E-02  4493   0.317E-03    0.202E-05
RMM:  18    -0.435979185887E+01    0.94166E-04    0.12645E-02  4489   0.317E-03    0.167E-05
RMM:  19    -0.435989564033E+01   -0.10378E-03    0.11606E-02  4495   0.317E-03    0.931E-06
 change of polarisation eV/A/(eV/A) component  2 :    -0.000     8.055    -0.000
 dielectric tensor                  component  2 :    -0.000     2.478    -0.000
 Linear response to external field, progress :
  Direction:   3
       N       E                     dE             d eps       ncg     rms          rms(c)
RMM:   1    -0.509667142157E+01   -0.50967E+01   -0.16576E+01  2738   0.388E+00
RMM:   2    -0.525855909252E+01   -0.16189E+00   -0.12543E-01  2426   0.761E-01    0.455E+00
RMM:   3    -0.433445654507E+01    0.92410E+00   -0.15127E+00  2481   0.169E+00    0.213E+00
RMM:   4    -0.426000020214E+01    0.74456E-01   -0.18134E-01  2483   0.651E-01    0.105E+00
RMM:   5    -0.431253537121E+01   -0.52535E-01   -0.10034E-01  2467   0.469E-01    0.368E-01
RMM:   6    -0.433794274926E+01   -0.25407E-01   -0.54667E-03  2490   0.123E-01    0.214E-01
RMM:   7    -0.435771270310E+01   -0.19770E-01   -0.14903E-03  2328   0.803E-02    0.543E-02
RMM:   8    -0.436289438153E+01   -0.51817E-02    0.44677E-04  2513   0.275E-02    0.284E-02
RMM:   9    -0.436421666423E+01   -0.13223E-02    0.78735E-04  2447   0.193E-02    0.817E-03
RMM:  10    -0.436407662437E+01    0.14004E-03    0.73721E-04  2651   0.649E-03    0.376E-03
RMM:  11    -0.436388394502E+01    0.19268E-03    0.74617E-04  2808   0.381E-03    0.116E-03
RMM:  12    -0.436382180062E+01    0.62144E-04    0.74833E-04  3071   0.269E-03    0.498E-04
RMM:  13    -0.436378508959E+01    0.36711E-04    0.76162E-04  3129   0.258E-03    0.219E-04
RMM:  14    -0.436377149145E+01    0.13598E-04    0.75482E-04  3146   0.256E-03    0.904E-05
RMM:  15    -0.436376858265E+01    0.29088E-05    0.75023E-04  3153   0.255E-03    0.388E-05
RMM:  16    -0.436376836813E+01    0.21451E-06    0.75032E-04  3151   0.255E-03    0.209E-05
RMM:  17    -0.436377012168E+01   -0.17535E-05    0.74116E-04  3154   0.255E-03    0.811E-06
 change of polarisation eV/A/(eV/A) component  3 :    -0.141     0.006     8.212
 dielectric tensor                  component  3 :    -0.026     0.001     2.507
 Born effective charges drift removed
   1 F= -.65709770E+03 E0= -.65709770E+03  d E =-.366468E-19

 ----------------------------------------------------------------------------- 
|                                                                             |
|           W    W    AA    RRRRR   N    N  II  N    N   GGGG   !!!           |
|           W    W   A  A   R    R  NN   N  II  NN   N  G    G  !!!           |
|           W    W  A    A  R    R  N N  N  II  N N  N  G       !!!           |
|           W WW W  AAAAAA  RRRRR   N  N N  II  N  N N  G  GGG   !            |
|           WW  WW  A    A  R   R   N   NN  II  N   NN  G    G                |
|           W    W  A    A  R    R  N    N  II  N    N   GGGG   !!!           |
|                                                                             |
|      Your timestep is larger than 0.1 Angst.                                |
|      For finite differences this really does not make sense. I will         |
|      reset POTIM to 0.015. I recommend to use 0.01 to 0.02 for finite       |
|      differences.                                                           |
|                                                                             |
 ----------------------------------------------------------------------------- 

 Found   153 degrees of freedom:
 Finite differences POTIM= 0.01500 DOF= 153
 bond charge predicted
       N       E                     dE             d eps       ncg     rms          rms(c)
DAV:   1    -0.649734081994E+03    0.10132E-01   -0.53601E-01  2048   0.138E+00    0.202E-01
RMM:   2    -0.649733987111E+03    0.94883E-04   -0.44011E-03  1781   0.153E-01    0.109E-01
RMM:   3    -0.649733861473E+03    0.12564E-03   -0.50854E-04  1772   0.376E-02    0.288E-02
RMM:   4    -0.649733860102E+03    0.13703E-05   -0.43933E-05  1805   0.140E-02    0.821E-03
RMM:   5    -0.649733859027E+03    0.10754E-05   -0.52329E-06  1722   0.406E-03    0.289E-03
RMM:   6    -0.649733858928E+03    0.98815E-07   -0.69519E-07  1516   0.161E-03
   2 F= -.65708967E+03 E0= -.65708967E+03  d E =-.724277E-38
 Finite differences progress:
  Degree of freedom:   1/153
  Displacement:        1/  2
  Total:               1/306
 bond charge predicted
       N       E                     dE             d eps       ncg     rms          rms(c)
DAV:   1    -0.649739545181E+03   -0.56862E-02   -0.18815E+00  1920   0.256E+00    0.412E-01
RMM:   2    -0.649739026874E+03    0.51831E-03   -0.17201E-02  1789   0.292E-01    0.220E-01
RMM:   3    -0.649738516558E+03    0.51032E-03   -0.21593E-03  1787   0.764E-02    0.557E-02
RMM:   4    -0.649738509792E+03    0.67659E-05   -0.16250E-04  1828   0.275E-02    0.165E-02
RMM:   5    -0.649738506091E+03    0.37004E-05   -0.20244E-05  1758   0.810E-03    0.649E-03
RMM:   6    -0.649738506064E+03    0.27787E-07   -0.32503E-06  1711   0.341E-03    0.239E-03
RMM:   7    -0.649738506221E+03   -0.15780E-06   -0.43786E-07  1424   0.136E-03    0.891E-04
RMM:   8    -0.649738506264E+03   -0.42986E-07   -0.74185E-08  1148   0.623E-04
   3 F= -.65708951E+03 E0= -.65708951E+03  d E =-.152514E-34
 Finite differences progress:
  Degree of freedom:   1/153
  Displacement:        2/  2
  Total:               2/306
 bond charge predicted
       N       E                     dE             d eps       ncg     rms          rms(c)
DAV:   1    -0.649734505191E+03    0.40010E-02   -0.10733E+00  1888   0.196E+00    0.280E-01
RMM:   2    -0.649734503896E+03    0.12947E-05   -0.10246E-02  1787   0.220E-01    0.158E-01
RMM:   3    -0.649734293322E+03    0.21057E-03   -0.12780E-03  1787   0.579E-02    0.432E-02
RMM:   4    -0.649734286249E+03    0.70732E-05   -0.82087E-05  1830   0.199E-02    0.153E-02
RMM:   5    -0.649734284161E+03    0.20884E-05   -0.16763E-05  1752   0.649E-03    0.498E-03
RMM:   6    -0.649734283849E+03    0.31139E-06   -0.15050E-06  1660   0.264E-03    0.206E-03
RMM:   7    -0.649734283790E+03    0.59688E-07   -0.47830E-07  1386   0.116E-03
   4 F= -.65709010E+03 E0= -.65709010E+03  d E =-.262561E-34
 Finite differences progress:
  Degree of freedom:   2/153
  Displacement:        1/  2
  Total:               3/306
 bond charge predicted
       N       E                     dE             d eps       ncg     rms          rms(c)
DAV:   1    -0.649739469351E+03   -0.51855E-02   -0.18314E+00  1824   0.255E+00    0.389E-01
RMM:   2    -0.649739343581E+03    0.12577E-03   -0.16184E-02  1790   0.291E-01    0.214E-01
RMM:   3    -0.649738903036E+03    0.44054E-03   -0.23397E-03  1792   0.792E-02    0.452E-02
RMM:   4    -0.649738890398E+03    0.12638E-04   -0.12817E-04  1834   0.253E-02    0.174E-02
RMM:   5    -0.649738885223E+03    0.51750E-05   -0.33550E-05  1757   0.877E-03    0.673E-03
RMM:   6    -0.649738884905E+03    0.31829E-06   -0.29307E-06  1709   0.375E-03    0.272E-03
RMM:   7    -0.649738884837E+03    0.67434E-07   -0.95871E-07  1596   0.163E-03
   5 F= -.65708989E+03 E0= -.65708989E+03  d E =-.406047E-36
 Finite differences progress:
  Degree of freedom:   2/153
  Displacement:        2/  2
  Total:               4/306
 bond charge predicted
       N       E                     dE             d eps       ncg     rms          rms(c)
DAV:   1    -0.649742390817E+03   -0.35059E-02   -0.10241E+00  1792   0.192E+00    0.254E-01
RMM:   2    -0.649742499794E+03   -0.10898E-03   -0.85925E-03  1788   0.211E-01    0.143E-01
RMM:   3    -0.649742294749E+03    0.20505E-03   -0.10419E-03  1798   0.553E-02    0.280E-02
RMM:   4    -0.649742292500E+03    0.22486E-05   -0.59657E-05  1830   0.172E-02    0.118E-02
RMM:   5    -0.649742290434E+03    0.20660E-05   -0.12695E-05  1749   0.569E-03    0.452E-03
RMM:   6    -0.649742290301E+03    0.13339E-06   -0.12446E-06  1659   0.243E-03    0.168E-03
RMM:   7    -0.649742290281E+03    0.19845E-07   -0.32890E-07  1335   0.102E-03
   6 F= -.65709555E+03 E0= -.65709555E+03  d E =-.432066E-32
 Finite differences progress:
  Degree of freedom:   3/153
  Displacement:        1/  2
  Total:               5/306
 bond charge predicted
       N       E                     dE             d eps       ncg     rms          rms(c)
DAV:   1    -0.649742012014E+03    0.27829E-03   -0.17794E+00  1792   0.242E+00    0.267E-01
RMM:   2    -0.649741985630E+03    0.26385E-04   -0.74337E-03  1791   0.186E-01    0.150E-01
RMM:   3    -0.649741800439E+03    0.18519E-03   -0.91492E-04  1785   0.509E-02    0.238E-02
RMM:   4    -0.649741805754E+03   -0.53147E-05   -0.50105E-05  1845   0.152E-02    0.116E-02
RMM:   5    -0.649741804225E+03    0.15289E-05   -0.86937E-06  1741   0.498E-03    0.315E-03
RMM:   6    -0.649741804270E+03   -0.45184E-07   -0.67406E-07  1499   0.170E-03
   7 F= -.65709555E+03 E0= -.65709555E+03  d E =-.295275E-34
 Finite differences progress:
  Degree of freedom:   3/153
  Displacement:        2/  2
  Total:               6/306
 bond charge predicted
       N       E                     dE             d eps       ncg     rms          rms(c)
DAV:   1    -0.649738259333E+03    0.35449E-02   -0.10499E+00  1792   0.195E+00    0.236E-01
RMM:   2    -0.649738142607E+03    0.11673E-03   -0.72588E-03  1790   0.179E-01    0.130E-01
RMM:   3    -0.649737962911E+03    0.17970E-03   -0.95789E-04  1783   0.491E-02    0.319E-02
RMM:   4    -0.649737959331E+03    0.35804E-05   -0.50066E-05  1804   0.161E-02    0.121E-02
RMM:   5    -0.649737957923E+03    0.14076E-05   -0.99531E-06  1741   0.497E-03    0.396E-03
RMM:   6    -0.649737957866E+03    0.57022E-07   -0.10556E-06  1624   0.209E-03    0.163E-03
RMM:   7    -0.649737957906E+03   -0.39181E-07   -0.30876E-07  1314   0.996E-04
   8 F= -.65708900E+03 E0= -.65708900E+03  d E =-.771113E-34
 Finite differences progress:
  Degree of freedom:   4/153
  Displacement:        1/  2
  Total:               7/306
 bond charge predicted
       N       E                     dE             d eps       ncg     rms          rms(c)
DAV:   1    -0.649735418079E+03    0.25398E-02   -0.19083E+00  1792   0.256E+00    0.394E-01
RMM:   2    -0.649733766203E+03    0.16519E-02   -0.12905E-02  1786   0.236E-01    0.208E-01
RMM:   3    -0.649733225872E+03    0.54033E-03   -0.25304E-03  1783   0.743E-02    0.541E-02
RMM:   4    -0.649733207834E+03    0.18038E-04   -0.11848E-04  1811   0.243E-02    0.181E-02
RMM:   5    -0.649733204202E+03    0.36329E-05   -0.23612E-05  1766   0.760E-03    0.542E-03
RMM:   6    -0.649733203637E+03    0.56441E-06   -0.22175E-06  1704   0.307E-03    0.248E-03
RMM:   7    -0.649733203501E+03    0.13574E-06   -0.74385E-07  1546   0.148E-03    0.769E-04
RMM:   8    -0.649733203494E+03    0.77998E-08   -0.62737E-08  1151   0.589E-04
   9 F= -.65708894E+03 E0= -.65708894E+03  d E =-.115672E-32
 Finite differences progress:
  Degree of freedom:   4/153
  Displacement:        2/  2
  Total:               8/306
 bond charge predicted
       N       E                     dE             d eps       ncg     rms          rms(c)
DAV:   1    -0.649740105689E+03   -0.69022E-02   -0.10415E+00  1824   0.198E+00    0.277E-01
RMM:   2    -0.649739747044E+03    0.35864E-03   -0.81663E-03  1788   0.203E-01    0.147E-01
RMM:   3    -0.649739490733E+03    0.25631E-03   -0.11259E-03  1783   0.534E-02    0.349E-02
RMM:   4    -0.649739489164E+03    0.15696E-05   -0.67839E-05  1828   0.181E-02    0.116E-02
RMM:   5    -0.649739486687E+03    0.24772E-05   -0.12893E-05  1739   0.597E-03    0.374E-03
RMM:   6    -0.649739486736E+03   -0.49182E-07   -0.89675E-07  1588   0.202E-03
  10 F= -.65709200E+03 E0= -.65709200E+03  d E =-.120132E-32
 Finite differences progress:
  Degree of freedom:   5/153
  Displacement:        1/  2
  Total:               9/306
 bond charge predicted
       N       E                     dE             d eps       ncg     rms          rms(c)
DAV:   1    -0.649739136618E+03    0.35007E-03   -0.18157E+00  1856   0.261E+00    0.382E-01
RMM:   2    -0.649738213521E+03    0.92310E-03   -0.15205E-02  1788   0.272E-01    0.201E-01
RMM:   3    -0.649737673389E+03    0.54013E-03   -0.18283E-03  1787   0.701E-02    0.538E-02
RMM:   4    -0.649737668968E+03    0.44210E-05   -0.15678E-04  1831   0.260E-02    0.153E-02
RMM:   5    -0.649737666442E+03    0.25259E-05   -0.13510E-05  1745   0.725E-03    0.617E-03
RMM:   6    -0.649737666206E+03    0.23531E-06   -0.31715E-06  1704   0.323E-03    0.141E-03
RMM:   7    -0.649737666244E+03   -0.37748E-07   -0.14414E-07  1192   0.978E-04
  11 F= -.65709209E+03 E0= -.65709209E+03  d E =-.161837E-33
 Finite differences progress:
  Degree of freedom:   5/153
  Displacement:        2/  2
  Total:              10/306
 bond charge predicted
       N       E                     dE             d eps       ncg     rms          rms(c)
DAV:   1    -0.649742212429E+03   -0.45462E-02   -0.10353E+00  1792   0.195E+00    0.253E-01
RMM:   2    -0.649741763448E+03    0.44898E-03   -0.69683E-03  1787   0.181E-01    0.133E-01
RMM:   3    -0.649741520796E+03    0.24265E-03   -0.86105E-04  1780   0.488E-02    0.349E-02
RMM:   4    -0.649741518300E+03    0.24958E-05   -0.68096E-05  1806   0.173E-02    0.100E-02
RMM:   5    -0.649741517539E+03    0.76068E-06   -0.58662E-06  1738   0.474E-03    0.409E-03
RMM:   6    -0.649741517467E+03    0.72265E-07   -0.14471E-06  1618   0.218E-03    0.942E-04
RMM:   7    -0.649741517477E+03   -0.10510E-07   -0.67795E-08  1156   0.680E-04
  12 F= -.65709546E+03 E0= -.65709546E+03  d E =-.706808E-33
 Finite differences progress:
  Degree of freedom:   6/153
  Displacement:        1/  2
  Total:              11/306
 bond charge predicted
       N       E                     dE             d eps       ncg     rms          rms(c)
DAV:   1    -0.649743193388E+03   -0.16759E-02   -0.18103E+00  1792   0.245E+00    0.261E-01
RMM:   2    -0.649742640027E+03    0.55336E-03   -0.57653E-03  1787   0.155E-01    0.142E-01
RMM:   3    -0.649742392672E+03    0.24735E-03   -0.11269E-03  1783   0.507E-02    0.258E-02
RMM:   4    -0.649742393900E+03   -0.12279E-05   -0.39989E-05  1787   0.143E-02    0.120E-02
RMM:   5    -0.649742393703E+03    0.19782E-06   -0.89586E-06  1731   0.481E-03    0.384E-03
RMM:   6    -0.649742393711E+03   -0.86511E-08   -0.93419E-07  1556   0.186E-03
  13 F= -.65709544E+03 E0= -.65709544E+03  d E =-.399723E-33
 Finite differences progress:
  Degree of freedom:   6/153
  Displacement:        2/  2
  Total:              12/306
 bond charge predicted
       N       E                     dE             d eps       ncg     rms          rms(c)
DAV:   1    -0.649739857368E+03    0.25363E-02   -0.10778E+00  1888   0.199E+00    0.241E-01
RMM:   2    -0.649739574769E+03    0.28260E-03   -0.72361E-03  1786   0.180E-01    0.131E-01
RMM:   3    -0.649739311711E+03    0.26306E-03   -0.10709E-03  1783   0.519E-02    0.269E-02
RMM:   4    -0.649739311448E+03    0.26310E-06   -0.55157E-05  1800   0.160E-02    0.106E-02
RMM:   5    -0.649739310705E+03    0.74286E-06   -0.76149E-06  1742   0.464E-03    0.449E-03
RMM:   6    -0.649739310557E+03    0.14848E-06   -0.14568E-06  1630   0.228E-03    0.107E-03
RMM:   7    -0.649739310547E+03    0.94878E-08   -0.11328E-07  1177   0.709E-04
  14 F= -.65709206E+03 E0= -.65709206E+03  d E =-.112526E-32
 Finite differences progress:
  Degree of freedom:   7/153
  Displacement:        1/  2
  Total:              13/306
 bond charge predicted
       N       E                     dE             d eps       ncg     rms          rms(c)
DAV:   1    -0.649739501626E+03   -0.19107E-03   -0.18153E+00  1824   0.255E+00    0.380E-01
RMM:   2    -0.649738497809E+03    0.10038E-02   -0.13903E-02  1789   0.255E-01    0.199E-01
RMM:   3    -0.649737975601E+03    0.52221E-03   -0.19686E-03  1784   0.688E-02    0.501E-02
RMM:   4    -0.649737970782E+03    0.48190E-05   -0.13818E-04  1797   0.235E-02    0.149E-02
RMM:   5    -0.649737969025E+03    0.17566E-05   -0.14551E-05  1771   0.699E-03    0.670E-03
RMM:   6    -0.649737968747E+03    0.27807E-06   -0.43137E-06  1726   0.363E-03    0.146E-03
RMM:   7    -0.649737968731E+03    0.16047E-07   -0.16563E-07  1202   0.986E-04
  15 F= -.65709217E+03 E0= -.65709217E+03  d E =-.177829E-33
 Finite differences progress:
  Degree of freedom:   7/153
  Displacement:        2/  2
  Total:              14/306
 bond charge predicted
       N       E                     dE             d eps       ncg     rms          rms(c)
DAV:   1    -0.649737633733E+03    0.33501E-03   -0.10310E+00  1792   0.193E+00    0.274E-01
RMM:   2    -0.649737275192E+03    0.35854E-03   -0.77825E-03  1789   0.194E-01    0.148E-01
RMM:   3    -0.649737024856E+03    0.25034E-03   -0.13234E-03  1783   0.560E-02    0.308E-02
RMM:   4    -0.649737019246E+03    0.56102E-05   -0.61924E-05  1831   0.176E-02    0.125E-02
RMM:   5    -0.649737016760E+03    0.24852E-05   -0.20023E-05  1740   0.652E-03    0.435E-03
RMM:   6    -0.649737016675E+03    0.85518E-07   -0.13437E-06  1634   0.262E-03    0.181E-03
RMM:   7    -0.649737016656E+03    0.18546E-07   -0.44390E-07  1410   0.119E-03
  16 F= -.65708867E+03 E0= -.65708867E+03  d E =-.910166E-33
 Finite differences progress:
  Degree of freedom:   8/153
  Displacement:        1/  2
  Total:              15/306
 bond charge predicted
       N       E                     dE             d eps       ncg     rms          rms(c)
DAV:   1    -0.649735988597E+03    0.10281E-02   -0.19146E+00  1824   0.261E+00    0.408E-01
RMM:   2    -0.649734021501E+03    0.19671E-02   -0.13535E-02  1786   0.240E-01    0.215E-01
RMM:   3    -0.649733441195E+03    0.58031E-03   -0.28395E-03  1788   0.776E-02    0.560E-02
RMM:   4    -0.649733415376E+03    0.25819E-04   -0.12655E-04  1801   0.249E-02    0.190E-02
RMM:   5    -0.649733412664E+03    0.27119E-05   -0.26014E-05  1779   0.817E-03    0.586E-03
RMM:   6    -0.649733412064E+03    0.60066E-06   -0.25014E-06  1713   0.355E-03    0.248E-03
RMM:   7    -0.649733411916E+03    0.14800E-06   -0.91840E-07  1604   0.164E-03    0.927E-04
RMM:   8    -0.649733411895E+03    0.20369E-07   -0.83772E-08  1153   0.631E-04
  17 F= -.65708857E+03 E0= -.65708857E+03  d E =-.371668E-33
 Finite differences progress:
  Degree of freedom:   8/153
  Displacement:        2/  2
  Total:              16/306
 bond charge predicted
       N       E                     dE             d eps       ncg     rms          rms(c)
DAV:   1    -0.649743574780E+03   -0.10163E-01   -0.10817E+00  1792   0.196E+00    0.272E-01
RMM:   2    -0.649742707772E+03    0.86701E-03   -0.65442E-03  1784   0.162E-01    0.139E-01
RMM:   3    -0.649742463593E+03    0.24418E-03   -0.12274E-03  1785   0.511E-02    0.362E-02
RMM:   4    -0.649742454924E+03    0.86689E-05   -0.56534E-05  1774   0.162E-02    0.120E-02
RMM:   5    -0.649742454020E+03    0.90413E-06   -0.10856E-05  1761   0.541E-03    0.394E-03
RMM:   6    -0.649742453895E+03    0.12495E-06   -0.11651E-06  1641   0.234E-03    0.159E-03
RMM:   7    -0.649742453909E+03   -0.14352E-07   -0.31040E-07  1308   0.103E-03
  18 F= -.65709567E+03 E0= -.65709567E+03  d E =-.381901E-33
 Finite differences progress:
  Degree of freedom:   9/153
  Displacement:        1/  2
  Total:              17/306
 bond charge predicted
       N       E                     dE             d eps       ncg     rms          rms(c)
DAV:   1    -0.649742813508E+03   -0.35961E-03   -0.18293E+00  1792   0.242E+00    0.257E-01
RMM:   2    -0.649742179288E+03    0.63422E-03   -0.59699E-03  1788   0.155E-01    0.139E-01
RMM:   3    -0.649741917039E+03    0.26225E-03   -0.11042E-03  1784   0.487E-02    0.281E-02
RMM:   4    -0.649741920472E+03   -0.34334E-05   -0.49906E-05  1784   0.139E-02    0.114E-02
RMM:   5    -0.649741920751E+03   -0.27892E-06   -0.60718E-06  1737   0.429E-03    0.419E-03
RMM:   6    -0.649741920767E+03   -0.15265E-07   -0.10260E-06  1555   0.193E-03    0.966E-04
RMM:   7    -0.649741920765E+03    0.14079E-08   -0.95110E-08  1171   0.676E-04
  19 F= -.65709570E+03 E0= -.65709570E+03  d E =-.695709E-33
 Finite differences progress:
  Degree of freedom:   9/153
  Displacement:        2/  2
  Total:              18/306
 bond charge predicted
       N       E                     dE             d eps       ncg     rms          rms(c)
DAV:   1    -0.649738728614E+03    0.31922E-02   -0.10187E+00  1792   0.200E+00    0.218E-01
RMM:   2    -0.649738697212E+03    0.31402E-04   -0.62961E-03  1786   0.171E-01    0.121E-01
RMM:   3    -0.649738572575E+03    0.12464E-03   -0.72910E-04  1784   0.432E-02    0.336E-02
RMM:   4    -0.649738573633E+03   -0.10579E-05   -0.49851E-05  1783   0.146E-02    0.112E-02
RMM:   5    -0.649738573555E+03    0.77460E-07   -0.75213E-06  1734   0.468E-03    0.400E-03
RMM:   6    -0.649738573451E+03    0.10426E-06   -0.84224E-07  1570   0.199E-03    0.144E-03
RMM:   7    -0.649738573443E+03    0.75161E-08   -0.20995E-07  1242   0.859E-04
  20 F= -.65709224E+03 E0= -.65709224E+03  d E =-.569464E-34
 Finite differences progress:
  Degree of freedom:  10/153
  Displacement:        1/  2
  Total:              19/306
 bond charge predicted
       N       E                     dE             d eps       ncg     rms          rms(c)
DAV:   1    -0.649739561160E+03   -0.98771E-03   -0.17536E+00  1792   0.252E+00    0.343E-01
RMM:   2    -0.649739159132E+03    0.40203E-03   -0.11216E-02  1787   0.228E-01    0.191E-01
RMM:   3    -0.649738922440E+03    0.23669E-03   -0.19779E-03  1788   0.654E-02    0.426E-02
RMM:   4    -0.649738914376E+03    0.80645E-05   -0.94543E-05  1797   0.207E-02    0.160E-02
RMM:   5    -0.649738913475E+03    0.90035E-06   -0.27515E-05  1753   0.790E-03    0.549E-03
RMM:   6    -0.649738913234E+03    0.24105E-06   -0.18354E-06  1664   0.293E-03    0.270E-03
RMM:   7    -0.649738913337E+03   -0.10292E-06   -0.10378E-06  1561   0.158E-03    0.816E-04
RMM:   8    -0.649738913338E+03   -0.85856E-09   -0.70920E-08  1146   0.550E-04
  21 F= -.65709221E+03 E0= -.65709221E+03  d E =-.161801E-32
 Finite differences progress:
  Degree of freedom:  10/153
  Displacement:        2/  2
  Total:              20/306
 bond charge predicted
       N       E                     dE             d eps       ncg     rms          rms(c)
DAV:   1    -0.649738157200E+03    0.75614E-03   -0.10681E+00  1792   0.195E+00    0.224E-01
RMM:   2    -0.649738004929E+03    0.15227E-03   -0.50155E-03  1787   0.145E-01    0.130E-01
RMM:   3    -0.649737852596E+03    0.15233E-03   -0.10277E-03  1784   0.457E-02    0.165E-02
RMM:   4    -0.649737851164E+03    0.14323E-05   -0.30420E-05  1818   0.123E-02    0.945E-03
RMM:   5    -0.649737849515E+03    0.16489E-05   -0.13270E-05  1737   0.523E-03    0.273E-03
RMM:   6    -0.649737849502E+03    0.12864E-07   -0.54477E-07  1485   0.154E-03
  22 F= -.65709121E+03 E0= -.65709121E+03  d E =-.134136E-33
 Finite differences progress:
  Degree of freedom:  11/153
  Displacement:        1/  2
  Total:              21/306
 bond charge predicted
       N       E                     dE             d eps       ncg     rms          rms(c)
DAV:   1    -0.649738291337E+03   -0.44182E-03   -0.19040E+00  1792   0.260E+00    0.321E-01
RMM:   2    -0.649737796281E+03    0.49506E-03   -0.81767E-03  1789   0.188E-01    0.186E-01
RMM:   3    -0.649737487571E+03    0.30871E-03   -0.22194E-03  1788   0.652E-02    0.245E-02
RMM:   4    -0.649737475392E+03    0.12180E-04   -0.58202E-05  1808   0.172E-02    0.144E-02
RMM:   5    -0.649737472477E+03    0.29144E-05   -0.30708E-05  1759   0.781E-03    0.469E-03
RMM:   6    -0.649737472288E+03    0.18943E-06   -0.15938E-06  1675   0.248E-03    0.197E-03
RMM:   7    -0.649737472269E+03    0.18386E-07   -0.65820E-07  1513   0.128E-03
  23 F= -.65709109E+03 E0= -.65709109E+03  d E =-.809771E-36
 Finite differences progress:
  Degree of freedom:  11/153
  Displacement:        2/  2
  Total:              22/306
 bond charge predicted
       N       E                     dE             d eps       ncg     rms          rms(c)
DAV:   1    -0.649739796305E+03   -0.23240E-02   -0.10419E+00  1792   0.197E+00    0.230E-01
RMM:   2    -0.649739717051E+03    0.79254E-04   -0.59655E-03  1785   0.162E-01    0.127E-01
RMM:   3    -0.649739577627E+03    0.13942E-03   -0.10722E-03  1778   0.467E-02    0.256E-02
RMM:   4    -0.649739574629E+03    0.29978E-05   -0.41912E-05  1798   0.138E-02    0.125E-02
RMM:   5    -0.649739572961E+03    0.16676E-05   -0.25460E-05  1741   0.671E-03    0.491E-03
RMM:   6    -0.649739572438E+03    0.52365E-06   -0.17479E-06  1629   0.231E-03    0.210E-03
RMM:   7    -0.649739572407E+03    0.30639E-07   -0.76609E-07  1505   0.137E-03
  24 F= -.65709296E+03 E0= -.65709296E+03  d E =-.105427E-33
 Finite differences progress:
  Degree of freedom:  12/153
  Displacement:        1/  2
  Total:              23/306
 bond charge predicted
       N       E                     dE             d eps       ncg     rms          rms(c)
DAV:   1    -0.649739785491E+03   -0.21305E-03   -0.18375E+00  1792   0.256E+00    0.318E-01
RMM:   2    -0.649739484146E+03    0.30135E-03   -0.10526E-02  1787   0.213E-01    0.173E-01
RMM:   3    -0.649739220393E+03    0.26375E-03   -0.18846E-03  1786   0.619E-02    0.396E-02
RMM:   4    -0.649739213995E+03    0.63986E-05   -0.75539E-05  1797   0.187E-02    0.176E-02
RMM:   5    -0.649739211354E+03    0.26409E-05   -0.47110E-05  1743   0.895E-03    0.662E-03
RMM:   6    -0.649739210454E+03    0.89942E-06   -0.44523E-06  1703   0.332E-03    0.277E-03
RMM:   7    -0.649739210258E+03    0.19641E-06   -0.94390E-07  1572   0.169E-03    0.111E-03
RMM:   8    -0.649739210213E+03    0.44598E-07   -0.25809E-07  1253   0.738E-04
  25 F= -.65709280E+03 E0= -.65709280E+03  d E =-.464015E-32
 Finite differences progress:
  Degree of freedom:  12/153
  Displacement:        2/  2
  Total:              24/306
 bond charge predicted
       N       E                     dE             d eps       ncg     rms          rms(c)
DAV:   1    -0.649739076632E+03    0.13363E-03   -0.10357E+00  1792   0.191E+00    0.216E-01
RMM:   2    -0.649739105135E+03   -0.28503E-04   -0.69442E-03  1786   0.163E-01    0.124E-01
RMM:   3    -0.649738936782E+03    0.16835E-03   -0.11754E-03  1779   0.471E-02    0.266E-02
RMM:   4    -0.649738931344E+03    0.54384E-05   -0.38556E-05  1795   0.135E-02    0.141E-02
RMM:   5    -0.649738929809E+03    0.15343E-05   -0.41030E-05  1739   0.783E-03    0.609E-03
RMM:   6    -0.649738928635E+03    0.11739E-05   -0.33269E-06  1653   0.264E-03    0.216E-03
RMM:   7    -0.649738928654E+03   -0.18303E-07   -0.12603E-06  1570   0.172E-03    0.163E-03
RMM:   8    -0.649738928558E+03    0.96039E-07   -0.18887E-07  1200   0.729E-04
  26 F= -.65709228E+03 E0= -.65709228E+03  d E =-.490714E-32
 Finite differences progress:
  Degree of freedom:  13/153
  Displacement:        1/  2
  Total:              25/306
 bond charge predicted
       N       E                     dE             d eps       ncg     rms          rms(c)
DAV:   1    -0.649739750476E+03   -0.82182E-03   -0.18573E+00  1824   0.232E+00    0.309E-01
RMM:   2    -0.649739088400E+03    0.66208E-03   -0.97192E-03  1789   0.173E-01    0.171E-01
RMM:   3    -0.649738725072E+03    0.36333E-03   -0.23800E-03  1787   0.611E-02    0.333E-02
RMM:   4    -0.649738712973E+03    0.12098E-04   -0.71155E-05  1805   0.166E-02    0.171E-02
RMM:   5    -0.649738710594E+03    0.23792E-05   -0.57896E-05  1747   0.907E-03    0.713E-03
RMM:   6    -0.649738709711E+03    0.88337E-06   -0.91914E-06  1713   0.390E-03    0.351E-03
RMM:   7    -0.649738709253E+03    0.45811E-06   -0.15312E-06  1555   0.200E-03    0.115E-03
RMM:   8    -0.649738709262E+03   -0.93787E-08   -0.47303E-07  1306   0.907E-04
  27 F= -.65709235E+03 E0= -.65709235E+03  d E =-.592865E-35
 Finite differences progress:
  Degree of freedom:  13/153
  Displacement:        2/  2
  Total:              26/306
 bond charge predicted
       N       E                     dE             d eps       ncg     rms          rms(c)
DAV:   1    -0.649738481018E+03    0.22823E-03   -0.10699E+00  1792   0.180E+00    0.218E-01
RMM:   2    -0.649738157913E+03    0.32310E-03   -0.45950E-03  1784   0.121E-01    0.124E-01
RMM:   3    -0.649737977988E+03    0.17993E-03   -0.12612E-03  1783   0.442E-02    0.171E-02
RMM:   4    -0.649737969897E+03    0.80911E-05   -0.30778E-05  1760   0.110E-02    0.993E-03
RMM:   5    -0.649737968526E+03    0.13707E-05   -0.22705E-05  1751   0.596E-03    0.420E-03
RMM:   6    -0.649737968477E+03    0.49135E-07   -0.40121E-06  1678   0.260E-03    0.232E-03
RMM:   7    -0.649737968198E+03    0.27894E-06   -0.96296E-07  1485   0.144E-03    0.583E-04
RMM:   8    -0.649737968207E+03   -0.89167E-08   -0.14336E-07  1182   0.603E-04
  28 F= -.65709154E+03 E0= -.65709154E+03  d E =-.399329E-36
 Finite differences progress:
  Degree of freedom:  14/153
  Displacement:        1/  2
  Total:              27/306
 bond charge predicted
       N       E                     dE             d eps       ncg     rms          rms(c)
DAV:   1    -0.649739488977E+03   -0.15208E-02   -0.19065E+00  1792   0.237E+00    0.310E-01
RMM:   2    -0.649738588595E+03    0.90038E-03   -0.68016E-03  1789   0.148E-01    0.176E-01
RMM:   3    -0.649738216501E+03    0.37209E-03   -0.25447E-03  1785   0.609E-02    0.212E-02
RMM:   4    -0.649738196503E+03    0.19998E-04   -0.50414E-05  1755   0.138E-02    0.132E-02
RMM:   5    -0.649738193873E+03    0.26295E-05   -0.43140E-05  1763   0.810E-03    0.526E-03
RMM:   6    -0.649738193226E+03    0.64697E-06   -0.48101E-06  1689   0.290E-03    0.190E-03
RMM:   7    -0.649738193168E+03    0.58219E-07   -0.68704E-07  1445   0.139E-03
  29 F= -.65709161E+03 E0= -.65709161E+03  d E =-.618256E-32
 Finite differences progress:
  Degree of freedom:  14/153
  Displacement:        2/  2
  Total:              28/306
 bond charge predicted
       N       E                     dE             d eps       ncg     rms          rms(c)
DAV:   1    -0.649739677703E+03   -0.14845E-02   -0.10599E+00  1792   0.185E+00    0.219E-01
RMM:   2    -0.649739381145E+03    0.29656E-03   -0.53655E-03  1787   0.136E-01    0.121E-01
RMM:   3    -0.649739199740E+03    0.18140E-03   -0.12393E-03  1780   0.454E-02    0.217E-02
RMM:   4    -0.649739195444E+03    0.42966E-05   -0.36128E-05  1763   0.122E-02    0.117E-02
RMM:   5    -0.649739194142E+03    0.13015E-05   -0.26772E-05  1742   0.662E-03    0.475E-03
RMM:   6    -0.649739193749E+03    0.39312E-06   -0.42891E-06  1682   0.284E-03    0.221E-03
RMM:   7    -0.649739193572E+03    0.17693E-06   -0.60302E-07  1409   0.137E-03    0.829E-04
RMM:   8    -0.649739193567E+03    0.50022E-08   -0.24307E-07  1233   0.689E-04
  30 F= -.65709265E+03 E0= -.65709265E+03  d E =-.187211E-33
 Finite differences progress:
  Degree of freedom:  15/153
  Displacement:        1/  2
  Total:              29/306
 bond charge predicted
       N       E                     dE             d eps       ncg     rms          rms(c)
DAV:   1    -0.649740283221E+03   -0.10896E-02   -0.18263E+00  1856   0.242E+00    0.308E-01
RMM:   2    -0.649739651600E+03    0.63162E-03   -0.10852E-02  1789   0.191E-01    0.165E-01
RMM:   3    -0.649739305373E+03    0.34623E-03   -0.22324E-03  1784   0.624E-02    0.381E-02
RMM:   4    -0.649739300536E+03    0.48370E-05   -0.81449E-05  1787   0.178E-02    0.182E-02
RMM:   5    -0.649739299169E+03    0.13677E-05   -0.50833E-05  1741   0.924E-03    0.688E-03
RMM:   6    -0.649739298280E+03    0.88900E-06   -0.87459E-06  1711   0.419E-03    0.329E-03
RMM:   7    -0.649739297940E+03    0.33972E-06   -0.96232E-07  1505   0.190E-03    0.130E-03
RMM:   8    -0.649739297912E+03    0.27994E-07   -0.49120E-07  1374   0.929E-04
  31 F= -.65709282E+03 E0= -.65709282E+03  d E =-.115903E-32
 Finite differences progress:
  Degree of freedom:  15/153
  Displacement:        2/  2
  Total:              30/306
 bond charge predicted
       N       E                     dE             d eps       ncg     rms          rms(c)
DAV:   1    -0.649739365806E+03   -0.67866E-04   -0.11095E+00  1952   0.187E+00    0.232E-01
RMM:   2    -0.649739018702E+03    0.34710E-03   -0.71249E-03  1787   0.154E-01    0.128E-01
RMM:   3    -0.649738784539E+03    0.23416E-03   -0.15434E-03  1783   0.509E-02    0.256E-02
RMM:   4    -0.649738778352E+03    0.61864E-05   -0.46098E-05  1767   0.142E-02    0.132E-02
RMM:   5    -0.649738777390E+03    0.96235E-06   -0.34572E-05  1737   0.749E-03    0.548E-03
RMM:   6    -0.649738777072E+03    0.31767E-06   -0.80351E-06  1709   0.373E-03    0.338E-03
RMM:   7    -0.649738776545E+03    0.52713E-06   -0.12239E-06  1520   0.182E-03    0.108E-03
RMM:   8    -0.649738776537E+03    0.82800E-08   -0.37359E-07  1314   0.862E-04
  32 F= -.65709234E+03 E0= -.65709234E+03  d E =-.326206E-34
 Finite differences progress:
  Degree of freedom:  16/153
  Displacement:        1/  2
  Total:              31/306
 bond charge predicted
       N       E                     dE             d eps       ncg     rms          rms(c)
DAV:   1    -0.649740033166E+03   -0.12566E-02   -0.18606E+00  1824   0.232E+00    0.312E-01
RMM:   2    -0.649739251447E+03    0.78172E-03   -0.92714E-03  1790   0.170E-01    0.171E-01
RMM:   3    -0.649738871930E+03    0.37952E-03   -0.23395E-03  1791   0.607E-02    0.336E-02
RMM:   4    -0.649738859047E+03    0.12884E-04   -0.67164E-05  1774   0.166E-02    0.166E-02
RMM:   5    -0.649738856850E+03    0.21969E-05   -0.50275E-05  1742   0.860E-03    0.681E-03
RMM:   6    -0.649738856528E+03    0.32134E-06   -0.95076E-06  1714   0.400E-03    0.382E-03
RMM:   7    -0.649738855866E+03    0.66247E-06   -0.19642E-06  1575   0.210E-03    0.952E-04
RMM:   8    -0.649738855868E+03   -0.23356E-08   -0.37300E-07  1299   0.896E-04
  33 F= -.65709227E+03 E0= -.65709227E+03  d E =-.847832E-32
 Finite differences progress:
  Degree of freedom:  16/153
  Displacement:        2/  2
  Total:              32/306
 bond charge predicted
       N       E                     dE             d eps       ncg     rms          rms(c)
DAV:   1    -0.649738631436E+03    0.22443E-03   -0.10692E+00  1792   0.178E+00    0.219E-01
RMM:   2    -0.649738272250E+03    0.35919E-03   -0.45673E-03  1788   0.119E-01    0.123E-01
RMM:   3    -0.649738088561E+03    0.18369E-03   -0.12450E-03  1787   0.438E-02    0.177E-02
RMM:   4    -0.649738081016E+03    0.75452E-05   -0.29995E-05  1750   0.108E-02    0.994E-03
RMM:   5    -0.649738079781E+03    0.12348E-05   -0.21217E-05  1735   0.576E-03    0.431E-03
RMM:   6    -0.649738079659E+03    0.12135E-06   -0.37251E-06  1670   0.255E-03    0.232E-03
RMM:   7    -0.649738079398E+03    0.26179E-06   -0.87736E-07  1453   0.139E-03    0.655E-04
RMM:   8    -0.649738079413E+03   -0.15079E-07   -0.15835E-07  1182   0.619E-04
  34 F= -.65709155E+03 E0= -.65709155E+03  d E =-.545067E-33
 Finite differences progress:
  Degree of freedom:  17/153
  Displacement:        1/  2
  Total:              33/306
 bond charge predicted
       N       E                     dE             d eps       ncg     rms          rms(c)
DAV:   1    -0.649739256243E+03   -0.11768E-02   -0.19040E+00  1792   0.234E+00    0.311E-01
RMM:   2    -0.649738361581E+03    0.89466E-03   -0.68964E-03  1789   0.148E-01    0.178E-01
RMM:   3    -0.649737977027E+03    0.38455E-03   -0.25465E-03  1791   0.609E-02    0.211E-02
RMM:   4    -0.649737956530E+03    0.20498E-04   -0.49161E-05  1753   0.139E-02    0.132E-02
RMM:   5    -0.649737953618E+03    0.29116E-05   -0.46566E-05  1764   0.827E-03    0.563E-03
RMM:   6    -0.649737952738E+03    0.88009E-06   -0.52217E-06  1695   0.295E-03    0.198E-03
RMM:   7    -0.649737952673E+03    0.65364E-07   -0.66408E-07  1430   0.140E-03
  35 F= -.65709147E+03 E0= -.65709147E+03  d E =-.216071E-36
 Finite differences progress:
  Degree of freedom:  17/153
  Displacement:        2/  2
  Total:              34/306
 bond charge predicted
       N       E                     dE             d eps       ncg     rms          rms(c)
DAV:   1    -0.649739853986E+03   -0.19012E-02   -0.10556E+00  1824   0.181E+00    0.221E-01
RMM:   2    -0.649739540684E+03    0.31330E-03   -0.53939E-03  1787   0.134E-01    0.122E-01
RMM:   3    -0.649739355886E+03    0.18480E-03   -0.11901E-03  1781   0.442E-02    0.225E-02
RMM:   4    -0.649739352649E+03    0.32366E-05   -0.35811E-05  1752   0.118E-02    0.117E-02
RMM:   5    -0.649739351681E+03    0.96764E-06   -0.23100E-05  1738   0.616E-03    0.463E-03
RMM:   6    -0.649739351368E+03    0.31336E-06   -0.45954E-06  1694   0.287E-03    0.246E-03
RMM:   7    -0.649739351119E+03    0.24868E-06   -0.66026E-07  1422   0.138E-03    0.818E-04
RMM:   8    -0.649739351124E+03   -0.49622E-08   -0.27928E-07  1272   0.740E-04
  36 F= -.65709282E+03 E0= -.65709282E+03  d E =-.362638E-33
 Finite differences progress:
  Degree of freedom:  18/153
  Displacement:        1/  2
  Total:              35/306
 bond charge predicted
       N       E                     dE             d eps       ncg     rms          rms(c)
DAV:   1    -0.649740269221E+03   -0.91810E-03   -0.18254E+00  1856   0.239E+00    0.313E-01
RMM:   2    -0.649739490505E+03    0.77872E-03   -0.10284E-02  1791   0.185E-01    0.166E-01
RMM:   3    -0.649739133449E+03    0.35706E-03   -0.21723E-03  1791   0.617E-02    0.378E-02
RMM:   4    -0.649739127306E+03    0.61438E-05   -0.78031E-05  1766   0.178E-02    0.168E-02
RMM:   5    -0.649739126326E+03    0.97988E-06   -0.40808E-05  1740   0.837E-03    0.623E-03
RMM:   6    -0.649739126120E+03    0.20548E-06   -0.81615E-06  1715   0.405E-03    0.355E-03
RMM:   7    -0.649739125596E+03    0.52407E-06   -0.12062E-06  1526   0.189E-03    0.113E-03
RMM:   8    -0.649739125593E+03    0.33979E-08   -0.55356E-07  1382   0.101E-03
  37 F= -.65709264E+03 E0= -.65709264E+03  d E =-.727043E-33
 Finite differences progress:
  Degree of freedom:  18/153
  Displacement:        2/  2
  Total:              36/306
 bond charge predicted
       N       E                     dE             d eps       ncg     rms          rms(c)
DAV:   1    -0.649738995290E+03    0.13031E-03   -0.99291E-01  1888   0.190E+00    0.216E-01
RMM:   2    -0.649739127688E+03   -0.13240E-03   -0.69852E-03  1789   0.172E-01    0.124E-01
RMM:   3    -0.649738986484E+03    0.14120E-03   -0.84599E-04  1789   0.435E-02    0.226E-02
RMM:   4    -0.649738989820E+03   -0.33365E-05   -0.40122E-05  1790   0.127E-02    0.959E-03
RMM:   5    -0.649738989102E+03    0.71786E-06   -0.69911E-06  1736   0.431E-03    0.374E-03
RMM:   6    -0.649738989153E+03   -0.50539E-07   -0.89320E-07  1554   0.187E-03
  38 F= -.65709229E+03 E0= -.65709229E+03  d E =-.225706E-33
 Finite differences progress:
  Degree of freedom:  19/153
  Displacement:        1/  2
  Total:              37/306
 bond charge predicted
       N       E                     dE             d eps       ncg     rms          rms(c)
DAV:   1    -0.649739211933E+03   -0.22283E-03   -0.17498E+00  1824   0.246E+00    0.335E-01
RMM:   2    -0.649738909268E+03    0.30267E-03   -0.10670E-02  1790   0.223E-01    0.189E-01
RMM:   3    -0.649738676683E+03    0.23259E-03   -0.17859E-03  1790   0.615E-02    0.395E-02
RMM:   4    -0.649738672557E+03    0.41264E-05   -0.81316E-05  1792   0.185E-02    0.155E-02
RMM:   5    -0.649738671616E+03    0.94026E-06   -0.23696E-05  1755   0.735E-03    0.511E-03
RMM:   6    -0.649738671321E+03    0.29568E-06   -0.16787E-06  1649   0.276E-03    0.246E-03
RMM:   7    -0.649738671299E+03    0.21937E-07   -0.84278E-07  1540   0.144E-03
  39 F= -.65709234E+03 E0= -.65709234E+03  d E =-.101537E-32
 Finite differences progress:
  Degree of freedom:  19/153
  Displacement:        2/  2
  Total:              38/306
 bond charge predicted
       N       E                     dE             d eps       ncg     rms          rms(c)
DAV:   1    -0.649738240952E+03    0.43037E-03   -0.10570E+00  1792   0.190E+00    0.228E-01
RMM:   2    -0.649738046153E+03    0.19480E-03   -0.50082E-03  1787   0.144E-01    0.130E-01
RMM:   3    -0.649737907276E+03    0.13888E-03   -0.10021E-03  1789   0.440E-02    0.198E-02
RMM:   4    -0.649737903215E+03    0.40613E-05   -0.29540E-05  1778   0.117E-02    0.101E-02
RMM:   5    -0.649737902158E+03    0.10566E-05   -0.14482E-05  1744   0.542E-03    0.344E-03
RMM:   6    -0.649737902038E+03    0.12042E-06   -0.81698E-07  1524   0.178E-03    0.155E-03
RMM:   7    -0.649737902070E+03   -0.32622E-07   -0.53918E-07  1417   0.111E-03
  40 F= -.65709142E+03 E0= -.65709142E+03  d E =-.789156E-33
 Finite differences progress:
  Degree of freedom:  20/153
  Displacement:        1/  2
  Total:              39/306
 bond charge predicted
       N       E                     dE             d eps       ncg     rms          rms(c)
DAV:   1    -0.649738897240E+03   -0.99520E-03   -0.18931E+00  1792   0.250E+00    0.315E-01
RMM:   2    -0.649738382018E+03    0.51522E-03   -0.71788E-03  1790   0.173E-01    0.182E-01
RMM:   3    -0.649738087612E+03    0.29441E-03   -0.20272E-03  1791   0.609E-02    0.197E-02
RMM:   4    -0.649738073707E+03    0.13905E-04   -0.44354E-05  1783   0.149E-02    0.125E-02
RMM:   5    -0.649738069795E+03    0.39118E-05   -0.34717E-05  1763   0.786E-03    0.435E-03
RMM:   6    -0.649738069531E+03    0.26426E-06   -0.16428E-06  1647   0.224E-03    0.152E-03
RMM:   7    -0.649738069591E+03   -0.60612E-07   -0.27760E-07  1293   0.102E-03
  41 F= -.65709154E+03 E0= -.65709154E+03  d E =-.976249E-35
 Finite differences progress:
  Degree of freedom:  20/153
  Displacement:        2/  2
  Total:              40/306
 bond charge predicted
       N       E                     dE             d eps       ncg     rms          rms(c)
DAV:   1    -0.649739202808E+03   -0.11333E-02   -0.10486E+00  1824   0.193E+00    0.231E-01
RMM:   2    -0.649739095284E+03    0.10752E-03   -0.58470E-03  1785   0.159E-01    0.129E-01
RMM:   3    -0.649738950443E+03    0.14484E-03   -0.10324E-03  1780   0.457E-02    0.251E-02
RMM:   4    -0.649738948145E+03    0.22983E-05   -0.38241E-05  1797   0.135E-02    0.122E-02
RMM:   5    -0.649738946566E+03    0.15792E-05   -0.22657E-05  1744   0.634E-03    0.451E-03
RMM:   6    -0.649738946199E+03    0.36668E-06   -0.16712E-06  1619   0.220E-03    0.192E-03
RMM:   7    -0.649738946180E+03    0.19092E-07   -0.54546E-07  1416   0.122E-03
  42 F= -.65709257E+03 E0= -.65709257E+03  d E =-.942531E-33
 Finite differences progress:
  Degree of freedom:  21/153
  Displacement:        1/  2
  Total:              41/306
 bond charge predicted
       N       E                     dE             d eps       ncg     rms          rms(c)
DAV:   1    -0.649740004798E+03   -0.10586E-02   -0.18184E+00  1856   0.250E+00    0.324E-01
RMM:   2    -0.649739653024E+03    0.35177E-03   -0.11624E-02  1791   0.221E-01    0.175E-01
RMM:   3    -0.649739379381E+03    0.27364E-03   -0.20919E-03  1790   0.644E-02    0.427E-02
RMM:   4    -0.649739370578E+03    0.88030E-05   -0.90710E-05  1812   0.204E-02    0.193E-02
RMM:   5    -0.649739368195E+03    0.23829E-05   -0.56777E-05  1746   0.974E-03    0.727E-03
RMM:   6    -0.649739367004E+03    0.11906E-05   -0.54259E-06  1700   0.366E-03    0.305E-03
RMM:   7    -0.649739366871E+03    0.13367E-06   -0.11100E-06  1578   0.185E-03    0.125E-03
RMM:   8    -0.649739366829E+03    0.41178E-07   -0.27817E-07  1270   0.780E-04
  43 F= -.65709271E+03 E0= -.65709271E+03  d E =-.633877E-33
 Finite differences progress:
  Degree of freedom:  21/153
  Displacement:        2/  2
  Total:              42/306
 bond charge predicted
       N       E                     dE             d eps       ncg     rms          rms(c)
DAV:   1    -0.649738318159E+03    0.10487E-02   -0.10556E+00  1888   0.204E+00    0.262E-01
RMM:   2    -0.649738510214E+03   -0.19206E-03   -0.10279E-02  1788   0.222E-01    0.143E-01
RMM:   3    -0.649738304568E+03    0.20565E-03   -0.11630E-03  1783   0.565E-02    0.399E-02
RMM:   4    -0.649738301040E+03    0.35283E-05   -0.75845E-05  1814   0.195E-02    0.143E-02
RMM:   5    -0.649738298885E+03    0.21545E-05   -0.15199E-05  1752   0.636E-03    0.458E-03
RMM:   6    -0.649738298834E+03    0.51612E-07   -0.13925E-06  1652   0.258E-03    0.196E-03
RMM:   7    -0.649738298884E+03   -0.50291E-07   -0.39879E-07  1404   0.117E-03
  44 F= -.65708887E+03 E0= -.65708887E+03  d E =-.639903E-34
 Finite differences progress:
  Degree of freedom:  22/153
  Displacement:        1/  2
  Total:              43/306
 bond charge predicted
       N       E                     dE             d eps       ncg     rms          rms(c)
DAV:   1    -0.649734021731E+03    0.42771E-02   -0.18965E+00  1888   0.255E+00    0.409E-01
RMM:   2    -0.649733378387E+03    0.64334E-03   -0.16492E-02  1789   0.294E-01    0.223E-01
RMM:   3    -0.649732860483E+03    0.51790E-03   -0.22587E-03  1787   0.770E-02    0.579E-02
RMM:   4    -0.649732851094E+03    0.93885E-05   -0.15928E-04  1837   0.277E-02    0.178E-02
RMM:   5    -0.649732847288E+03    0.38058E-05   -0.21449E-05  1764   0.819E-03    0.643E-03
RMM:   6    -0.649732846825E+03    0.46293E-06   -0.32462E-06  1708   0.337E-03    0.242E-03
RMM:   7    -0.649732846767E+03    0.58808E-07   -0.51975E-07  1466   0.140E-03
  45 F= -.65708904E+03 E0= -.65708904E+03  d E =-.385284E-32
 Finite differences progress:
  Degree of freedom:  22/153
  Displacement:        2/  2
  Total:              44/306
 bond charge predicted
       N       E                     dE             d eps       ncg     rms          rms(c)
DAV:   1    -0.649742310163E+03   -0.94633E-02   -0.10676E+00  1824   0.192E+00    0.270E-01
RMM:   2    -0.649742220208E+03    0.89955E-04   -0.85182E-03  1788   0.204E-01    0.149E-01
RMM:   3    -0.649742034677E+03    0.18553E-03   -0.11786E-03  1784   0.548E-02    0.351E-02
RMM:   4    -0.649742028875E+03    0.58020E-05   -0.63429E-05  1843   0.180E-02    0.132E-02
RMM:   5    -0.649742026986E+03    0.18892E-05   -0.15376E-05  1761   0.609E-03    0.444E-03
RMM:   6    -0.649742026906E+03    0.79817E-07   -0.11438E-06  1611   0.230E-03    0.190E-03
RMM:   7    -0.649742026953E+03   -0.46704E-07   -0.42180E-07  1367   0.110E-03
  46 F= -.65709369E+03 E0= -.65709369E+03  d E =-.223217E-31
 Finite differences progress:
  Degree of freedom:  23/153
  Displacement:        1/  2
  Total:              45/306
 bond charge predicted
       N       E                     dE             d eps       ncg     rms          rms(c)
DAV:   1    -0.649738747430E+03    0.32795E-02   -0.17934E+00  1792   0.244E+00    0.301E-01
RMM:   2    -0.649738750794E+03   -0.33641E-05   -0.10489E-02  1788   0.225E-01    0.172E-01
RMM:   3    -0.649738500294E+03    0.25050E-03   -0.14441E-03  1789   0.610E-02    0.314E-02
RMM:   4    -0.649738498082E+03    0.22126E-05   -0.74231E-05  1837   0.185E-02    0.146E-02
RMM:   5    -0.649738495838E+03    0.22435E-05   -0.18932E-05  1744   0.655E-03    0.509E-03
RMM:   6    -0.649738495634E+03    0.20485E-06   -0.18119E-06  1654   0.274E-03    0.195E-03
RMM:   7    -0.649738495565E+03    0.68929E-07   -0.43058E-07  1372   0.114E-03
  47 F= -.65709376E+03 E0= -.65709376E+03  d E =-.167534E-36
 Finite differences progress:
  Degree of freedom:  23/153
  Displacement:        2/  2
  Total:              46/306
 bond charge predicted
       N       E                     dE             d eps       ncg     rms          rms(c)
DAV:   1    -0.649740349324E+03   -0.18537E-02   -0.10294E+00  1792   0.191E+00    0.278E-01
RMM:   2    -0.649740366728E+03   -0.17404E-04   -0.90862E-03  1790   0.219E-01    0.152E-01
RMM:   3    -0.649740125679E+03    0.24105E-03   -0.11582E-03  1788   0.572E-02    0.322E-02
RMM:   4    -0.649740121953E+03    0.37257E-05   -0.69959E-05  1824   0.187E-02    0.119E-02
RMM:   5    -0.649740119376E+03    0.25778E-05   -0.13990E-05  1749   0.591E-03    0.469E-03
RMM:   6    -0.649740119223E+03    0.15237E-06   -0.14549E-06  1662   0.259E-03    0.170E-03
RMM:   7    -0.649740119212E+03    0.11161E-07   -0.38199E-07  1372   0.109E-03
  48 F= -.65709242E+03 E0= -.65709242E+03  d E =-.165072E-30
 Finite differences progress:
  Degree of freedom:  24/153
  Displacement:        1/  2
  Total:              47/306
 bond charge predicted
       N       E                     dE             d eps       ncg     rms          rms(c)
DAV:   1    -0.649738323516E+03    0.17957E-02   -0.17897E+00  1824   0.251E+00    0.348E-01
RMM:   2    -0.649738403993E+03   -0.80476E-04   -0.14586E-02  1789   0.277E-01    0.197E-01
RMM:   3    -0.649737986634E+03    0.41736E-03   -0.18469E-03  1792   0.730E-02    0.382E-02
RMM:   4    -0.649737984078E+03    0.25556E-05   -0.11110E-04  1838   0.231E-02    0.165E-02
RMM:   5    -0.649737979961E+03    0.41165E-05   -0.21948E-05  1766   0.740E-03    0.649E-03
RMM:   6    -0.649737979711E+03    0.25091E-06   -0.24915E-06  1703   0.328E-03    0.221E-03
RMM:   7    -0.649737979667E+03    0.43368E-07   -0.59525E-07  1492   0.132E-03
  49 F= -.65709261E+03 E0= -.65709261E+03  d E =-.401066E-36
 Finite differences progress:
  Degree of freedom:  24/153
  Displacement:        2/  2
  Total:              48/306
 bond charge predicted
       N       E                     dE             d eps       ncg     rms          rms(c)
DAV:   1    -0.649732934896E+03    0.50448E-02   -0.10459E+00  1792   0.196E+00    0.260E-01
RMM:   2    -0.649733004331E+03   -0.69436E-04   -0.97283E-03  1785   0.214E-01    0.146E-01
RMM:   3    -0.649732753336E+03    0.25100E-03   -0.11012E-03  1788   0.548E-02    0.367E-02
RMM:   4    -0.649732747466E+03    0.58703E-05   -0.75783E-05  1838   0.185E-02    0.126E-02
RMM:   5    -0.649732745927E+03    0.15390E-05   -0.86857E-06  1748   0.497E-03    0.540E-03
RMM:   6    -0.649732745479E+03    0.44740E-06   -0.19884E-06  1687   0.263E-03    0.164E-03
RMM:   7    -0.649732745395E+03    0.84292E-07   -0.32374E-07  1333   0.103E-03
  50 F= -.65708872E+03 E0= -.65708872E+03  d E =-.304610E-32
 Finite differences progress:
  Degree of freedom:  25/153
  Displacement:        1/  2
  Total:              49/306
 bond charge predicted
       N       E                     dE             d eps       ncg     rms          rms(c)
DAV:   1    -0.649740112148E+03   -0.73667E-02   -0.19040E+00  1824   0.254E+00    0.399E-01
RMM:   2    -0.649738664886E+03    0.14473E-02   -0.13529E-02  1790   0.243E-01    0.210E-01
RMM:   3    -0.649738130676E+03    0.53421E-03   -0.27171E-03  1786   0.755E-02    0.519E-02
RMM:   4    -0.649738112507E+03    0.18168E-04   -0.11438E-04  1827   0.238E-02    0.188E-02
RMM:   5    -0.649738107856E+03    0.46515E-05   -0.29966E-05  1762   0.803E-03    0.552E-03
RMM:   6    -0.649738107668E+03    0.18748E-06   -0.20184E-06  1690   0.307E-03    0.264E-03
RMM:   7    -0.649738107735E+03   -0.66804E-07   -0.90547E-07  1584   0.162E-03
  51 F= -.65708886E+03 E0= -.65708886E+03  d E =-.702788E-34
 Finite differences progress:
  Degree of freedom:  25/153
  Displacement:        2/  2
  Total:              50/306
 bond charge predicted
       N       E                     dE             d eps       ncg     rms          rms(c)
DAV:   1    -0.649741100080E+03   -0.29924E-02   -0.10407E+00  1824   0.194E+00    0.259E-01
RMM:   2    -0.649740743437E+03    0.35664E-03   -0.71737E-03  1788   0.188E-01    0.140E-01
RMM:   3    -0.649740517533E+03    0.22590E-03   -0.10783E-03  1783   0.506E-02    0.332E-02
RMM:   4    -0.649740515580E+03    0.19531E-05   -0.57433E-05  1828   0.168E-02    0.120E-02
RMM:   5    -0.649740513349E+03    0.22307E-05   -0.13189E-05  1747   0.574E-03    0.348E-03
RMM:   6    -0.649740513166E+03    0.18309E-06   -0.72432E-07  1537   0.190E-03    0.172E-03
RMM:   7    -0.649740513072E+03    0.94427E-07   -0.34390E-07  1360   0.110E-03
  52 F= -.65709476E+03 E0= -.65709476E+03  d E =-.119146E-34
 Finite differences progress:
  Degree of freedom:  26/153
  Displacement:        1/  2
  Total:              51/306
 bond charge predicted
       N       E                     dE             d eps       ncg     rms          rms(c)
DAV:   1    -0.649742827337E+03   -0.23142E-02   -0.17983E+00  1792   0.249E+00    0.299E-01
RMM:   2    -0.649742311829E+03    0.51551E-03   -0.89488E-03  1789   0.207E-01    0.161E-01
RMM:   3    -0.649741975734E+03    0.33610E-03   -0.12408E-03  1789   0.558E-02    0.349E-02
RMM:   4    -0.649741981103E+03   -0.53690E-05   -0.73806E-05  1806   0.179E-02    0.126E-02
RMM:   5    -0.649741979825E+03    0.12781E-05   -0.91092E-06  1746   0.551E-03    0.410E-03
RMM:   6    -0.649741979927E+03   -0.10157E-06   -0.11909E-06  1594   0.213E-03    0.974E-04
RMM:   7    -0.649741979967E+03   -0.40280E-07   -0.90482E-08  1163   0.689E-04
  53 F= -.65709471E+03 E0= -.65709471E+03  d E =-.266386E-31
 Finite differences progress:
  Degree of freedom:  26/153
  Displacement:        2/  2
  Total:              52/306
 bond charge predicted
       N       E                     dE             d eps       ncg     rms          rms(c)
DAV:   1    -0.649739929143E+03    0.20508E-02   -0.10427E+00  1792   0.198E+00    0.278E-01
RMM:   2    -0.649739387631E+03    0.54151E-03   -0.84238E-03  1785   0.196E-01    0.144E-01
RMM:   3    -0.649739104353E+03    0.28328E-03   -0.97878E-04  1783   0.504E-02    0.409E-02
RMM:   4    -0.649739098447E+03    0.59058E-05   -0.85512E-05  1807   0.187E-02    0.110E-02
RMM:   5    -0.649739097369E+03    0.10777E-05   -0.70439E-06  1760   0.519E-03    0.459E-03
RMM:   6    -0.649739097215E+03    0.15440E-06   -0.19060E-06  1642   0.240E-03    0.104E-03
RMM:   7    -0.649739097237E+03   -0.21959E-07   -0.71470E-08  1159   0.704E-04
  54 F= -.65709279E+03 E0= -.65709279E+03  d E =-.302694E-36
 Finite differences progress:
  Degree of freedom:  27/153
  Displacement:        1/  2
  Total:              53/306
 bond charge predicted
       N       E                     dE             d eps       ncg     rms          rms(c)
DAV:   1    -0.649741078228E+03   -0.19810E-02   -0.18350E+00  1824   0.256E+00    0.354E-01
RMM:   2    -0.649740058549E+03    0.10197E-02   -0.12478E-02  1787   0.234E-01    0.186E-01
RMM:   3    -0.649739575173E+03    0.48338E-03   -0.16952E-03  1781   0.653E-02    0.494E-02
RMM:   4    -0.649739568026E+03    0.71467E-05   -0.12445E-04  1814   0.232E-02    0.143E-02
RMM:   5    -0.649739566619E+03    0.14069E-05   -0.11351E-05  1765   0.632E-03    0.574E-03
RMM:   6    -0.649739566430E+03    0.18990E-06   -0.27895E-06  1682   0.292E-03    0.134E-03
RMM:   7    -0.649739566453E+03   -0.23014E-07   -0.12815E-07  1189   0.873E-04
  55 F= -.65709285E+03 E0= -.65709285E+03  d E =-.564294E-30
 Finite differences progress:
  Degree of freedom:  27/153
  Displacement:        2/  2
  Total:              54/306
 bond charge predicted
       N       E                     dE             d eps       ncg     rms          rms(c)
DAV:   1    -0.649738376085E+03    0.11903E-02   -0.11172E+00  1952   0.202E+00    0.293E-01
RMM:   2    -0.649737875057E+03    0.50103E-03   -0.99632E-03  1786   0.211E-01    0.152E-01
RMM:   3    -0.649737498192E+03    0.37686E-03   -0.13672E-03  1780   0.583E-02    0.340E-02
RMM:   4    -0.649737497537E+03    0.65504E-06   -0.88049E-05  1804   0.187E-02    0.115E-02
RMM:   5    -0.649737496018E+03    0.15193E-05   -0.10826E-05  1752   0.557E-03    0.511E-03
RMM:   6    -0.649737495926E+03    0.91986E-07   -0.23277E-06  1654   0.280E-03    0.125E-03
RMM:   7    -0.649737495903E+03    0.22676E-07   -0.14667E-07  1201   0.841E-04
  56 F= -.65709203E+03 E0= -.65709203E+03  d E =-.229653E-34
 Finite differences progress:
  Degree of freedom:  28/153
  Displacement:        1/  2
  Total:              55/306
 bond charge predicted
       N       E                     dE             d eps       ncg     rms          rms(c)
DAV:   1    -0.649740944407E+03   -0.34485E-02   -0.17940E+00  1856   0.250E+00    0.386E-01
RMM:   2    -0.649740004170E+03    0.94024E-03   -0.14448E-02  1787   0.261E-01    0.201E-01
RMM:   3    -0.649739466416E+03    0.53775E-03   -0.19785E-03  1780   0.694E-02    0.498E-02
RMM:   4    -0.649739461815E+03    0.46015E-05   -0.14598E-04  1811   0.237E-02    0.143E-02
RMM:   5    -0.649739459529E+03    0.22856E-05   -0.14093E-05  1749   0.684E-03    0.632E-03
RMM:   6    -0.649739459327E+03    0.20234E-06   -0.39193E-06  1712   0.353E-03    0.138E-03
RMM:   7    -0.649739459354E+03   -0.27190E-07   -0.16038E-07  1203   0.994E-04
  57 F= -.65709185E+03 E0= -.65709185E+03  d E =-.341826E-35
 Finite differences progress:
  Degree of freedom:  28/153
  Displacement:        2/  2
  Total:              56/306
 bond charge predicted
       N       E                     dE             d eps       ncg     rms          rms(c)
DAV:   1    -0.649739430746E+03    0.28581E-04   -0.10218E+00  1824   0.190E+00    0.259E-01
RMM:   2    -0.649739184215E+03    0.24653E-03   -0.78044E-03  1784   0.195E-01    0.142E-01
RMM:   3    -0.649738939898E+03    0.24432E-03   -0.11764E-03  1782   0.522E-02    0.293E-02
RMM:   4    -0.649738938471E+03    0.14267E-05   -0.58402E-05  1820   0.160E-02    0.120E-02
RMM:   5    -0.649738936357E+03    0.21138E-05   -0.14985E-05  1738   0.573E-03    0.408E-03
RMM:   6    -0.649738936233E+03    0.12443E-06   -0.10772E-06  1576   0.232E-03    0.153E-03
RMM:   7    -0.649738936182E+03    0.50703E-07   -0.31020E-07  1310   0.103E-03
  58 F= -.65709350E+03 E0= -.65709350E+03  d E =-.126948E-31
 Finite differences progress:
  Degree of freedom:  29/153
  Displacement:        1/  2
  Total:              57/306
 bond charge predicted
       N       E                     dE             d eps       ncg     rms          rms(c)
DAV:   1    -0.649742392360E+03   -0.34561E-02   -0.18563E+00  1792   0.242E+00    0.312E-01
RMM:   2    -0.649741537853E+03    0.85451E-03   -0.86414E-03  1787   0.192E-01    0.165E-01
RMM:   3    -0.649741198960E+03    0.33889E-03   -0.18276E-03  1785   0.611E-02    0.340E-02
RMM:   4    -0.649741190876E+03    0.80846E-05   -0.69906E-05  1777   0.185E-02    0.146E-02
RMM:   5    -0.649741189541E+03    0.13351E-05   -0.22006E-05  1749   0.690E-03    0.507E-03
RMM:   6    -0.649741189465E+03    0.76063E-07   -0.18386E-06  1648   0.290E-03    0.207E-03
RMM:   7    -0.649741189433E+03    0.31741E-07   -0.57459E-07  1438   0.129E-03
  59 F= -.65709354E+03 E0= -.65709354E+03  d E =-.161612E-35
 Finite differences progress:
  Degree of freedom:  29/153
  Displacement:        2/  2
  Total:              58/306
 bond charge predicted
       N       E                     dE             d eps       ncg     rms          rms(c)
DAV:   1    -0.649737480164E+03    0.37093E-02   -0.10973E+00  1792   0.194E+00    0.293E-01
RMM:   2    -0.649736448224E+03    0.10319E-02   -0.73724E-03  1786   0.172E-01    0.152E-01
RMM:   3    -0.649736146589E+03    0.30164E-03   -0.14873E-03  1781   0.547E-02    0.407E-02
RMM:   4    -0.649736132963E+03    0.13626E-04   -0.68909E-05  1791   0.179E-02    0.134E-02
RMM:   5    -0.649736131679E+03    0.12840E-05   -0.12390E-05  1761   0.572E-03    0.419E-03
RMM:   6    -0.649736131372E+03    0.30725E-06   -0.14649E-06  1615   0.253E-03    0.170E-03
RMM:   7    -0.649736131307E+03    0.65207E-07   -0.43178E-07  1378   0.115E-03
  60 F= -.65709092E+03 E0= -.65709092E+03  d E =-.419545E-30
 Finite differences progress:
  Degree of freedom:  30/153
  Displacement:        1/  2
  Total:              59/306
 bond charge predicted
       N       E                     dE             d eps       ncg     rms          rms(c)
DAV:   1    -0.649741172992E+03   -0.50416E-02   -0.19185E+00  1792   0.250E+00    0.378E-01
RMM:   2    -0.649739318715E+03    0.18543E-02   -0.11094E-02  1790   0.205E-01    0.191E-01
RMM:   3    -0.649738843136E+03    0.47558E-03   -0.23120E-03  1789   0.682E-02    0.503E-02
RMM:   4    -0.649738827300E+03    0.15836E-04   -0.11070E-04  1781   0.224E-02    0.164E-02
RMM:   5    -0.649738825981E+03    0.13190E-05   -0.19216E-05  1772   0.726E-03    0.570E-03
RMM:   6    -0.649738825848E+03    0.13377E-06   -0.23332E-06  1688   0.315E-03    0.220E-03
RMM:   7    -0.649738825922E+03   -0.74604E-07   -0.52820E-07  1429   0.127E-03
  61 F= -.65709094E+03 E0= -.65709094E+03  d E =-.801170E-37
 Finite differences progress:
  Degree of freedom:  30/153
  Displacement:        2/  2
  Total:              60/306
 bond charge predicted
       N       E                     dE             d eps       ncg     rms          rms(c)
DAV:   1    -0.649738009202E+03    0.81665E-03   -0.10292E+00  1792   0.211E+00    0.257E-01
RMM:   2    -0.649738106461E+03   -0.97260E-04   -0.13196E-02  1792   0.234E-01    0.161E-01
RMM:   3    -0.649737800303E+03    0.30616E-03   -0.99584E-04  1794   0.613E-02    0.729E-02
RMM:   4    -0.649737740896E+03    0.59407E-04   -0.25843E-04  1805   0.302E-02    0.191E-02
RMM:   5    -0.649737735296E+03    0.55993E-05   -0.29193E-05  1780   0.106E-02    0.922E-03
RMM:   6    -0.649737734742E+03    0.55421E-06   -0.69319E-06  1778   0.479E-03    0.304E-03
RMM:   7    -0.649737734560E+03    0.18244E-06   -0.63129E-07  1594   0.169E-03    0.150E-03
RMM:   8    -0.649737734453E+03    0.10700E-06   -0.31517E-07  1313   0.101E-03    0.543E-04
RMM:   9    -0.649737734426E+03    0.26695E-07   -0.68402E-08  1159   0.538E-04
  62 F= -.65709130E+03 E0= -.65709130E+03  d E =-.914567E-34
 Finite differences progress:
  Degree of freedom:  31/153
  Displacement:        1/  2
  Total:              61/306
 bond charge predicted
       N       E                     dE             d eps       ncg     rms          rms(c)
DAV:   1    -0.649738664403E+03   -0.92995E-03   -0.17413E+00  1792   0.246E+00    0.372E-01
RMM:   2    -0.649738474233E+03    0.19017E-03   -0.19090E-02  1792   0.257E-01    0.236E-01
RMM:   3    -0.649737816588E+03    0.65764E-03   -0.18353E-03  1804   0.762E-02    0.947E-02
RMM:   4    -0.649737689075E+03    0.12751E-03   -0.39663E-04  1803   0.367E-02    0.250E-02
RMM:   5    -0.649737687130E+03    0.19457E-05   -0.54756E-05  1803   0.117E-02    0.133E-02
RMM:   6    -0.649737686686E+03    0.44347E-06   -0.12212E-05  1785   0.655E-03    0.304E-03
RMM:   7    -0.649737686352E+03    0.33452E-06   -0.12445E-06  1642   0.194E-03    0.169E-03
RMM:   8    -0.649737686081E+03    0.27033E-06   -0.73518E-07  1599   0.139E-03    0.712E-04
RMM:   9    -0.649737686003E+03    0.78118E-07   -0.10940E-07  1181   0.585E-04
  63 F= -.65709109E+03 E0= -.65709109E+03  d E =-.520363E-21
 Finite differences progress:
  Degree of freedom:  31/153
  Displacement:        2/  2
  Total:              62/306
 bond charge predicted
       N       E                     dE             d eps       ncg     rms          rms(c)
DAV:   1    -0.649736328232E+03    0.13578E-02   -0.98931E-01  1792   0.191E+00    0.232E-01
RMM:   2    -0.649736968853E+03   -0.64062E-03   -0.11501E-02  1791   0.201E-01    0.141E-01
RMM:   3    -0.649736827664E+03    0.14119E-03   -0.87392E-04  1796   0.527E-02    0.424E-02
RMM:   4    -0.649736818852E+03    0.88123E-05   -0.10885E-04  1830   0.193E-02    0.155E-02
RMM:   5    -0.649736816604E+03    0.22480E-05   -0.15263E-05  1776   0.608E-03    0.725E-03
RMM:   6    -0.649736816352E+03    0.25195E-06   -0.33787E-06  1703   0.327E-03    0.260E-03
RMM:   7    -0.649736816239E+03    0.11312E-06   -0.53245E-07  1493   0.134E-03    0.105E-03
RMM:   8    -0.649736816174E+03    0.64258E-07   -0.21769E-07  1252   0.810E-04
  64 F= -.65709017E+03 E0= -.65709017E+03  d E =-.855778E-23
 Finite differences progress:
  Degree of freedom:  32/153
  Displacement:        1/  2
  Total:              63/306
 bond charge predicted
       N       E                     dE             d eps       ncg     rms          rms(c)
DAV:   1    -0.649737184790E+03   -0.36855E-03   -0.18179E+00  1792   0.258E+00    0.418E-01
RMM:   2    -0.649737030175E+03    0.15462E-03   -0.18447E-02  1791   0.263E-01    0.251E-01
RMM:   3    -0.649736246058E+03    0.78412E-03   -0.28487E-03  1801   0.906E-02    0.538E-02
RMM:   4    -0.649736212434E+03    0.33624E-04   -0.18791E-04  1818   0.237E-02    0.250E-02
RMM:   5    -0.649736211826E+03    0.60855E-06   -0.46238E-05  1802   0.101E-02    0.119E-02
RMM:   6    -0.649736213042E+03   -0.12160E-05   -0.86001E-06  1767   0.553E-03    0.412E-03
RMM:   7    -0.649736213366E+03   -0.32377E-06   -0.14087E-06  1652   0.209E-03    0.149E-03
RMM:   8    -0.649736213426E+03   -0.60125E-07   -0.26068E-07  1284   0.946E-04
  65 F= -.65708984E+03 E0= -.65708984E+03  d E =-.366591E-19
 Finite differences progress:
  Degree of freedom:  32/153
  Displacement:        2/  2
  Total:              64/306
 bond charge predicted
       N       E                     dE             d eps       ncg     rms          rms(c)
DAV:   1    -0.649740853093E+03   -0.46397E-02   -0.98572E-01  1792   0.189E+00    0.258E-01
RMM:   2    -0.649741129655E+03   -0.27656E-03   -0.90277E-03  1791   0.188E-01    0.153E-01
RMM:   3    -0.649740929740E+03    0.19992E-03   -0.94297E-04  1803   0.542E-02    0.322E-02
RMM:   4    -0.649740923670E+03    0.60705E-05   -0.74644E-05  1828   0.162E-02    0.147E-02
RMM:   5    -0.649740922199E+03    0.14704E-05   -0.14725E-05  1765   0.592E-03    0.658E-03
RMM:   6    -0.649740922303E+03   -0.10364E-06   -0.26134E-06  1698   0.308E-03    0.257E-03
RMM:   7    -0.649740922305E+03   -0.26193E-08   -0.54454E-07  1497   0.133E-03
  66 F= -.65709455E+03 E0= -.65709455E+03  d E =-.340978E-33
 Finite differences progress:
  Degree of freedom:  33/153
  Displacement:        1/  2
  Total:              65/306
 bond charge predicted
       N       E                     dE             d eps       ncg     rms          rms(c)
DAV:   1    -0.649740905151E+03    0.17152E-04   -0.16003E+00  1792   0.234E+00    0.290E-01
RMM:   2    -0.649741284049E+03   -0.37890E-03   -0.82873E-03  1792   0.182E-01    0.175E-01
RMM:   3    -0.649741218282E+03    0.65768E-04   -0.74995E-04  1797   0.500E-02    0.429E-02
RMM:   4    -0.649741211701E+03    0.65810E-05   -0.77734E-05  1817   0.160E-02    0.140E-02
RMM:   5    -0.649741208713E+03    0.29878E-05   -0.17276E-05  1762   0.618E-03    0.626E-03
RMM:   6    -0.649741208175E+03    0.53797E-06   -0.30714E-06  1679   0.312E-03    0.224E-03
RMM:   7    -0.649741207991E+03    0.18415E-06   -0.64484E-07  1524   0.135E-03    0.878E-04
RMM:   8    -0.649741207915E+03    0.75597E-07   -0.15136E-07  1197   0.706E-04
  67 F= -.65709456E+03 E0= -.65709456E+03  d E =-.106106E-25
 Finite differences progress:
  Degree of freedom:  33/153
  Displacement:        2/  2
  Total:              66/306
 bond charge predicted
       N       E                     dE             d eps       ncg     rms          rms(c)
DAV:   1    -0.649738893153E+03    0.23148E-02   -0.96182E-01  1792   0.188E+00    0.207E-01
RMM:   2    -0.649739045206E+03   -0.15205E-03   -0.68157E-03  1790   0.164E-01    0.121E-01
RMM:   3    -0.649738937461E+03    0.10775E-03   -0.78409E-04  1796   0.445E-02    0.295E-02
RMM:   4    -0.649738934368E+03    0.30930E-05   -0.48153E-05  1791   0.141E-02    0.117E-02
RMM:   5    -0.649738933550E+03    0.81823E-06   -0.90618E-06  1726   0.458E-03    0.509E-03
RMM:   6    -0.649738933352E+03    0.19741E-06   -0.11510E-06  1601   0.208E-03    0.192E-03
RMM:   7    -0.649738933322E+03    0.29962E-07   -0.39639E-07  1388   0.102E-03
  68 F= -.65709236E+03 E0= -.65709236E+03  d E =-.371343E-34
 Finite differences progress:
  Degree of freedom:  34/153
  Displacement:        1/  2
  Total:              67/306
 bond charge predicted
       N       E                     dE             d eps       ncg     rms          rms(c)
DAV:   1    -0.649740343206E+03   -0.14099E-02   -0.18624E+00  1824   0.245E+00    0.326E-01
RMM:   2    -0.649739295618E+03    0.10476E-02   -0.11433E-02  1790   0.200E-01    0.173E-01
RMM:   3    -0.649738892897E+03    0.40272E-03   -0.19491E-03  1791   0.615E-02    0.469E-02
RMM:   4    -0.649738889415E+03    0.34818E-05   -0.12780E-04  1793   0.212E-02    0.150E-02
RMM:   5    -0.649738889105E+03    0.31071E-06   -0.13908E-05  1747   0.616E-03    0.681E-03
RMM:   6    -0.649738888551E+03    0.55401E-06   -0.29847E-06  1662   0.304E-03    0.199E-03
RMM:   7    -0.649738888549E+03    0.18626E-08   -0.40245E-07  1378   0.109E-03
  69 F= -.65709245E+03 E0= -.65709245E+03  d E =-.165527E-33
 Finite differences progress:
  Degree of freedom:  34/153
  Displacement:        2/  2
  Total:              68/306
 bond charge predicted
       N       E                     dE             d eps       ncg     rms          rms(c)
DAV:   1    -0.649739826490E+03   -0.93794E-03   -0.10469E+00  1792   0.191E+00    0.224E-01
RMM:   2    -0.649739377216E+03    0.44927E-03   -0.63047E-03  1790   0.151E-01    0.120E-01
RMM:   3    -0.649739170867E+03    0.20635E-03   -0.11678E-03  1796   0.472E-02    0.256E-02
RMM:   4    -0.649739170239E+03    0.62776E-06   -0.55797E-05  1805   0.146E-02    0.112E-02
RMM:   5    -0.649739169176E+03    0.10634E-05   -0.10290E-05  1716   0.499E-03    0.436E-03
RMM:   6    -0.649739169063E+03    0.11323E-06   -0.85194E-07  1561   0.200E-03    0.172E-03
RMM:   7    -0.649739169016E+03    0.46508E-07   -0.31894E-07  1338   0.975E-04
  70 F= -.65709279E+03 E0= -.65709279E+03  d E =-.688438E-34
 Finite differences progress:
  Degree of freedom:  35/153
  Displacement:        1/  2
  Total:              69/306
 bond charge predicted
       N       E                     dE             d eps       ncg     rms          rms(c)
DAV:   1    -0.649741139651E+03   -0.19706E-02   -0.18595E+00  1792   0.248E+00    0.320E-01
RMM:   2    -0.649739914751E+03    0.12249E-02   -0.94492E-03  1790   0.183E-01    0.174E-01
RMM:   3    -0.649739440102E+03    0.47465E-03   -0.25727E-03  1796   0.663E-02    0.285E-02
RMM:   4    -0.649739429710E+03    0.10392E-04   -0.79855E-05  1798   0.176E-02    0.149E-02
RMM:   5    -0.649739427056E+03    0.26539E-05   -0.24274E-05  1750   0.724E-03    0.527E-03
RMM:   6    -0.649739426895E+03    0.16099E-06   -0.17026E-06  1638   0.256E-03    0.205E-03
RMM:   7    -0.649739426773E+03    0.12240E-06   -0.51786E-07  1462   0.119E-03    0.701E-04
RMM:   8    -0.649739426754E+03    0.18921E-07   -0.78892E-08  1159   0.540E-04
  71 F= -.65709279E+03 E0= -.65709279E+03  d E =-.199614E-32
 Finite differences progress:
  Degree of freedom:  35/153
  Displacement:        2/  2
  Total:              70/306
 bond charge predicted
       N       E                     dE             d eps       ncg     rms          rms(c)
DAV:   1    -0.649739432379E+03   -0.56055E-05   -0.10501E+00  1792   0.189E+00    0.228E-01
RMM:   2    -0.649738841175E+03    0.59120E-03   -0.56488E-03  1790   0.140E-01    0.122E-01
RMM:   3    -0.649738608305E+03    0.23287E-03   -0.13359E-03  1802   0.484E-02    0.216E-02
RMM:   4    -0.649738604601E+03    0.37044E-05   -0.47275E-05  1804   0.135E-02    0.110E-02
RMM:   5    -0.649738603813E+03    0.78759E-06   -0.12752E-05  1725   0.534E-03    0.400E-03
RMM:   6    -0.649738603717E+03    0.96486E-07   -0.82929E-07  1532   0.190E-03
  72 F= -.65709219E+03 E0= -.65709219E+03  d E =-.388356E-33
 Finite differences progress:
  Degree of freedom:  36/153
  Displacement:        1/  2
  Total:              71/306
 bond charge predicted
       N       E                     dE             d eps       ncg     rms          rms(c)
DAV:   1    -0.649740739945E+03   -0.21361E-02   -0.18815E+00  1792   0.245E+00    0.328E-01
RMM:   2    -0.649739332555E+03    0.14074E-02   -0.84501E-03  1791   0.173E-01    0.181E-01
RMM:   3    -0.649738842516E+03    0.49004E-03   -0.28138E-03  1790   0.681E-02    0.259E-02
RMM:   4    -0.649738831580E+03    0.10936E-04   -0.73430E-05  1787   0.177E-02    0.148E-02
RMM:   5    -0.649738828636E+03    0.29440E-05   -0.22073E-05  1752   0.677E-03    0.498E-03
RMM:   6    -0.649738828589E+03    0.46712E-07   -0.14844E-06  1635   0.241E-03    0.175E-03
RMM:   7    -0.649738828525E+03    0.64589E-07   -0.39294E-07  1375   0.103E-03
  73 F= -.65709223E+03 E0= -.65709223E+03  d E =-.819932E-33
 Finite differences progress:
  Degree of freedom:  36/153
  Displacement:        2/  2
  Total:              72/306
 bond charge predicted
       N       E                     dE             d eps       ncg     rms          rms(c)
DAV:   1    -0.649738040785E+03    0.78780E-03   -0.10209E+00  1792   0.192E+00    0.228E-01
RMM:   2    -0.649737864077E+03    0.17671E-03   -0.74664E-03  1790   0.161E-01    0.127E-01
RMM:   3    -0.649737641680E+03    0.22240E-03   -0.12323E-03  1790   0.486E-02    0.277E-02
RMM:   4    -0.649737638684E+03    0.29966E-05   -0.50371E-05  1768   0.139E-02    0.133E-02
RMM:   5    -0.649737636565E+03    0.21184E-05   -0.16802E-05  1706   0.545E-03    0.409E-03
RMM:   6    -0.649737636358E+03    0.20767E-06   -0.10396E-06  1565   0.200E-03    0.166E-03
RMM:   7    -0.649737636326E+03    0.31414E-07   -0.33179E-07  1332   0.936E-04
  74 F= -.65709097E+03 E0= -.65709097E+03  d E =-.150281E-33
 Finite differences progress:
  Degree of freedom:  37/153
  Displacement:        1/  2
  Total:              73/306
 bond charge predicted
       N       E                     dE             d eps       ncg     rms          rms(c)
DAV:   1    -0.649738913791E+03   -0.12774E-02   -0.19009E+00  1792   0.245E+00    0.363E-01
RMM:   2    -0.649737839523E+03    0.10743E-02   -0.15794E-02  1791   0.223E-01    0.189E-01
RMM:   3    -0.649737343468E+03    0.49605E-03   -0.26119E-03  1793   0.693E-02    0.557E-02
RMM:   4    -0.649737322887E+03    0.20581E-04   -0.13892E-04  1772   0.219E-02    0.203E-02
RMM:   5    -0.649737318886E+03    0.40012E-05   -0.30687E-05  1741   0.777E-03    0.612E-03
RMM:   6    -0.649737318502E+03    0.38357E-06   -0.27039E-06  1662   0.317E-03    0.231E-03
RMM:   7    -0.649737318490E+03    0.11976E-07   -0.63772E-07  1457   0.128E-03
  75 F= -.65709094E+03 E0= -.65709094E+03  d E =-.669527E-32
 Finite differences progress:
  Degree of freedom:  37/153
  Displacement:        2/  2
  Total:              74/306
 bond charge predicted
       N       E                     dE             d eps       ncg     rms          rms(c)
DAV:   1    -0.649742176024E+03   -0.48575E-02   -0.10404E+00  1792   0.181E+00    0.230E-01
RMM:   2    -0.649741773178E+03    0.40285E-03   -0.67319E-03  1788   0.145E-01    0.121E-01
RMM:   3    -0.649741606847E+03    0.16633E-03   -0.10329E-03  1786   0.450E-02    0.319E-02
RMM:   4    -0.649741602338E+03    0.45098E-05   -0.59740E-05  1757   0.142E-02    0.105E-02
RMM:   5    -0.649741601864E+03    0.47352E-06   -0.89549E-06  1705   0.444E-03    0.405E-03
RMM:   6    -0.649741601703E+03    0.16099E-06   -0.11555E-06  1546   0.194E-03    0.135E-03
RMM:   7    -0.649741601701E+03    0.23683E-08   -0.20135E-07  1241   0.779E-04
  76 F= -.65709517E+03 E0= -.65709517E+03  d E =-.832507E-33
 Finite differences progress:
  Degree of freedom:  38/153
  Displacement:        1/  2
  Total:              75/306
 bond charge predicted
       N       E                     dE             d eps       ncg     rms          rms(c)
DAV:   1    -0.649742628656E+03   -0.10270E-02   -0.17808E+00  1792   0.231E+00    0.281E-01
RMM:   2    -0.649741978109E+03    0.65055E-03   -0.72398E-03  1790   0.152E-01    0.152E-01
RMM:   3    -0.649741741574E+03    0.23654E-03   -0.13729E-03  1792   0.510E-02    0.328E-02
RMM:   4    -0.649741741120E+03    0.45415E-06   -0.68389E-05  1769   0.145E-02    0.123E-02
RMM:   5    -0.649741740556E+03    0.56424E-06   -0.94844E-06  1699   0.470E-03    0.477E-03
RMM:   6    -0.649741740485E+03    0.70610E-07   -0.15761E-06  1584   0.210E-03    0.124E-03
RMM:   7    -0.649741740481E+03    0.34343E-08   -0.17765E-07  1212   0.748E-04
  77 F= -.65709515E+03 E0= -.65709515E+03  d E =-.650405E-33
 Finite differences progress:
  Degree of freedom:  38/153
  Displacement:        2/  2
  Total:              76/306
 bond charge predicted
       N       E                     dE             d eps       ncg     rms          rms(c)
DAV:   1    -0.649738305408E+03    0.34351E-02   -0.10231E+00  1792   0.178E+00    0.202E-01
RMM:   2    -0.649738026070E+03    0.27934E-03   -0.46452E-03  1782   0.120E-01    0.109E-01
RMM:   3    -0.649737902014E+03    0.12406E-03   -0.74292E-04  1769   0.380E-02    0.245E-02
RMM:   4    -0.649737901188E+03    0.82613E-06   -0.40416E-05  1760   0.112E-02    0.872E-03
RMM:   5    -0.649737901048E+03    0.14063E-06   -0.44953E-06  1680   0.331E-03    0.359E-03
RMM:   6    -0.649737900948E+03    0.99779E-07   -0.94528E-07  1496   0.157E-03
  78 F= -.65709141E+03 E0= -.65709141E+03  d E =-.200830E-34
 Finite differences progress:
  Degree of freedom:  39/153
  Displacement:        1/  2
  Total:              77/306
 bond charge predicted
       N       E                     dE             d eps       ncg     rms          rms(c)
DAV:   1    -0.649741053072E+03   -0.31520E-02   -0.19460E+00  1792   0.242E+00    0.391E-01
RMM:   2    -0.649738619086E+03    0.24340E-02   -0.15404E-02  1791   0.213E-01    0.192E-01
RMM:   3    -0.649738100739E+03    0.51835E-03   -0.25131E-03  1792   0.681E-02    0.638E-02
RMM:   4    -0.649738066466E+03    0.34273E-04   -0.18896E-04  1783   0.244E-02    0.149E-02
RMM:   5    -0.649738066640E+03   -0.17397E-06   -0.13958E-05  1763   0.630E-03    0.698E-03
RMM:   6    -0.649738066028E+03    0.61180E-06   -0.49097E-06  1679   0.331E-03    0.175E-03
RMM:   7    -0.649738066010E+03    0.17753E-07   -0.20926E-07  1261   0.935E-04
  79 F= -.65709154E+03 E0= -.65709154E+03  d E =-.522240E-31
 Finite differences progress:
  Degree of freedom:  39/153
  Displacement:        2/  2
  Total:              78/306
 bond charge predicted
       N       E                     dE             d eps       ncg     rms          rms(c)
DAV:   1    -0.649737811238E+03    0.25479E-03   -0.10565E+00  1792   0.186E+00    0.248E-01
RMM:   2    -0.649737295044E+03    0.51619E-03   -0.84792E-03  1788   0.162E-01    0.132E-01
RMM:   3    -0.649737105085E+03    0.18996E-03   -0.11203E-03  1784   0.449E-02    0.432E-02
RMM:   4    -0.649737090357E+03    0.14728E-04   -0.73237E-05  1769   0.152E-02    0.118E-02
RMM:   5    -0.649737090511E+03   -0.15434E-06   -0.65742E-06  1693   0.417E-03    0.446E-03
RMM:   6    -0.649737090219E+03    0.29220E-06   -0.18975E-06  1599   0.213E-03    0.132E-03
RMM:   7    -0.649737090238E+03   -0.19758E-07   -0.21145E-07  1247   0.805E-04
  80 F= -.65709036E+03 E0= -.65709036E+03  d E =-.205085E-30
 Finite differences progress:
  Degree of freedom:  40/153
  Displacement:        1/  2
  Total:              79/306
 bond charge predicted
       N       E                     dE             d eps       ncg     rms          rms(c)
DAV:   1    -0.649739494333E+03   -0.24041E-02   -0.19637E+00  1792   0.236E+00    0.384E-01
RMM:   2    -0.649737394475E+03    0.20999E-02   -0.13743E-02  1791   0.202E-01    0.200E-01
RMM:   3    -0.649736809418E+03    0.58506E-03   -0.27638E-03  1790   0.675E-02    0.584E-02
RMM:   4    -0.649736782428E+03    0.26991E-04   -0.15548E-04  1787   0.219E-02    0.168E-02
RMM:   5    -0.649736781852E+03    0.57543E-06   -0.14606E-05  1726   0.609E-03    0.663E-03
RMM:   6    -0.649736780961E+03    0.89115E-06   -0.46117E-06  1660   0.326E-03    0.177E-03
RMM:   7    -0.649736780931E+03    0.30424E-07   -0.36400E-07  1328   0.111E-03
  81 F= -.65709048E+03 E0= -.65709048E+03  d E =-.278306E-35
 Finite differences progress:
  Degree of freedom:  40/153
  Displacement:        2/  2
  Total:              80/306
 bond charge predicted
       N       E                     dE             d eps       ncg     rms          rms(c)
DAV:   1    -0.649742589219E+03   -0.58083E-02   -0.10423E+00  1792   0.176E+00    0.220E-01
RMM:   2    -0.649742209392E+03    0.37983E-03   -0.49108E-03  1789   0.120E-01    0.121E-01
RMM:   3    -0.649742045519E+03    0.16387E-03   -0.99807E-04  1788   0.411E-02    0.239E-02
RMM:   4    -0.649742044029E+03    0.14897E-05   -0.37827E-05  1740   0.115E-02    0.101E-02
RMM:   5    -0.649742043288E+03    0.74102E-06   -0.95356E-06  1684   0.408E-03    0.310E-03
RMM:   6    -0.649742043254E+03    0.34754E-07   -0.69244E-07  1463   0.149E-03
  82 F= -.65709541E+03 E0= -.65709541E+03  d E =-.152814E-33
 Finite differences progress:
  Degree of freedom:  41/153
  Displacement:        1/  2
  Total:              81/306
 bond charge predicted
       N       E                     dE             d eps       ncg     rms          rms(c)
DAV:   1    -0.649743071049E+03   -0.10278E-02   -0.17832E+00  1792   0.227E+00    0.291E-01
RMM:   2    -0.649742109401E+03    0.96165E-03   -0.65963E-03  1789   0.141E-01    0.157E-01
RMM:   3    -0.649741814622E+03    0.29478E-03   -0.15543E-03  1787   0.518E-02    0.339E-02
RMM:   4    -0.649741812443E+03    0.21796E-05   -0.63682E-05  1749   0.138E-02    0.132E-02
RMM:   5    -0.649741812856E+03   -0.41341E-06   -0.86075E-06  1681   0.430E-03    0.526E-03
RMM:   6    -0.649741812697E+03    0.15870E-06   -0.19698E-06  1595   0.215E-03    0.130E-03
RMM:   7    -0.649741812658E+03    0.39006E-07   -0.20907E-07  1234   0.766E-04
  83 F= -.65709543E+03 E0= -.65709543E+03  d E =-.251504E-32
 Finite differences progress:
  Degree of freedom:  41/153
  Displacement:        2/  2
  Total:              82/306
 bond charge predicted
       N       E                     dE             d eps       ncg     rms          rms(c)
DAV:   1    -0.649738085625E+03    0.37271E-02   -0.10183E+00  1792   0.175E+00    0.198E-01
RMM:   2    -0.649737802801E+03    0.28282E-03   -0.38930E-03  1791   0.109E-01    0.110E-01
RMM:   3    -0.649737669146E+03    0.13366E-03   -0.78144E-04  1786   0.368E-02    0.212E-02
RMM:   4    -0.649737668682E+03    0.46406E-06   -0.28578E-05  1716   0.976E-03    0.973E-03
RMM:   5    -0.649737668517E+03    0.16489E-06   -0.66359E-06  1671   0.347E-03    0.311E-03
RMM:   6    -0.649737668422E+03    0.95191E-07   -0.64224E-07  1424   0.134E-03
  84 F= -.65709141E+03 E0= -.65709141E+03  d E =-.388325E-32
 Finite differences progress:
  Degree of freedom:  42/153
  Displacement:        1/  2
  Total:              83/306
 bond charge predicted
       N       E                     dE             d eps       ncg     rms          rms(c)
DAV:   1    -0.649740593979E+03   -0.29255E-02   -0.19353E+00  1792   0.240E+00    0.381E-01
RMM:   2    -0.649738571502E+03    0.20225E-02   -0.13244E-02  1791   0.196E-01    0.192E-01
RMM:   3    -0.649738059936E+03    0.51157E-03   -0.27716E-03  1786   0.676E-02    0.551E-02
RMM:   4    -0.649738035997E+03    0.23939E-04   -0.15517E-04  1765   0.222E-02    0.163E-02
RMM:   5    -0.649738035510E+03    0.48736E-06   -0.17774E-05  1720   0.636E-03    0.669E-03
RMM:   6    -0.649738035014E+03    0.49579E-06   -0.38771E-06  1662   0.321E-03    0.192E-03
RMM:   7    -0.649738035064E+03   -0.49786E-07   -0.44830E-07  1366   0.110E-03
  85 F= -.65709126E+03 E0= -.65709126E+03  d E =-.759841E-34
 Finite differences progress:
  Degree of freedom:  42/153
  Displacement:        2/  2
  Total:              84/306
 bond charge predicted
       N       E                     dE             d eps       ncg     rms          rms(c)
DAV:   1    -0.649738179017E+03   -0.14400E-03   -0.10475E+00  1792   0.185E+00    0.253E-01
RMM:   2    -0.649737587793E+03    0.59122E-03   -0.84648E-03  1790   0.162E-01    0.131E-01
RMM:   3    -0.649737387661E+03    0.20013E-03   -0.11661E-03  1782   0.458E-02    0.437E-02
RMM:   4    -0.649737370095E+03    0.17566E-04   -0.79967E-05  1771   0.160E-02    0.119E-02
RMM:   5    -0.649737370350E+03   -0.25476E-06   -0.65082E-06  1706   0.426E-03    0.488E-03
RMM:   6    -0.649737370032E+03    0.31774E-06   -0.21979E-06  1610   0.222E-03    0.132E-03
RMM:   7    -0.649737370009E+03    0.23323E-07   -0.20755E-07  1238   0.803E-04
  86 F= -.65709087E+03 E0= -.65709087E+03  d E =-.419446E-35
 Finite differences progress:
  Degree of freedom:  43/153
  Displacement:        1/  2
  Total:              85/306
 bond charge predicted
       N       E                     dE             d eps       ncg     rms          rms(c)
DAV:   1    -0.649741063540E+03   -0.36935E-02   -0.19765E+00  1792   0.244E+00    0.424E-01
RMM:   2    -0.649737951574E+03    0.31120E-02   -0.16426E-02  1791   0.214E-01    0.203E-01
RMM:   3    -0.649737305131E+03    0.64644E-03   -0.31437E-03  1788   0.727E-02    0.656E-02
RMM:   4    -0.649737258567E+03    0.46564E-04   -0.21399E-04  1792   0.251E-02    0.159E-02
RMM:   5    -0.649737259526E+03   -0.95904E-06   -0.14559E-05  1740   0.632E-03    0.767E-03
RMM:   6    -0.649737259030E+03    0.49639E-06   -0.52651E-06  1666   0.347E-03    0.201E-03
RMM:   7    -0.649737258954E+03    0.76241E-07   -0.33793E-07  1308   0.104E-03
  87 F= -.65709073E+03 E0= -.65709073E+03  d E =-.163145E-30
 Finite differences progress:
  Degree of freedom:  43/153
  Displacement:        2/  2
  Total:              86/306
 bond charge predicted
       N       E                     dE             d eps       ncg     rms          rms(c)
DAV:   1    -0.649742901297E+03   -0.56423E-02   -0.10465E+00  1792   0.178E+00    0.241E-01
RMM:   2    -0.649742128777E+03    0.77252E-03   -0.57947E-03  1790   0.132E-01    0.122E-01
RMM:   3    -0.649741930727E+03    0.19805E-03   -0.10604E-03  1783   0.440E-02    0.340E-02
RMM:   4    -0.649741924428E+03    0.62988E-05   -0.63230E-05  1758   0.143E-02    0.954E-03
RMM:   5    -0.649741924703E+03   -0.27545E-06   -0.48907E-06  1690   0.363E-03    0.448E-03
RMM:   6    -0.649741924553E+03    0.15029E-06   -0.15361E-06  1573   0.194E-03    0.997E-04
RMM:   7    -0.649741924539E+03    0.13963E-07   -0.10250E-07  1159   0.624E-04
  88 F= -.65709527E+03 E0= -.65709527E+03  d E =-.785471E-33
 Finite differences progress:
  Degree of freedom:  44/153
  Displacement:        1/  2
  Total:              87/306
 bond charge predicted
       N       E                     dE             d eps       ncg     rms          rms(c)
DAV:   1    -0.649742523682E+03   -0.59913E-03   -0.17785E+00  1792   0.228E+00    0.275E-01
RMM:   2    -0.649741864574E+03    0.65911E-03   -0.59071E-03  1789   0.137E-01    0.154E-01
RMM:   3    -0.649741599874E+03    0.26470E-03   -0.14834E-03  1789   0.503E-02    0.267E-02
RMM:   4    -0.649741596687E+03    0.31870E-05   -0.42855E-05  1743   0.123E-02    0.130E-02
RMM:   5    -0.649741596032E+03    0.65507E-06   -0.12853E-05  1696   0.473E-03    0.387E-03
RMM:   6    -0.649741595866E+03    0.16579E-06   -0.98400E-07  1506   0.167E-03    0.131E-03
RMM:   7    -0.649741595828E+03    0.37882E-07   -0.24585E-07  1271   0.791E-04
  89 F= -.65709523E+03 E0= -.65709523E+03  d E =-.318377E-33
 Finite differences progress:
  Degree of freedom:  44/153
  Displacement:        2/  2
  Total:              88/306
 bond charge predicted
       N       E                     dE             d eps       ncg     rms          rms(c)
DAV:   1    -0.649737794778E+03    0.38011E-02   -0.10208E+00  1792   0.177E+00    0.198E-01
RMM:   2    -0.649737484970E+03    0.30981E-03   -0.38193E-03  1789   0.108E-01    0.109E-01
RMM:   3    -0.649737349676E+03    0.13529E-03   -0.77396E-04  1789   0.368E-02    0.212E-02
RMM:   4    -0.649737349335E+03    0.34099E-06   -0.29111E-05  1727   0.989E-03    0.940E-03
RMM:   5    -0.649737349105E+03    0.23009E-06   -0.60670E-06  1670   0.338E-03    0.303E-03
RMM:   6    -0.649737348989E+03    0.11635E-06   -0.66467E-07  1420   0.134E-03    0.917E-04
RMM:   7    -0.649737348969E+03    0.20053E-07   -0.11070E-07  1147   0.579E-04
  90 F= -.65709107E+03 E0= -.65709107E+03  d E =-.900327E-33
 Finite differences progress:
  Degree of freedom:  45/153
  Displacement:        1/  2
  Total:              89/306
 bond charge predicted
       N       E                     dE             d eps       ncg     rms          rms(c)
DAV:   1    -0.649739872715E+03   -0.25237E-02   -0.19132E+00  1792   0.241E+00    0.359E-01
RMM:   2    -0.649738428621E+03    0.14441E-02   -0.10426E-02  1789   0.177E-01    0.189E-01
RMM:   3    -0.649737981744E+03    0.44688E-03   -0.25391E-03  1789   0.639E-02    0.447E-02
RMM:   4    -0.649737969116E+03    0.12628E-04   -0.11254E-04  1777   0.198E-02    0.157E-02
RMM:   5    -0.649737965766E+03    0.33498E-05   -0.23947E-05  1722   0.661E-03    0.563E-03
RMM:   6    -0.649737965287E+03    0.47881E-06   -0.25358E-06  1658   0.282E-03    0.208E-03
RMM:   7    -0.649737965266E+03    0.21024E-07   -0.75957E-07  1494   0.128E-03
  91 F= -.65709121E+03 E0= -.65709121E+03  d E =-.655617E-33
 Finite differences progress:
  Degree of freedom:  45/153
  Displacement:        2/  2
  Total:              90/306
 bond charge predicted
       N       E                     dE             d eps       ncg     rms          rms(c)
DAV:   1    -0.649738702324E+03   -0.73704E-03   -0.11895E+00  1792   0.196E+00    0.281E-01
RMM:   2    -0.649737910779E+03    0.79155E-03   -0.93532E-03  1790   0.171E-01    0.154E-01
RMM:   3    -0.649737529618E+03    0.38116E-03   -0.23723E-03  1790   0.628E-02    0.338E-02
RMM:   4    -0.649737513030E+03    0.16588E-04   -0.72844E-05  1752   0.173E-02    0.171E-02
RMM:   5    -0.649737509294E+03    0.37362E-05   -0.43053E-05  1725   0.801E-03    0.534E-03
RMM:   6    -0.649737508641E+03    0.65302E-06   -0.25167E-06  1640   0.274E-03    0.238E-03
RMM:   7    -0.649737508485E+03    0.15552E-06   -0.80470E-07  1490   0.138E-03    0.675E-04
RMM:   8    -0.649737508477E+03    0.83346E-08   -0.47022E-08  1123   0.489E-04
  92 F= -.65709115E+03 E0= -.65709115E+03  d E =-.993519E-32
 Finite differences progress:
  Degree of freedom:  46/153
  Displacement:        1/  2
  Total:              91/306
 bond charge predicted
       N       E                     dE             d eps       ncg     rms          rms(c)
DAV:   1    -0.649739399504E+03   -0.18910E-02   -0.19017E+00  1792   0.243E+00    0.360E-01
RMM:   2    -0.649738384272E+03    0.10152E-02   -0.15803E-02  1791   0.224E-01    0.187E-01
RMM:   3    -0.649737908788E+03    0.47548E-03   -0.26705E-03  1791   0.701E-02    0.534E-02
RMM:   4    -0.649737892344E+03    0.16444E-04   -0.13697E-04  1784   0.223E-02    0.203E-02
RMM:   5    -0.649737888219E+03    0.41255E-05   -0.33600E-05  1734   0.796E-03    0.613E-03
RMM:   6    -0.649737887948E+03    0.27110E-06   -0.24584E-06  1651   0.309E-03    0.238E-03
RMM:   7    -0.649737887959E+03   -0.10961E-07   -0.61585E-07  1445   0.127E-03
  93 F= -.65709120E+03 E0= -.65709120E+03  d E =-.911161E-34
 Finite differences progress:
  Degree of freedom:  46/153
  Displacement:        2/  2
  Total:              92/306
 bond charge predicted
       N       E                     dE             d eps       ncg     rms          rms(c)
DAV:   1    -0.649742082789E+03   -0.41948E-02   -0.10365E+00  1792   0.179E+00    0.221E-01
RMM:   2    -0.649741712733E+03    0.37006E-03   -0.62959E-03  1791   0.138E-01    0.117E-01
RMM:   3    -0.649741557984E+03    0.15475E-03   -0.93616E-04  1788   0.426E-02    0.311E-02
RMM:   4    -0.649741555442E+03    0.25415E-05   -0.56996E-05  1762   0.135E-02    0.100E-02
RMM:   5    -0.649741555215E+03    0.22713E-06   -0.65574E-06  1692   0.393E-03    0.397E-03
RMM:   6    -0.649741555054E+03    0.16127E-06   -0.11576E-06  1541   0.181E-03    0.105E-03
RMM:   7    -0.649741555055E+03   -0.97498E-09   -0.11212E-07  1170   0.642E-04
  94 F= -.65709490E+03 E0= -.65709490E+03  d E =-.134790E-34
 Finite differences progress:
  Degree of freedom:  47/153
  Displacement:        1/  2
  Total:              93/306
 bond charge predicted
       N       E                     dE             d eps       ncg     rms          rms(c)
DAV:   1    -0.649742168596E+03   -0.61354E-03   -0.17780E+00  1792   0.233E+00    0.288E-01
RMM:   2    -0.649741510505E+03    0.65809E-03   -0.80882E-03  1791   0.160E-01    0.157E-01
RMM:   3    -0.649741242673E+03    0.26783E-03   -0.15270E-03  1787   0.538E-02    0.339E-02
RMM:   4    -0.649741238121E+03    0.45522E-05   -0.71674E-05  1776   0.153E-02    0.133E-02
RMM:   5    -0.649741237317E+03    0.80394E-06   -0.11980E-05  1699   0.516E-03    0.486E-03
RMM:   6    -0.649741237131E+03    0.18546E-06   -0.15644E-06  1594   0.219E-03    0.141E-03
RMM:   7    -0.649741237112E+03    0.19310E-07   -0.26324E-07  1270   0.842E-04
  95 F= -.65709488E+03 E0= -.65709488E+03  d E =-.440537E-31
 Finite differences progress:
  Degree of freedom:  47/153
  Displacement:        2/  2
  Total:              94/306
 bond charge predicted
       N       E                     dE             d eps       ncg     rms          rms(c)
DAV:   1    -0.649738540498E+03    0.26966E-02   -0.10206E+00  1792   0.177E+00    0.201E-01
RMM:   2    -0.649738287145E+03    0.25335E-03   -0.48626E-03  1790   0.123E-01    0.109E-01
RMM:   3    -0.649738162808E+03    0.12434E-03   -0.74940E-04  1782   0.384E-02    0.246E-02
RMM:   4    -0.649738161613E+03    0.11942E-05   -0.40260E-05  1755   0.113E-02    0.885E-03
RMM:   5    -0.649738161519E+03    0.94482E-07   -0.45821E-06  1682   0.339E-03    0.360E-03
RMM:   6    -0.649738161414E+03    0.10532E-06   -0.10202E-06  1508   0.165E-03    0.882E-04
RMM:   7    -0.649738161402E+03    0.11172E-07   -0.10386E-07  1152   0.614E-04
  96 F= -.65709159E+03 E0= -.65709159E+03  d E =-.872974E-32
 Finite differences progress:
  Degree of freedom:  48/153
  Displacement:        1/  2
  Total:              95/306
 bond charge predicted
       N       E                     dE             d eps       ncg     rms          rms(c)
DAV:   1    -0.649740929811E+03   -0.27684E-02   -0.19481E+00  1792   0.241E+00    0.392E-01
RMM:   2    -0.649738475020E+03    0.24548E-02   -0.15267E-02  1791   0.213E-01    0.190E-01
RMM:   3    -0.649737968369E+03    0.50665E-03   -0.24683E-03  1788   0.678E-02    0.628E-02
RMM:   4    -0.649737935648E+03    0.32721E-04   -0.18941E-04  1784   0.243E-02    0.141E-02
RMM:   5    -0.649737936057E+03   -0.40940E-06   -0.13529E-05  1765   0.630E-03    0.679E-03
RMM:   6    -0.649737935551E+03    0.50617E-06   -0.51259E-06  1680   0.340E-03    0.166E-03
RMM:   7    -0.649737935524E+03    0.27678E-07   -0.22025E-07  1257   0.940E-04
  97 F= -.65709148E+03 E0= -.65709148E+03  d E =-.648705E-34
 Finite differences progress:
  Degree of freedom:  48/153
  Displacement:        2/  2
  Total:              96/306
 bond charge predicted
       N       E                     dE             d eps       ncg     rms          rms(c)
DAV:   1    -0.649737506709E+03    0.42884E-03   -0.10570E+00  1792   0.188E+00    0.245E-01
RMM:   2    -0.649737001136E+03    0.50557E-03   -0.85568E-03  1790   0.165E-01    0.131E-01
RMM:   3    -0.649736804951E+03    0.19619E-03   -0.10780E-03  1782   0.453E-02    0.449E-02
RMM:   4    -0.649736791153E+03    0.13798E-04   -0.78205E-05  1780   0.158E-02    0.123E-02
RMM:   5    -0.649736791147E+03    0.54861E-08   -0.65486E-06  1706   0.429E-03    0.467E-03
RMM:   6    -0.649736790709E+03    0.43854E-06   -0.22503E-06  1623   0.225E-03    0.125E-03
RMM:   7    -0.649736790684E+03    0.24302E-07   -0.17017E-07  1216   0.799E-04
  98 F= -.65709055E+03 E0= -.65709055E+03  d E =-.405153E-34
 Finite differences progress:
  Degree of freedom:  49/153
  Displacement:        1/  2
  Total:              97/306
 bond charge predicted
       N       E                     dE             d eps       ncg     rms          rms(c)
DAV:   1    -0.649739975441E+03   -0.31847E-02   -0.19680E+00  1792   0.241E+00    0.391E-01
RMM:   2    -0.649737789749E+03    0.21857E-02   -0.13955E-02  1791   0.199E-01    0.199E-01
RMM:   3    -0.649737221930E+03    0.56782E-03   -0.27359E-03  1787   0.674E-02    0.579E-02
RMM:   4    -0.649737198380E+03    0.23550E-04   -0.16259E-04  1773   0.228E-02    0.160E-02
RMM:   5    -0.649737197681E+03    0.69921E-06   -0.15374E-05  1717   0.619E-03    0.644E-03
RMM:   6    -0.649737197053E+03    0.62790E-06   -0.44899E-06  1674   0.328E-03    0.175E-03
RMM:   7    -0.649737197064E+03   -0.11649E-07   -0.31582E-07  1306   0.106E-03
  99 F= -.65709041E+03 E0= -.65709041E+03  d E =-.163998E-31
 Finite differences progress:
  Degree of freedom:  49/153
  Displacement:        2/  2
  Total:              98/306
 bond charge predicted
       N       E                     dE             d eps       ncg     rms          rms(c)
DAV:   1    -0.649742438409E+03   -0.52414E-02   -0.10400E+00  1792   0.176E+00    0.221E-01
RMM:   2    -0.649742015968E+03    0.42244E-03   -0.52537E-03  1784   0.125E-01    0.120E-01
RMM:   3    -0.649741845313E+03    0.17065E-03   -0.94074E-04  1780   0.407E-02    0.286E-02
RMM:   4    -0.649741844988E+03    0.32573E-06   -0.44899E-05  1752   0.118E-02    0.104E-02
RMM:   5    -0.649741844448E+03    0.53934E-06   -0.72152E-06  1685   0.381E-03    0.332E-03
RMM:   6    -0.649741844292E+03    0.15599E-06   -0.81060E-07  1465   0.158E-03    0.103E-03
RMM:   7    -0.649741844278E+03    0.14381E-07   -0.14119E-07  1196   0.672E-04
 100 F= -.65709528E+03 E0= -.65709528E+03  d E =-.322318E-32
 Finite differences progress:
  Degree of freedom:  50/153
  Displacement:        1/  2
  Total:              99/306
 bond charge predicted
       N       E                     dE             d eps       ncg     rms          rms(c)
DAV:   1    -0.649743005227E+03   -0.11609E-02   -0.17880E+00  1792   0.227E+00    0.295E-01
RMM:   2    -0.649742001844E+03    0.10034E-02   -0.68316E-03  1789   0.144E-01    0.157E-01
RMM:   3    -0.649741706555E+03    0.29529E-03   -0.15928E-03  1781   0.524E-02    0.348E-02
RMM:   4    -0.649741703778E+03    0.27778E-05   -0.67545E-05  1757   0.141E-02    0.127E-02
RMM:   5    -0.649741704070E+03   -0.29218E-06   -0.84510E-06  1687   0.430E-03    0.517E-03
RMM:   6    -0.649741703952E+03    0.11811E-06   -0.18914E-06  1596   0.215E-03    0.121E-03
RMM:   7    -0.649741703927E+03    0.24811E-07   -0.19355E-07  1235   0.742E-04
 101 F= -.65709525E+03 E0= -.65709525E+03  d E =-.112378E-33
 Finite differences progress:
  Degree of freedom:  50/153
  Displacement:        2/  2
  Total:             100/306
 bond charge predicted
       N       E                     dE             d eps       ncg     rms          rms(c)
DAV:   1    -0.649738475933E+03    0.32280E-02   -0.10187E+00  1792   0.175E+00    0.202E-01
RMM:   2    -0.649738175563E+03    0.30037E-03   -0.38040E-03  1784   0.108E-01    0.111E-01
RMM:   3    -0.649738042406E+03    0.13316E-03   -0.82907E-04  1781   0.374E-02    0.195E-02
RMM:   4    -0.649738040543E+03    0.18629E-05   -0.28177E-05  1721   0.950E-03    0.958E-03
RMM:   5    -0.649738040164E+03    0.37855E-06   -0.82157E-06  1677   0.374E-03    0.313E-03
RMM:   6    -0.649738040126E+03    0.38130E-07   -0.78013E-07  1446   0.141E-03
 102 F= -.65709129E+03 E0= -.65709129E+03  d E =-.466548E-35
 Finite differences progress:
  Degree of freedom:  51/153
  Displacement:        1/  2
  Total:             101/306
 bond charge predicted
       N       E                     dE             d eps       ncg     rms          rms(c)
DAV:   1    -0.649740303276E+03   -0.22631E-02   -0.19304E+00  1792   0.240E+00    0.379E-01
RMM:   2    -0.649738217515E+03    0.20858E-02   -0.12561E-02  1791   0.197E-01    0.194E-01
RMM:   3    -0.649737697509E+03    0.52001E-03   -0.27615E-03  1790   0.678E-02    0.544E-02
RMM:   4    -0.649737671881E+03    0.25629E-04   -0.14913E-04  1783   0.221E-02    0.160E-02
RMM:   5    -0.649737671271E+03    0.60973E-06   -0.17196E-05  1733   0.632E-03    0.654E-03
RMM:   6    -0.649737670489E+03    0.78169E-06   -0.38952E-06  1661   0.313E-03    0.190E-03
RMM:   7    -0.649737670444E+03    0.45638E-07   -0.45245E-07  1364   0.109E-03
 103 F= -.65709139E+03 E0= -.65709139E+03  d E =-.121365E-30
 Finite differences progress:
  Degree of freedom:  51/153
  Displacement:        2/  2
  Total:             102/306
 bond charge predicted
       N       E                     dE             d eps       ncg     rms          rms(c)
DAV:   1    -0.649738012674E+03   -0.34219E-03   -0.10518E+00  1792   0.187E+00    0.255E-01
RMM:   2    -0.649737382547E+03    0.63013E-03   -0.85066E-03  1791   0.162E-01    0.132E-01
RMM:   3    -0.649737182657E+03    0.19989E-03   -0.11985E-03  1782   0.461E-02    0.438E-02
RMM:   4    -0.649737165254E+03    0.17403E-04   -0.80078E-05  1773   0.159E-02    0.119E-02
RMM:   5    -0.649737165557E+03   -0.30329E-06   -0.67728E-06  1708   0.430E-03    0.466E-03
RMM:   6    -0.649737165253E+03    0.30360E-06   -0.20844E-06  1606   0.218E-03    0.134E-03
RMM:   7    -0.649737165260E+03   -0.67921E-08   -0.21116E-07  1248   0.792E-04
 104 F= -.65709065E+03 E0= -.65709065E+03  d E =-.948504E-32
 Finite differences progress:
  Degree of freedom:  52/153
  Displacement:        1/  2
  Total:             103/306
 bond charge predicted
       N       E                     dE             d eps       ncg     rms          rms(c)
DAV:   1    -0.649741145088E+03   -0.39798E-02   -0.19785E+00  1792   0.244E+00    0.423E-01
RMM:   2    -0.649737973708E+03    0.31714E-02   -0.16178E-02  1789   0.215E-01    0.204E-01
RMM:   3    -0.649737311350E+03    0.66236E-03   -0.31949E-03  1789   0.734E-02    0.660E-02
RMM:   4    -0.649737263407E+03    0.47943E-04   -0.21331E-04  1786   0.250E-02    0.164E-02
RMM:   5    -0.649737264319E+03   -0.91188E-06   -0.15293E-05  1770   0.639E-03    0.775E-03
RMM:   6    -0.649737263631E+03    0.68831E-06   -0.54811E-06  1670   0.346E-03    0.207E-03
RMM:   7    -0.649737263530E+03    0.10067E-06   -0.36840E-07  1319   0.105E-03    0.720E-04
RMM:   8    -0.649737263543E+03   -0.12617E-07   -0.10409E-07  1159   0.539E-04
 105 F= -.65709075E+03 E0= -.65709075E+03  d E =-.121419E-33
 Finite differences progress:
  Degree of freedom:  52/153
  Displacement:        2/  2
  Total:             104/306
 bond charge predicted
       N       E                     dE             d eps       ncg     rms          rms(c)
DAV:   1    -0.649742677774E+03   -0.54142E-02   -0.10516E+00  1792   0.177E+00    0.244E-01
RMM:   2    -0.649741848170E+03    0.82960E-03   -0.58999E-03  1789   0.134E-01    0.123E-01
RMM:   3    -0.649741643093E+03    0.20508E-03   -0.10814E-03  1785   0.442E-02    0.352E-02
RMM:   4    -0.649741636359E+03    0.67339E-05   -0.66532E-05  1747   0.144E-02    0.978E-03
RMM:   5    -0.649741636688E+03   -0.32980E-06   -0.51539E-06  1700   0.370E-03    0.451E-03
RMM:   6    -0.649741636515E+03    0.17341E-06   -0.15465E-06  1575   0.195E-03    0.990E-04
RMM:   7    -0.649741636491E+03    0.23902E-07   -0.10412E-07  1157   0.627E-04
 106 F= -.65709522E+03 E0= -.65709522E+03  d E =-.223710E-32
 Finite differences progress:
  Degree of freedom:  53/153
  Displacement:        1/  2
  Total:             105/306
 bond charge predicted
       N       E                     dE             d eps       ncg     rms          rms(c)
DAV:   1    -0.649742903517E+03   -0.12670E-02   -0.17859E+00  1792   0.226E+00    0.286E-01
RMM:   2    -0.649742093274E+03    0.81024E-03   -0.58299E-03  1789   0.137E-01    0.156E-01
RMM:   3    -0.649741815828E+03    0.27745E-03   -0.15352E-03  1787   0.510E-02    0.281E-02
RMM:   4    -0.649741814505E+03    0.13227E-05   -0.45927E-05  1734   0.126E-02    0.133E-02
RMM:   5    -0.649741813877E+03    0.62799E-06   -0.13728E-05  1705   0.486E-03    0.387E-03
RMM:   6    -0.649741813863E+03    0.14628E-07   -0.89542E-07  1487   0.164E-03
 107 F= -.65709521E+03 E0= -.65709521E+03  d E =-.133571E-33
 Finite differences progress:
  Degree of freedom:  53/153
  Displacement:        2/  2
  Total:             106/306
 bond charge predicted
       N       E                     dE             d eps       ncg     rms          rms(c)
DAV:   1    -0.649738467685E+03    0.33462E-02   -0.10184E+00  1792   0.174E+00    0.199E-01
RMM:   2    -0.649738152664E+03    0.31502E-03   -0.35346E-03  1788   0.106E-01    0.110E-01
RMM:   3    -0.649738019772E+03    0.13289E-03   -0.79592E-04  1768   0.370E-02    0.193E-02
RMM:   4    -0.649738018114E+03    0.16574E-05   -0.25862E-05  1713   0.925E-03    0.925E-03
RMM:   5    -0.649738018000E+03    0.11481E-06   -0.70490E-06  1676   0.353E-03    0.295E-03
RMM:   6    -0.649738017965E+03    0.34459E-07   -0.76105E-07  1439   0.137E-03
 108 F= -.65709121E+03 E0= -.65709121E+03  d E =-.292535E-33
 Finite differences progress:
  Degree of freedom:  54/153
  Displacement:        1/  2
  Total:             107/306
 bond charge predicted
       N       E                     dE             d eps       ncg     rms          rms(c)
DAV:   1    -0.649739225305E+03   -0.12073E-02   -0.19080E+00  1792   0.239E+00    0.354E-01
RMM:   2    -0.649737800800E+03    0.14245E-02   -0.10006E-02  1788   0.176E-01    0.189E-01
RMM:   3    -0.649737349144E+03    0.45166E-03   -0.25560E-03  1788   0.642E-02    0.433E-02
RMM:   4    -0.649737333661E+03    0.15484E-04   -0.99311E-05  1766   0.188E-02    0.159E-02
RMM:   5    -0.649737330545E+03    0.31152E-05   -0.24159E-05  1730   0.650E-03    0.543E-03
RMM:   6    -0.649737329898E+03    0.64775E-06   -0.22499E-06  1643   0.269E-03    0.203E-03
RMM:   7    -0.649737329769E+03    0.12829E-06   -0.75140E-07  1478   0.125E-03    0.773E-04
RMM:   8    -0.649737329743E+03    0.26612E-07   -0.97531E-08  1168   0.578E-04
 109 F= -.65709110E+03 E0= -.65709110E+03  d E =-.334337E-32
 Finite differences progress:
  Degree of freedom:  54/153
  Displacement:        2/  2
  Total:             108/306
 bond charge predicted
       N       E                     dE             d eps       ncg     rms          rms(c)
DAV:   1    -0.649739432700E+03   -0.21029E-02   -0.10668E+00  1792   0.196E+00    0.238E-01
RMM:   2    -0.649739096850E+03    0.33585E-03   -0.78733E-03  1792   0.167E-01    0.131E-01
RMM:   3    -0.649738879475E+03    0.21738E-03   -0.11290E-03  1791   0.472E-02    0.364E-02
RMM:   4    -0.649738873851E+03    0.56240E-05   -0.68499E-05  1777   0.155E-02    0.114E-02
RMM:   5    -0.649738873738E+03    0.11321E-06   -0.74018E-06  1729   0.452E-03    0.482E-03
RMM:   6    -0.649738873288E+03    0.44938E-06   -0.22699E-06  1652   0.247E-03    0.133E-03
RMM:   7    -0.649738873262E+03    0.26663E-07   -0.19067E-07  1248   0.816E-04
 110 F= -.65709239E+03 E0= -.65709239E+03  d E =-.913722E-37
 Finite differences progress:
  Degree of freedom:  55/153
  Displacement:        1/  2
  Total:             109/306
 bond charge predicted
       N       E                     dE             d eps       ncg     rms          rms(c)
DAV:   1    -0.649740412984E+03   -0.15397E-02   -0.18646E+00  1792   0.249E+00    0.330E-01
RMM:   2    -0.649739260615E+03    0.11524E-02   -0.11355E-02  1791   0.199E-01    0.175E-01
RMM:   3    -0.649738844943E+03    0.41567E-03   -0.20062E-03  1792   0.615E-02    0.450E-02
RMM:   4    -0.649738841878E+03    0.30656E-05   -0.12132E-04  1790   0.201E-02    0.146E-02
RMM:   5    -0.649738841241E+03    0.63639E-06   -0.13426E-05  1755   0.608E-03    0.656E-03
RMM:   6    -0.649738840778E+03    0.46387E-06   -0.29540E-06  1662   0.300E-03    0.188E-03
RMM:   7    -0.649738840809E+03   -0.31494E-07   -0.38629E-07  1369   0.107E-03
 111 F= -.65709230E+03 E0= -.65709230E+03  d E =-.134942E-28
 Finite differences progress:
  Degree of freedom:  55/153
  Displacement:        2/  2
  Total:             110/306
 bond charge predicted
       N       E                     dE             d eps       ncg     rms          rms(c)
DAV:   1    -0.649739986102E+03   -0.11453E-02   -0.10568E+00  1792   0.189E+00    0.235E-01
RMM:   2    -0.649739319546E+03    0.66656E-03   -0.54729E-03  1792   0.141E-01    0.126E-01
RMM:   3    -0.649739078614E+03    0.24093E-03   -0.13360E-03  1793   0.484E-02    0.222E-02
RMM:   4    -0.649739077197E+03    0.14176E-05   -0.49166E-05  1783   0.137E-02    0.108E-02
RMM:   5    -0.649739075823E+03    0.13739E-05   -0.94221E-06  1726   0.480E-03    0.396E-03
RMM:   6    -0.649739075714E+03    0.10886E-06   -0.88347E-07  1561   0.186E-03    0.141E-03
RMM:   7    -0.649739075692E+03    0.22399E-07   -0.25861E-07  1288   0.881E-04
 112 F= -.65709244E+03 E0= -.65709244E+03  d E =-.195566E-31
 Finite differences progress:
  Degree of freedom:  56/153
  Displacement:        1/  2
  Total:             111/306
 bond charge predicted
       N       E                     dE             d eps       ncg     rms          rms(c)
DAV:   1    -0.649740620531E+03   -0.15448E-02   -0.18799E+00  1792   0.247E+00    0.333E-01
RMM:   2    -0.649739074379E+03    0.15462E-02   -0.78535E-03  1791   0.165E-01    0.179E-01
RMM:   3    -0.649738573454E+03    0.50093E-03   -0.26973E-03  1792   0.664E-02    0.259E-02
RMM:   4    -0.649738566146E+03    0.73078E-05   -0.73068E-05  1792   0.171E-02    0.140E-02
RMM:   5    -0.649738563978E+03    0.21677E-05   -0.20860E-05  1753   0.669E-03    0.505E-03
RMM:   6    -0.649738563900E+03    0.78140E-07   -0.20493E-06  1657   0.250E-03    0.199E-03
RMM:   7    -0.649738563741E+03    0.15950E-06   -0.57986E-07  1441   0.118E-03    0.722E-04
RMM:   8    -0.649738563742E+03   -0.13097E-08   -0.64267E-08  1152   0.515E-04
 113 F= -.65709219E+03 E0= -.65709219E+03  d E =-.972978E-35
 Finite differences progress:
  Degree of freedom:  56/153
  Displacement:        2/  2
  Total:             112/306
 bond charge predicted
       N       E                     dE             d eps       ncg     rms          rms(c)
DAV:   1    -0.649740254788E+03   -0.16910E-02   -0.10537E+00  1888   0.190E+00    0.229E-01
RMM:   2    -0.649739637684E+03    0.61710E-03   -0.52810E-03  1792   0.139E-01    0.123E-01
RMM:   3    -0.649739389032E+03    0.24865E-03   -0.13240E-03  1800   0.480E-02    0.206E-02
RMM:   4    -0.649739384134E+03    0.48978E-05   -0.42143E-05  1786   0.129E-02    0.107E-02
RMM:   5    -0.649739383054E+03    0.10807E-05   -0.12433E-05  1718   0.522E-03    0.378E-03
RMM:   6    -0.649739382989E+03    0.64574E-07   -0.92261E-07  1567   0.184E-03
 114 F= -.65709270E+03 E0= -.65709270E+03  d E =-.874751E-36
 Finite differences progress:
  Degree of freedom:  57/153
  Displacement:        1/  2
  Total:             113/306
 bond charge predicted
       N       E                     dE             d eps       ncg     rms          rms(c)
DAV:   1    -0.649740877321E+03   -0.14943E-02   -0.18659E+00  1792   0.251E+00    0.325E-01
RMM:   2    -0.649739496600E+03    0.13807E-02   -0.96236E-03  1791   0.187E-01    0.174E-01
RMM:   3    -0.649739009303E+03    0.48730E-03   -0.26484E-03  1795   0.675E-02    0.298E-02
RMM:   4    -0.649739001784E+03    0.75193E-05   -0.87360E-05  1814   0.186E-02    0.154E-02
RMM:   5    -0.649738999878E+03    0.19058E-05   -0.24349E-05  1743   0.727E-03    0.567E-03
RMM:   6    -0.649738999739E+03    0.13887E-06   -0.15561E-06  1626   0.264E-03    0.234E-03
RMM:   7    -0.649738999689E+03    0.50852E-07   -0.59829E-07  1469   0.129E-03
 115 F= -.65709267E+03 E0= -.65709267E+03  d E =-.107526E-29
 Finite differences progress:
  Degree of freedom:  57/153
  Displacement:        2/  2
  Total:             114/306
 bond charge predicted
       N       E                     dE             d eps       ncg     rms          rms(c)
DAV:   1    -0.649738831828E+03    0.16791E-03   -0.95488E-01  1792   0.192E+00    0.222E-01
RMM:   2    -0.649738811674E+03    0.20154E-04   -0.81329E-03  1791   0.176E-01    0.137E-01
RMM:   3    -0.649738613723E+03    0.19795E-03   -0.85721E-04  1801   0.497E-02    0.505E-02
RMM:   4    -0.649738596896E+03    0.16827E-04   -0.12316E-04  1800   0.196E-02    0.158E-02
RMM:   5    -0.649738593178E+03    0.37185E-05   -0.24010E-05  1758   0.742E-03    0.746E-03
RMM:   6    -0.649738593011E+03    0.16677E-06   -0.35535E-06  1691   0.353E-03    0.240E-03
RMM:   7    -0.649738593006E+03    0.54679E-08   -0.54188E-07  1490   0.136E-03
 116 F= -.65709201E+03 E0= -.65709201E+03  d E =-.540072E-25
 Finite differences progress:
  Degree of freedom:  58/153
  Displacement:        1/  2
  Total:             115/306
 bond charge predicted
       N       E                     dE             d eps       ncg     rms          rms(c)
DAV:   1    -0.649739095004E+03   -0.50199E-03   -0.17012E+00  1792   0.244E+00    0.343E-01
RMM:   2    -0.649739215204E+03   -0.12020E-03   -0.17289E-02  1792   0.248E-01    0.219E-01
RMM:   3    -0.649738725568E+03    0.48964E-03   -0.14896E-03  1801   0.691E-02    0.911E-02
RMM:   4    -0.649738632164E+03    0.93404E-04   -0.35320E-04  1799   0.344E-02    0.236E-02
RMM:   5    -0.649738629462E+03    0.27020E-05   -0.50918E-05  1804   0.115E-02    0.123E-02
RMM:   6    -0.649738629303E+03    0.15909E-06   -0.10909E-05  1781   0.608E-03    0.296E-03
RMM:   7    -0.649738629138E+03    0.16415E-06   -0.10155E-06  1604   0.178E-03    0.166E-03
RMM:   8    -0.649738628997E+03    0.14179E-06   -0.60692E-07  1539   0.127E-03    0.671E-04
RMM:   9    -0.649738628965E+03    0.31374E-07   -0.79574E-08  1161   0.523E-04
 117 F= -.65709219E+03 E0= -.65709219E+03  d E =-.427123E-36
 Finite differences progress:
  Degree of freedom:  58/153
  Displacement:        2/  2
  Total:             116/306
 bond charge predicted
       N       E                     dE             d eps       ncg     rms          rms(c)
DAV:   1    -0.649736642387E+03    0.19866E-02   -0.95146E-01  1792   0.186E+00    0.219E-01
RMM:   2    -0.649737263741E+03   -0.62135E-03   -0.90648E-03  1791   0.180E-01    0.132E-01
RMM:   3    -0.649737202883E+03    0.60859E-04   -0.68343E-04  1795   0.469E-02    0.345E-02
RMM:   4    -0.649737192447E+03    0.10436E-04   -0.69055E-05  1835   0.154E-02    0.130E-02
RMM:   5    -0.649737190153E+03    0.22942E-05   -0.13826E-05  1746   0.568E-03    0.618E-03
RMM:   6    -0.649737189745E+03    0.40741E-06   -0.27749E-06  1700   0.300E-03    0.226E-03
RMM:   7    -0.649737189656E+03    0.88898E-07   -0.51985E-07  1456   0.123E-03
 118 F= -.65709082E+03 E0= -.65709082E+03  d E =-.597353E-33
 Finite differences progress:
  Degree of freedom:  59/153
  Displacement:        1/  2
  Total:             117/306
 bond charge predicted
       N       E                     dE             d eps       ncg     rms          rms(c)
DAV:   1    -0.649738654951E+03   -0.14652E-02   -0.17456E+00  1792   0.250E+00    0.402E-01
RMM:   2    -0.649738486693E+03    0.16826E-03   -0.18225E-02  1792   0.257E-01    0.253E-01
RMM:   3    -0.649737711641E+03    0.77505E-03   -0.24157E-03  1800   0.845E-02    0.721E-02
RMM:   4    -0.649737642063E+03    0.69578E-04   -0.23224E-04  1815   0.262E-02    0.248E-02
RMM:   5    -0.649737644663E+03   -0.25994E-05   -0.46943E-05  1801   0.104E-02    0.131E-02
RMM:   6    -0.649737646654E+03   -0.19916E-05   -0.11081E-05  1778   0.636E-03    0.328E-03
RMM:   7    -0.649737646800E+03   -0.14583E-06   -0.97102E-07  1591   0.175E-03    0.128E-03
RMM:   8    -0.649737646883E+03   -0.82942E-07   -0.23155E-07  1246   0.952E-04
 119 F= -.65709100E+03 E0= -.65709100E+03  d E =-.424030E-30
 Finite differences progress:
  Degree of freedom:  59/153
  Displacement:        2/  2
  Total:             118/306
 bond charge predicted
       N       E                     dE             d eps       ncg     rms          rms(c)
DAV:   1    -0.649739711706E+03   -0.20649E-02   -0.10269E+00  1792   0.196E+00    0.300E-01
RMM:   2    -0.649739736206E+03   -0.24500E-04   -0.10848E-02  1792   0.201E-01    0.180E-01
RMM:   3    -0.649739320862E+03    0.41534E-03   -0.14821E-03  1801   0.657E-02    0.391E-02
RMM:   4    -0.649739304457E+03    0.16405E-04   -0.10107E-04  1813   0.180E-02    0.182E-02
RMM:   5    -0.649739303523E+03    0.93371E-06   -0.23267E-05  1795   0.733E-03    0.877E-03
RMM:   6    -0.649739303753E+03   -0.23001E-06   -0.46664E-06  1745   0.410E-03    0.295E-03
RMM:   7    -0.649739303762E+03   -0.88221E-08   -0.74014E-07  1542   0.149E-03
 120 F= -.65709278E+03 E0= -.65709278E+03  d E =-.290110E-24
 Finite differences progress:
  Degree of freedom:  60/153
  Displacement:        1/  2
  Total:             119/306
 bond charge predicted
       N       E                     dE             d eps       ncg     rms          rms(c)
DAV:   1    -0.649739155785E+03    0.14797E-03   -0.16942E+00  1792   0.243E+00    0.331E-01
RMM:   2    -0.649739496480E+03   -0.34069E-03   -0.12365E-02  1792   0.222E-01    0.201E-01
RMM:   3    -0.649739197396E+03    0.29908E-03   -0.14527E-03  1801   0.647E-02    0.362E-02
RMM:   4    -0.649739186758E+03    0.10638E-04   -0.92321E-05  1832   0.177E-02    0.180E-02
RMM:   5    -0.649739182059E+03    0.46993E-05   -0.32035E-05  1787   0.814E-03    0.629E-03
RMM:   6    -0.649739181187E+03    0.87194E-06   -0.31796E-06  1704   0.344E-03    0.332E-03
RMM:   7    -0.649739180713E+03    0.47381E-06   -0.16163E-06  1666   0.201E-03    0.130E-03
RMM:   8    -0.649739180592E+03    0.12086E-06   -0.30993E-07  1327   0.887E-04    0.774E-04
RMM:   9    -0.649739180542E+03    0.50928E-07   -0.22520E-07  1266   0.732E-04
 121 F= -.65709269E+03 E0= -.65709269E+03  d E =-.988078E-35
 Finite differences progress:
  Degree of freedom:  60/153
  Displacement:        2/  2
  Total:             120/306
 bond charge predicted
       N       E                     dE             d eps       ncg     rms          rms(c)
DAV:   1    -0.649741820168E+03   -0.26396E-02   -0.55734E-01  1792   0.148E+00    0.204E-01
RMM:   2    -0.649741985589E+03   -0.16542E-03   -0.59597E-03  1792   0.158E-01    0.120E-01
RMM:   3    -0.649741885454E+03    0.10014E-03   -0.51522E-04  1793   0.426E-02    0.303E-02
RMM:   4    -0.649741881593E+03    0.38606E-05   -0.48893E-05  1825   0.143E-02    0.104E-02
RMM:   5    -0.649741880451E+03    0.11422E-05   -0.77843E-06  1805   0.473E-03    0.455E-03
RMM:   6    -0.649741880075E+03    0.37570E-06   -0.14271E-06  1728   0.232E-03    0.182E-03
RMM:   7    -0.649741879948E+03    0.12762E-06   -0.35957E-07  1375   0.107E-03    0.783E-04
RMM:   8    -0.649741879889E+03    0.58375E-07   -0.12280E-07  1171   0.637E-04
 122 F= -.65709546E+03 E0= -.65709546E+03  d E =-.832921E-33
 Finite differences progress:
  Degree of freedom:  61/153
  Displacement:        1/  2
  Total:             121/306
 bond charge predicted
       N       E                     dE             d eps       ncg     rms          rms(c)
DAV:   1    -0.649742762789E+03   -0.88284E-03   -0.26408E-01  1952   0.853E-01    0.251E-01
RMM:   2    -0.649742095203E+03    0.66759E-03   -0.32399E-03  1788   0.976E-02    0.132E-01
RMM:   3    -0.649741995009E+03    0.10019E-03   -0.41360E-04  1784   0.312E-02    0.474E-02
RMM:   4    -0.649741995846E+03   -0.83723E-06   -0.67432E-05  1779   0.142E-02    0.887E-03
RMM:   5    -0.649741996086E+03   -0.23936E-06   -0.43259E-06  1746   0.423E-03    0.335E-03
RMM:   6    -0.649741996170E+03   -0.84961E-07   -0.10537E-06  1584   0.188E-03    0.120E-03
RMM:   7    -0.649741996248E+03   -0.77689E-07   -0.11691E-07  1171   0.768E-04
 123 F= -.65709541E+03 E0= -.65709541E+03  d E =-.342065E-33
 Finite differences progress:
  Degree of freedom:  61/153
  Displacement:        2/  2
  Total:             122/306
 bond charge predicted
       N       E                     dE             d eps       ncg     rms          rms(c)
DAV:   1    -0.649742611557E+03   -0.61539E-03   -0.15266E-01  2080   0.665E-01    0.213E-01
RMM:   2    -0.649742006988E+03    0.60457E-03   -0.26464E-03  1787   0.892E-02    0.109E-01
RMM:   3    -0.649741919454E+03    0.87534E-04   -0.29888E-04  1783   0.269E-02    0.432E-02
RMM:   4    -0.649741913006E+03    0.64481E-05   -0.53912E-05  1774   0.129E-02    0.808E-03
RMM:   5    -0.649741913136E+03   -0.12944E-06   -0.33349E-06  1719   0.384E-03    0.293E-03
RMM:   6    -0.649741913079E+03    0.56552E-07   -0.73138E-07  1501   0.160E-03
 124 F= -.65709551E+03 E0= -.65709551E+03  d E =-.683335E-32
 Finite differences progress:
  Degree of freedom:  62/153
  Displacement:        1/  2
  Total:             123/306
 bond charge predicted
       N       E                     dE             d eps       ncg     rms          rms(c)
DAV:   1    -0.649742742755E+03   -0.82962E-03   -0.26480E-01  1984   0.848E-01    0.244E-01
RMM:   2    -0.649742147257E+03    0.59550E-03   -0.31657E-03  1788   0.961E-02    0.130E-01
RMM:   3    -0.649742055853E+03    0.91404E-04   -0.40602E-04  1789   0.309E-02    0.464E-02
RMM:   4    -0.649742058483E+03   -0.26294E-05   -0.64420E-05  1787   0.138E-02    0.901E-03
RMM:   5    -0.649742058775E+03   -0.29251E-06   -0.40765E-06  1729   0.411E-03    0.332E-03
RMM:   6    -0.649742058812E+03   -0.36289E-07   -0.10976E-06  1600   0.187E-03    0.112E-03
RMM:   7    -0.649742058864E+03   -0.52260E-07   -0.79788E-08  1156   0.673E-04
 125 F= -.65709546E+03 E0= -.65709546E+03  d E =-.525117E-34
 Finite differences progress:
  Degree of freedom:  62/153
  Displacement:        2/  2
  Total:             124/306
 bond charge predicted
       N       E                     dE             d eps       ncg     rms          rms(c)
DAV:   1    -0.649744156709E+03   -0.20979E-02   -0.14788E-01  1920   0.628E-01    0.149E-01
RMM:   2    -0.649744021215E+03    0.13549E-03   -0.11239E-03  1787   0.592E-02    0.819E-02
RMM:   3    -0.649743999387E+03    0.21829E-04   -0.15483E-04  1775   0.197E-02    0.243E-02
RMM:   4    -0.649744002318E+03   -0.29314E-05   -0.19030E-05  1770   0.778E-03    0.495E-03
RMM:   5    -0.649744002243E+03    0.74957E-07   -0.15449E-06  1682   0.251E-03    0.186E-03
RMM:   6    -0.649744002219E+03    0.23589E-07   -0.35869E-07  1358   0.112E-03
 126 F= -.65709744E+03 E0= -.65709744E+03  d E =-.333462E-33
 Finite differences progress:
  Degree of freedom:  63/153
  Displacement:        1/  2
  Total:             125/306
 bond charge predicted
       N       E                     dE             d eps       ncg     rms          rms(c)
DAV:   1    -0.649743950602E+03    0.51641E-04   -0.25338E-01  1792   0.812E-01    0.177E-01
RMM:   2    -0.649743903652E+03    0.46950E-04   -0.92834E-04  1788   0.586E-02    0.103E-01
RMM:   3    -0.649743908718E+03   -0.50655E-05   -0.23197E-04  1787   0.242E-02    0.110E-02
RMM:   4    -0.649743908482E+03    0.23586E-06   -0.74735E-06  1763   0.549E-03    0.508E-03
RMM:   5    -0.649743907999E+03    0.48299E-06   -0.28523E-06  1736   0.280E-03    0.148E-03
RMM:   6    -0.649743907952E+03    0.46883E-07   -0.29543E-07  1307   0.102E-03
 127 F= -.65709745E+03 E0= -.65709745E+03  d E =-.233228E-32
 Finite differences progress:
  Degree of freedom:  63/153
  Displacement:        2/  2
  Total:             126/306
 bond charge predicted
       N       E                     dE             d eps       ncg     rms          rms(c)
DAV:   1    -0.649741034180E+03    0.28738E-02   -0.14940E-01  1984   0.692E-01    0.178E-01
RMM:   2    -0.649740718748E+03    0.31543E-03   -0.18496E-03  1784   0.777E-02    0.946E-02
RMM:   3    -0.649740665644E+03    0.53104E-04   -0.23707E-04  1776   0.237E-02    0.322E-02
RMM:   4    -0.649740664150E+03    0.14939E-05   -0.28262E-05  1767   0.969E-03    0.630E-03
RMM:   5    -0.649740664083E+03    0.67092E-07   -0.15668E-06  1678   0.267E-03    0.262E-03
RMM:   6    -0.649740663995E+03    0.88083E-07   -0.77417E-07  1558   0.148E-03
 128 F= -.65709402E+03 E0= -.65709402E+03  d E =-.482740E-33
 Finite differences progress:
  Degree of freedom:  64/153
  Displacement:        1/  2
  Total:             127/306
 bond charge predicted
       N       E                     dE             d eps       ncg     rms          rms(c)
DAV:   1    -0.649742175215E+03   -0.15111E-02   -0.26998E-01  1984   0.890E-01    0.309E-01
RMM:   2    -0.649740756589E+03    0.14186E-02   -0.48816E-03  1785   0.116E-01    0.155E-01
RMM:   3    -0.649740564651E+03    0.19194E-03   -0.62830E-04  1776   0.366E-02    0.601E-02
RMM:   4    -0.649740545791E+03    0.18861E-04   -0.99019E-05  1771   0.165E-02    0.107E-02
RMM:   5    -0.649740545341E+03    0.44960E-06   -0.46434E-06  1713   0.445E-03    0.440E-03
RMM:   6    -0.649740545159E+03    0.18221E-06   -0.18686E-06  1666   0.231E-03    0.139E-03
RMM:   7    -0.649740545110E+03    0.48811E-07   -0.17560E-07  1215   0.843E-04
 129 F= -.65709419E+03 E0= -.65709419E+03  d E =-.609912E-33
 Finite differences progress:
  Degree of freedom:  64/153
  Displacement:        2/  2
  Total:             128/306
 bond charge predicted
       N       E                     dE             d eps       ncg     rms          rms(c)
DAV:   1    -0.649744104415E+03   -0.35593E-02   -0.15066E-01  1952   0.649E-01    0.188E-01
RMM:   2    -0.649743661286E+03    0.44313E-03   -0.18336E-03  1782   0.723E-02    0.957E-02
RMM:   3    -0.649743599099E+03    0.62187E-04   -0.22283E-04  1764   0.225E-02    0.355E-02
RMM:   4    -0.649743596942E+03    0.21571E-05   -0.35731E-05  1753   0.101E-02    0.618E-03
RMM:   5    -0.649743596919E+03    0.22927E-07   -0.16151E-06  1620   0.271E-03    0.262E-03
RMM:   6    -0.649743596970E+03   -0.51346E-07   -0.68703E-07  1478   0.144E-03
 130 F= -.65709714E+03 E0= -.65709714E+03  d E =-.441327E-33
 Finite differences progress:
  Degree of freedom:  65/153
  Displacement:        1/  2
  Total:             129/306
 bond charge predicted
       N       E                     dE             d eps       ncg     rms          rms(c)
DAV:   1    -0.649743778717E+03   -0.18180E-03   -0.26181E-01  1824   0.822E-01    0.178E-01
RMM:   2    -0.649743718584E+03    0.60133E-04   -0.12373E-03  1787   0.629E-02    0.103E-01
RMM:   3    -0.649743702687E+03    0.15897E-04   -0.25828E-04  1774   0.249E-02    0.139E-02
RMM:   4    -0.649743705378E+03   -0.26915E-05   -0.97605E-06  1745   0.620E-03    0.494E-03
RMM:   5    -0.649743705107E+03    0.27136E-06   -0.24402E-06  1700   0.269E-03    0.160E-03
RMM:   6    -0.649743705142E+03   -0.35456E-07   -0.26147E-07  1281   0.104E-03
 131 F= -.65709714E+03 E0= -.65709714E+03  d E =-.693582E-33
 Finite differences progress:
  Degree of freedom:  65/153
  Displacement:        2/  2
  Total:             130/306
 bond charge predicted
       N       E                     dE             d eps       ncg     rms          rms(c)
DAV:   1    -0.649743603955E+03    0.10115E-03   -0.14719E-01  1824   0.629E-01    0.124E-01
RMM:   2    -0.649743588539E+03    0.15416E-04   -0.65368E-04  1775   0.465E-02    0.721E-02
RMM:   3    -0.649743586323E+03    0.22158E-05   -0.13348E-04  1765   0.179E-02    0.853E-03
RMM:   4    -0.649743586692E+03   -0.36935E-06   -0.51169E-06  1733   0.442E-03    0.320E-03
RMM:   5    -0.649743586596E+03    0.96377E-07   -0.11745E-06  1599   0.180E-03    0.114E-03
RMM:   6    -0.649743586599E+03   -0.29177E-08   -0.16314E-07  1196   0.800E-04
 132 F= -.65709715E+03 E0= -.65709715E+03  d E =-.700916E-33
 Finite differences progress:
  Degree of freedom:  66/153
  Displacement:        1/  2
  Total:             131/306
 bond charge predicted
       N       E                     dE             d eps       ncg     rms          rms(c)
DAV:   1    -0.649743945187E+03   -0.35859E-03   -0.25710E-01  1792   0.835E-01    0.191E-01
RMM:   2    -0.649743781721E+03    0.16347E-03   -0.11331E-03  1782   0.635E-02    0.108E-01
RMM:   3    -0.649743767114E+03    0.14607E-04   -0.24166E-04  1776   0.236E-02    0.212E-02
RMM:   4    -0.649743769040E+03   -0.19261E-05   -0.13831E-05  1747   0.693E-03    0.523E-03
RMM:   5    -0.649743768649E+03    0.39112E-06   -0.21139E-06  1696   0.249E-03    0.185E-03
RMM:   6    -0.649743768631E+03    0.17830E-07   -0.48023E-07  1464   0.122E-03
 133 F= -.65709719E+03 E0= -.65709719E+03  d E =-.555694E-33
 Finite differences progress:
  Degree of freedom:  66/153
  Displacement:        2/  2
  Total:             132/306
 bond charge predicted
       N       E                     dE             d eps       ncg     rms          rms(c)
DAV:   1    -0.649743723186E+03    0.45462E-04   -0.14660E-01  1792   0.665E-01    0.130E-01
RMM:   2    -0.649743683395E+03    0.39791E-04   -0.80834E-04  1781   0.547E-02    0.743E-02
RMM:   3    -0.649743678198E+03    0.51977E-05   -0.12390E-04  1769   0.180E-02    0.141E-02
RMM:   4    -0.649743679016E+03   -0.81872E-06   -0.71678E-06  1744   0.532E-03    0.337E-03
RMM:   5    -0.649743678894E+03    0.12265E-06   -0.97408E-07  1595   0.179E-03    0.151E-03
RMM:   6    -0.649743678859E+03    0.34783E-07   -0.33397E-07  1342   0.102E-03
 134 F= -.65709720E+03 E0= -.65709720E+03  d E =-.488527E-33
 Finite differences progress:
  Degree of freedom:  67/153
  Displacement:        1/  2
  Total:             133/306
 bond charge predicted
       N       E                     dE             d eps       ncg     rms          rms(c)
DAV:   1    -0.649743787398E+03   -0.10850E-03   -0.25916E-01  1792   0.814E-01    0.174E-01
RMM:   2    -0.649743739780E+03    0.47618E-04   -0.11900E-03  1789   0.617E-02    0.101E-01
RMM:   3    -0.649743733811E+03    0.59694E-05   -0.25451E-04  1780   0.248E-02    0.120E-02
RMM:   4    -0.649743735805E+03   -0.19946E-05   -0.87464E-06  1756   0.608E-03    0.479E-03
RMM:   5    -0.649743735556E+03    0.24924E-06   -0.23823E-06  1702   0.260E-03    0.158E-03
RMM:   6    -0.649743735603E+03   -0.46883E-07   -0.26809E-07  1271   0.103E-03
 135 F= -.65709720E+03 E0= -.65709720E+03  d E =-.642882E-33
 Finite differences progress:
  Degree of freedom:  67/153
  Displacement:        2/  2
  Total:             134/306
 bond charge predicted
       N       E                     dE             d eps       ncg     rms          rms(c)
DAV:   1    -0.649740936214E+03    0.27993E-02   -0.15070E-01  1984   0.656E-01    0.189E-01
RMM:   2    -0.649740503728E+03    0.43249E-03   -0.19873E-03  1784   0.739E-02    0.973E-02
RMM:   3    -0.649740441023E+03    0.62705E-04   -0.24536E-04  1773   0.231E-02    0.361E-02
RMM:   4    -0.649740439298E+03    0.17249E-05   -0.37533E-05  1765   0.104E-02    0.641E-03
RMM:   5    -0.649740439332E+03   -0.34022E-07   -0.18012E-06  1642   0.280E-03    0.279E-03
RMM:   6    -0.649740439344E+03   -0.11692E-07   -0.79206E-07  1494   0.152E-03
 136 F= -.65709382E+03 E0= -.65709382E+03  d E =-.616949E-33
 Finite differences progress:
  Degree of freedom:  68/153
  Displacement:        1/  2
  Total:             135/306
 bond charge predicted
       N       E                     dE             d eps       ncg     rms          rms(c)
DAV:   1    -0.649742029543E+03   -0.15902E-02   -0.26527E-01  2048   0.880E-01    0.309E-01
RMM:   2    -0.649740612120E+03    0.14174E-02   -0.50560E-03  1788   0.118E-01    0.154E-01
RMM:   3    -0.649740423926E+03    0.18819E-03   -0.61608E-04  1783   0.363E-02    0.616E-02
RMM:   4    -0.649740405503E+03    0.18423E-04   -0.10492E-04  1775   0.171E-02    0.107E-02
RMM:   5    -0.649740405228E+03    0.27483E-06   -0.49110E-06  1728   0.464E-03    0.461E-03
RMM:   6    -0.649740405094E+03    0.13402E-06   -0.20888E-06  1680   0.246E-03    0.147E-03
RMM:   7    -0.649740405045E+03    0.49393E-07   -0.14407E-07  1196   0.850E-04
 137 F= -.65709402E+03 E0= -.65709402E+03  d E =-.511958E-33
 Finite differences progress:
  Degree of freedom:  68/153
  Displacement:        2/  2
  Total:             136/306
 bond charge predicted
       N       E                     dE             d eps       ncg     rms          rms(c)
DAV:   1    -0.649744457648E+03   -0.40526E-02   -0.14559E-01  2048   0.656E-01    0.192E-01
RMM:   2    -0.649743993408E+03    0.46424E-03   -0.19940E-03  1785   0.745E-02    0.975E-02
RMM:   3    -0.649743931711E+03    0.61697E-04   -0.24213E-04  1778   0.231E-02    0.373E-02
RMM:   4    -0.649743928305E+03    0.34054E-05   -0.38003E-05  1772   0.106E-02    0.650E-03
RMM:   5    -0.649743928130E+03    0.17523E-06   -0.17683E-06  1673   0.281E-03    0.286E-03
RMM:   6    -0.649743928055E+03    0.75313E-07   -0.86455E-07  1544   0.157E-03
 138 F= -.65709734E+03 E0= -.65709734E+03  d E =-.958599E-33
 Finite differences progress:
  Degree of freedom:  69/153
  Displacement:        1/  2
  Total:             137/306
 bond charge predicted
       N       E                     dE             d eps       ncg     rms          rms(c)
DAV:   1    -0.649743818667E+03    0.10946E-03   -0.25261E-01  1792   0.824E-01    0.177E-01
RMM:   2    -0.649743754193E+03    0.64474E-04   -0.98151E-04  1784   0.583E-02    0.103E-01
RMM:   3    -0.649743756131E+03   -0.19385E-05   -0.20414E-04  1785   0.220E-02    0.151E-02
RMM:   4    -0.649743756925E+03   -0.79368E-06   -0.87512E-06  1757   0.573E-03    0.458E-03
RMM:   5    -0.649743756476E+03    0.44852E-06   -0.22289E-06  1712   0.242E-03    0.157E-03
RMM:   6    -0.649743756403E+03    0.73676E-07   -0.32101E-07  1332   0.105E-03
 139 F= -.65709733E+03 E0= -.65709733E+03  d E =-.459419E-33
 Finite differences progress:
  Degree of freedom:  69/153
  Displacement:        2/  2
  Total:             138/306
 bond charge predicted
       N       E                     dE             d eps       ncg     rms          rms(c)
DAV:   1    -0.649743572841E+03    0.18364E-03   -0.14655E-01  1792   0.735E-01    0.126E-01
RMM:   2    -0.649743562615E+03    0.10226E-04   -0.82068E-04  1788   0.583E-02    0.734E-02
RMM:   3    -0.649743558396E+03    0.42188E-05   -0.14760E-04  1776   0.199E-02    0.989E-03
RMM:   4    -0.649743557762E+03    0.63463E-06   -0.56387E-06  1751   0.498E-03    0.377E-03
RMM:   5    -0.649743557543E+03    0.21857E-06   -0.16877E-06  1692   0.209E-03    0.138E-03
RMM:   6    -0.649743557491E+03    0.51990E-07   -0.15794E-07  1188   0.856E-04
 140 F= -.65709702E+03 E0= -.65709702E+03  d E =-.138147E-32
 Finite differences progress:
  Degree of freedom:  70/153
  Displacement:        1/  2
  Total:             139/306
 bond charge predicted
       N       E                     dE             d eps       ncg     rms          rms(c)
DAV:   1    -0.649743621496E+03   -0.63953E-04   -0.26337E-01  1920   0.908E-01    0.181E-01
RMM:   2    -0.649743539151E+03    0.82346E-04   -0.13123E-03  1784   0.694E-02    0.105E-01
RMM:   3    -0.649743521492E+03    0.17659E-04   -0.34304E-04  1779   0.283E-02    0.129E-02
RMM:   4    -0.649743519710E+03    0.17820E-05   -0.99501E-06  1756   0.656E-03    0.594E-03
RMM:   5    -0.649743519282E+03    0.42729E-06   -0.59717E-06  1733   0.354E-03    0.205E-03
RMM:   6    -0.649743519233E+03    0.49233E-07   -0.20584E-07  1248   0.106E-03
 141 F= -.65709703E+03 E0= -.65709703E+03  d E =-.424930E-33
 Finite differences progress:
  Degree of freedom:  70/153
  Displacement:        2/  2
  Total:             140/306
 bond charge predicted
       N       E                     dE             d eps       ncg     rms          rms(c)
DAV:   1    -0.649741320277E+03    0.21990E-02   -0.15513E-01  2016   0.711E-01    0.152E-01
RMM:   2    -0.649741187675E+03    0.13260E-03   -0.11376E-03  1779   0.635E-02    0.853E-02
RMM:   3    -0.649741162527E+03    0.25147E-04   -0.34590E-04  1773   0.257E-02    0.189E-02
RMM:   4    -0.649741156898E+03    0.56292E-05   -0.14133E-05  1749   0.742E-03    0.690E-03
RMM:   5    -0.649741157028E+03   -0.12978E-06   -0.88147E-06  1726   0.400E-03    0.281E-03
RMM:   6    -0.649741156848E+03    0.18039E-06   -0.84400E-07  1508   0.161E-03    0.104E-03
RMM:   7    -0.649741156869E+03   -0.21020E-07   -0.23333E-07  1238   0.876E-04
 142 F= -.65709460E+03 E0= -.65709460E+03  d E =-.105311E-33
 Finite differences progress:
  Degree of freedom:  71/153
  Displacement:        1/  2
  Total:             141/306
 bond charge predicted
       N       E                     dE             d eps       ncg     rms          rms(c)
DAV:   1    -0.649742298850E+03   -0.11420E-02   -0.28580E-01  2112   0.969E-01    0.282E-01
RMM:   2    -0.649741373947E+03    0.92490E-03   -0.39766E-03  1788   0.115E-01    0.149E-01
RMM:   3    -0.649741210045E+03    0.16390E-03   -0.15027E-03  1779   0.505E-02    0.417E-02
RMM:   4    -0.649741180395E+03    0.29650E-04   -0.63503E-05  1761   0.148E-02    0.146E-02
RMM:   5    -0.649741181219E+03   -0.82420E-06   -0.30664E-05  1754   0.753E-03    0.595E-03
RMM:   6    -0.649741180549E+03    0.67001E-06   -0.73783E-06  1703   0.406E-03    0.302E-03
RMM:   7    -0.649741180249E+03    0.30025E-06   -0.58855E-07  1460   0.167E-03    0.148E-03
RMM:   8    -0.649741180214E+03    0.35361E-07   -0.77226E-07  1459   0.112E-03
 143 F= -.65709472E+03 E0= -.65709472E+03  d E =-.426097E-32
 Finite differences progress:
  Degree of freedom:  71/153
  Displacement:        2/  2
  Total:             142/306
 bond charge predicted
       N       E                     dE             d eps       ncg     rms          rms(c)
DAV:   1    -0.649743232443E+03   -0.20522E-02   -0.15295E-01  1888   0.696E-01    0.134E-01
RMM:   2    -0.649743177696E+03    0.54748E-04   -0.93691E-04  1777   0.577E-02    0.755E-02
RMM:   3    -0.649743168368E+03    0.93274E-05   -0.23761E-04  1776   0.221E-02    0.144E-02
RMM:   4    -0.649743165924E+03    0.24443E-05   -0.10326E-05  1749   0.629E-03    0.450E-03
RMM:   5    -0.649743165978E+03   -0.53911E-07   -0.42496E-06  1696   0.291E-03    0.208E-03
RMM:   6    -0.649743165902E+03    0.76114E-07   -0.28490E-07  1302   0.110E-03
 144 F= -.65709666E+03 E0= -.65709666E+03  d E =-.151719E-32
 Finite differences progress:
  Degree of freedom:  72/153
  Displacement:        1/  2
  Total:             143/306
 bond charge predicted
       N       E                     dE             d eps       ncg     rms          rms(c)
DAV:   1    -0.649743371778E+03   -0.20580E-03   -0.27380E-01  1984   0.917E-01    0.194E-01
RMM:   2    -0.649743229036E+03    0.14274E-03   -0.16530E-03  1786   0.751E-02    0.111E-01
RMM:   3    -0.649743204512E+03    0.24524E-04   -0.47156E-04  1783   0.311E-02    0.208E-02
RMM:   4    -0.649743198708E+03    0.58040E-05   -0.19090E-05  1754   0.841E-03    0.744E-03
RMM:   5    -0.649743198677E+03    0.31050E-07   -0.10081E-05  1736   0.431E-03    0.292E-03
RMM:   6    -0.649743198517E+03    0.15944E-06   -0.63418E-07  1480   0.158E-03    0.131E-03
RMM:   7    -0.649743198556E+03   -0.38533E-07   -0.45154E-07  1398   0.107E-03
 145 F= -.65709668E+03 E0= -.65709668E+03  d E =-.293320E-33
 Finite differences progress:
  Degree of freedom:  72/153
  Displacement:        2/  2
  Total:             144/306
 bond charge predicted
       N       E                     dE             d eps       ncg     rms          rms(c)
DAV:   1    -0.649742242641E+03    0.95588E-03   -0.15519E-01  2048   0.740E-01    0.165E-01
RMM:   2    -0.649741987897E+03    0.25474E-03   -0.16646E-03  1783   0.747E-02    0.884E-02
RMM:   3    -0.649741954235E+03    0.33661E-04   -0.53512E-04  1782   0.305E-02    0.262E-02
RMM:   4    -0.649741942918E+03    0.11317E-04   -0.25139E-05  1754   0.954E-03    0.966E-03
RMM:   5    -0.649741943499E+03   -0.58070E-06   -0.13129E-05  1725   0.487E-03    0.380E-03
RMM:   6    -0.649741943122E+03    0.37748E-06   -0.26912E-06  1629   0.245E-03    0.155E-03
RMM:   7    -0.649741943062E+03    0.59867E-07   -0.15439E-07  1185   0.963E-04
 146 F= -.65709548E+03 E0= -.65709548E+03  d E =-.245490E-32
 Finite differences progress:
  Degree of freedom:  73/153
  Displacement:        1/  2
  Total:             145/306
 bond charge predicted
       N       E                     dE             d eps       ncg     rms          rms(c)
DAV:   1    -0.649742932067E+03   -0.98894E-03   -0.27771E-01  2048   0.934E-01    0.262E-01
RMM:   2    -0.649742153409E+03    0.77866E-03   -0.31373E-03  1785   0.102E-01    0.139E-01
RMM:   3    -0.649742001983E+03    0.15143E-03   -0.12323E-03  1779   0.464E-02    0.358E-02
RMM:   4    -0.649741979788E+03    0.22195E-04   -0.44760E-05  1757   0.125E-02    0.132E-02
RMM:   5    -0.649741979997E+03   -0.20878E-06   -0.29019E-05  1730   0.702E-03    0.549E-03
RMM:   6    -0.649741979473E+03    0.52408E-06   -0.58772E-06  1690   0.352E-03    0.265E-03
RMM:   7    -0.649741979257E+03    0.21529E-06   -0.50396E-07  1417   0.147E-03    0.120E-03
RMM:   8    -0.649741979244E+03    0.13224E-07   -0.56023E-07  1391   0.969E-04
 147 F= -.65709543E+03 E0= -.65709543E+03  d E =-.125966E-33
 Finite differences progress:
  Degree of freedom:  73/153
  Displacement:        2/  2
  Total:             146/306
 bond charge predicted
       N       E                     dE             d eps       ncg     rms          rms(c)
DAV:   1    -0.649743107998E+03   -0.11287E-02   -0.16177E-01  2016   0.733E-01    0.213E-01
RMM:   2    -0.649742532249E+03    0.57575E-03   -0.22261E-03  1783   0.864E-02    0.111E-01
RMM:   3    -0.649742427889E+03    0.10436E-03   -0.87146E-04  1775   0.384E-02    0.317E-02
RMM:   4    -0.649742409693E+03    0.18196E-04   -0.36801E-05  1753   0.113E-02    0.113E-02
RMM:   5    -0.649742409984E+03   -0.29093E-06   -0.17999E-05  1733   0.578E-03    0.458E-03
RMM:   6    -0.649742409444E+03    0.53974E-06   -0.34949E-06  1653   0.291E-03    0.185E-03
RMM:   7    -0.649742409372E+03    0.71643E-07   -0.29607E-07  1285   0.119E-03
 148 F= -.65709596E+03 E0= -.65709596E+03  d E =-.246362E-33
 Finite differences progress:
  Degree of freedom:  74/153
  Displacement:        1/  2
  Total:             147/306
 bond charge predicted
       N       E                     dE             d eps       ncg     rms          rms(c)
DAV:   1    -0.649743015862E+03   -0.60642E-03   -0.27525E-01  1984   0.921E-01    0.230E-01
RMM:   2    -0.649742599610E+03    0.41625E-03   -0.24405E-03  1787   0.897E-02    0.127E-01
RMM:   3    -0.649742518382E+03    0.81228E-04   -0.82726E-04  1784   0.389E-02    0.317E-02
RMM:   4    -0.649742502611E+03    0.15772E-04   -0.36378E-05  1763   0.116E-02    0.109E-02
RMM:   5    -0.649742502908E+03   -0.29738E-06   -0.19196E-05  1741   0.595E-03    0.431E-03
RMM:   6    -0.649742502434E+03    0.47435E-06   -0.15476E-06  1596   0.231E-03    0.163E-03
RMM:   7    -0.649742502523E+03   -0.88781E-07   -0.92320E-07  1526   0.147E-03
 149 F= -.65709593E+03 E0= -.65709593E+03  d E =-.160889E-33
 Finite differences progress:
  Degree of freedom:  74/153
  Displacement:        2/  2
  Total:             148/306
 bond charge predicted
       N       E                     dE             d eps       ncg     rms          rms(c)
DAV:   1    -0.649743755862E+03   -0.12534E-02   -0.15608E-01  1952   0.699E-01    0.169E-01
RMM:   2    -0.649743507865E+03    0.24800E-03   -0.13530E-03  1777   0.660E-02    0.914E-02
RMM:   3    -0.649743459721E+03    0.48144E-04   -0.43401E-04  1778   0.280E-02    0.233E-02
RMM:   4    -0.649743451892E+03    0.78291E-05   -0.22011E-05  1756   0.857E-03    0.659E-03
RMM:   5    -0.649743452189E+03   -0.29725E-06   -0.65672E-06  1701   0.358E-03    0.261E-03
RMM:   6    -0.649743452102E+03    0.87144E-07   -0.15138E-06  1583   0.195E-03    0.156E-03
RMM:   7    -0.649743452019E+03    0.82928E-07   -0.20024E-07  1210   0.818E-04
 150 F= -.65709695E+03 E0= -.65709695E+03  d E =-.756305E-33
 Finite differences progress:
  Degree of freedom:  75/153
  Displacement:        1/  2
  Total:             149/306
 bond charge predicted
       N       E                     dE             d eps       ncg     rms          rms(c)
DAV:   1    -0.649743587785E+03   -0.13568E-03   -0.27252E-01  1792   0.894E-01    0.184E-01
RMM:   2    -0.649743495020E+03    0.92766E-04   -0.13257E-03  1783   0.659E-02    0.106E-01
RMM:   3    -0.649743477115E+03    0.17904E-04   -0.38541E-04  1781   0.286E-02    0.166E-02
RMM:   4    -0.649743472713E+03    0.44029E-05   -0.14948E-05  1752   0.729E-03    0.606E-03
RMM:   5    -0.649743472707E+03    0.50932E-08   -0.71876E-06  1722   0.368E-03    0.253E-03
RMM:   6    -0.649743472602E+03    0.10541E-06   -0.44263E-07  1391   0.135E-03    0.120E-03
RMM:   7    -0.649743472641E+03   -0.38679E-07   -0.36215E-07  1361   0.976E-04
 151 F= -.65709696E+03 E0= -.65709696E+03  d E =-.312138E-33
 Finite differences progress:
  Degree of freedom:  75/153
  Displacement:        2/  2
  Total:             150/306
 bond charge predicted
       N       E                     dE             d eps       ncg     rms          rms(c)
DAV:   1    -0.649743426446E+03    0.46156E-04   -0.15508E-01  1824   0.704E-01    0.134E-01
RMM:   2    -0.649743377500E+03    0.48946E-04   -0.97547E-04  1779   0.565E-02    0.772E-02
RMM:   3    -0.649743360437E+03    0.17063E-04   -0.25211E-04  1776   0.226E-02    0.140E-02
RMM:   4    -0.649743357052E+03    0.33850E-05   -0.10299E-05  1741   0.590E-03    0.521E-03
RMM:   5    -0.649743357221E+03   -0.16867E-06   -0.56875E-06  1694   0.310E-03    0.228E-03
RMM:   6    -0.649743357125E+03    0.95446E-07   -0.83520E-07  1466   0.140E-03
 152 F= -.65709676E+03 E0= -.65709676E+03  d E =-.299191E-34
 Finite differences progress:
  Degree of freedom:  76/153
  Displacement:        1/  2
  Total:             151/306
 bond charge predicted
       N       E                     dE             d eps       ncg     rms          rms(c)
DAV:   1    -0.649743468480E+03   -0.11126E-03   -0.27367E-01  1824   0.848E-01    0.199E-01
RMM:   2    -0.649743225350E+03    0.24313E-03   -0.16814E-03  1782   0.681E-02    0.111E-01
RMM:   3    -0.649743186821E+03    0.38529E-04   -0.51905E-04  1775   0.291E-02    0.239E-02
RMM:   4    -0.649743179126E+03    0.76952E-05   -0.28484E-05  1754   0.839E-03    0.560E-03
RMM:   5    -0.649743179590E+03   -0.46462E-06   -0.50951E-06  1679   0.317E-03    0.273E-03
RMM:   6    -0.649743179592E+03   -0.17535E-08   -0.18280E-06  1587   0.188E-03    0.186E-03
RMM:   7    -0.649743179475E+03    0.11731E-06   -0.33904E-07  1271   0.868E-04    0.434E-04
RMM:   8    -0.649743179490E+03   -0.15661E-07   -0.14127E-07  1126   0.570E-04
 153 F= -.65709675E+03 E0= -.65709675E+03  d E =-.962176E-32
 Finite differences progress:
  Degree of freedom:  76/153
  Displacement:        2/  2
  Total:             152/306
 bond charge predicted
       N       E                     dE             d eps       ncg     rms          rms(c)
DAV:   1    -0.649741429234E+03    0.17502E-02   -0.15307E-01  1888   0.645E-01    0.131E-01
RMM:   2    -0.649741374674E+03    0.54559E-04   -0.86111E-04  1778   0.505E-02    0.745E-02
RMM:   3    -0.649741363251E+03    0.11423E-04   -0.21776E-04  1769   0.192E-02    0.143E-02
RMM:   4    -0.649741360299E+03    0.29520E-05   -0.96795E-06  1730   0.532E-03    0.432E-03
RMM:   5    -0.649741360436E+03   -0.13667E-06   -0.39134E-06  1664   0.259E-03    0.201E-03
RMM:   6    -0.649741360410E+03    0.25939E-07   -0.97068E-07  1455   0.138E-03
 154 F= -.65709501E+03 E0= -.65709501E+03  d E =-.116529E-31
 Finite differences progress:
  Degree of freedom:  77/153
  Displacement:        1/  2
  Total:             153/306
 bond charge predicted
       N       E                     dE             d eps       ncg     rms          rms(c)
DAV:   1    -0.649742823670E+03   -0.14632E-02   -0.28093E-01  2048   0.889E-01    0.288E-01
RMM:   2    -0.649741758127E+03    0.10655E-02   -0.40010E-03  1783   0.103E-01    0.149E-01
RMM:   3    -0.649741581699E+03    0.17643E-03   -0.14631E-03  1777   0.461E-02    0.437E-02
RMM:   4    -0.649741548234E+03    0.33466E-04   -0.72759E-05  1758   0.136E-02    0.127E-02
RMM:   5    -0.649741549215E+03   -0.98157E-06   -0.20404E-05  1729   0.607E-03    0.529E-03
RMM:   6    -0.649741549340E+03   -0.12464E-06   -0.87844E-06  1695   0.388E-03    0.415E-03
RMM:   7    -0.649741548626E+03    0.71421E-06   -0.16132E-06  1524   0.185E-03    0.878E-04
RMM:   8    -0.649741548662E+03   -0.36056E-07   -0.45556E-07  1309   0.961E-04
 155 F= -.65709489E+03 E0= -.65709489E+03  d E =-.817597E-36
 Finite differences progress:
  Degree of freedom:  77/153
  Displacement:        2/  2
  Total:             154/306
 bond charge predicted
       N       E                     dE             d eps       ncg     rms          rms(c)
DAV:   1    -0.649743510902E+03   -0.19623E-02   -0.15567E-01  1888   0.655E-01    0.144E-01
RMM:   2    -0.649743401093E+03    0.10981E-03   -0.10297E-03  1776   0.544E-02    0.804E-02
RMM:   3    -0.649743379813E+03    0.21280E-04   -0.27296E-04  1772   0.212E-02    0.174E-02
RMM:   4    -0.649743375823E+03    0.39897E-05   -0.15002E-05  1737   0.637E-03    0.401E-03
RMM:   5    -0.649743376057E+03   -0.23373E-06   -0.31419E-06  1650   0.249E-03    0.206E-03
RMM:   6    -0.649743376047E+03    0.96552E-08   -0.97545E-07  1469   0.143E-03
 156 F= -.65709685E+03 E0= -.65709685E+03  d E =-.892915E-33
 Finite differences progress:
  Degree of freedom:  78/153
  Displacement:        1/  2
  Total:             155/306
 bond charge predicted
       N       E                     dE             d eps       ncg     rms          rms(c)
DAV:   1    -0.649743530888E+03   -0.15483E-03   -0.27340E-01  1824   0.851E-01    0.189E-01
RMM:   2    -0.649743372727E+03    0.15816E-03   -0.15664E-03  1783   0.661E-02    0.107E-01
RMM:   3    -0.649743342406E+03    0.30322E-04   -0.44532E-04  1778   0.279E-02    0.199E-02
RMM:   4    -0.649743336585E+03    0.58202E-05   -0.21136E-05  1740   0.754E-03    0.538E-03
RMM:   5    -0.649743336874E+03   -0.28810E-06   -0.55461E-06  1685   0.319E-03    0.255E-03
RMM:   6    -0.649743336858E+03    0.15978E-07   -0.14694E-06  1541   0.174E-03    0.163E-03
RMM:   7    -0.649743336772E+03    0.86038E-07   -0.25158E-07  1242   0.801E-04
 157 F= -.65709684E+03 E0= -.65709684E+03  d E =-.375774E-33
 Finite differences progress:
  Degree of freedom:  78/153
  Displacement:        2/  2
  Total:             156/306
 bond charge predicted
       N       E                     dE             d eps       ncg     rms          rms(c)
DAV:   1    -0.649742818168E+03    0.51869E-03   -0.15440E-01  1920   0.674E-01    0.159E-01
RMM:   2    -0.649742571839E+03    0.24633E-03   -0.14247E-03  1776   0.617E-02    0.841E-02
RMM:   3    -0.649742547765E+03    0.24074E-04   -0.42162E-04  1769   0.252E-02    0.255E-02
RMM:   4    -0.649742538269E+03    0.94961E-05   -0.27534E-05  1741   0.825E-03    0.658E-03
RMM:   5    -0.649742539002E+03   -0.73362E-06   -0.56058E-06  1682   0.327E-03    0.280E-03
RMM:   6    -0.649742539018E+03   -0.16134E-07   -0.21649E-06  1592   0.195E-03    0.187E-03
RMM:   7    -0.649742538878E+03    0.14079E-06   -0.30827E-07  1244   0.883E-04    0.438E-04
RMM:   8    -0.649742538889E+03   -0.11169E-07   -0.10800E-07  1089   0.520E-04
 158 F= -.65709594E+03 E0= -.65709594E+03  d E =-.333786E-33
 Finite differences progress:
  Degree of freedom:  79/153
  Displacement:        1/  2
  Total:             157/306
 bond charge predicted
       N       E                     dE             d eps       ncg     rms          rms(c)
DAV:   1    -0.649743227558E+03   -0.68868E-03   -0.27222E-01  1920   0.855E-01    0.249E-01
RMM:   2    -0.649742528042E+03    0.69952E-03   -0.28480E-03  1783   0.864E-02    0.131E-01
RMM:   3    -0.649742412884E+03    0.11516E-03   -0.89633E-04  1774   0.370E-02    0.364E-02
RMM:   4    -0.649742393900E+03    0.18983E-04   -0.56380E-05  1745   0.116E-02    0.796E-03
RMM:   5    -0.649742394660E+03   -0.75926E-06   -0.79188E-06  1715   0.410E-03    0.376E-03
RMM:   6    -0.649742394671E+03   -0.10990E-07   -0.40622E-06  1658   0.264E-03    0.289E-03
RMM:   7    -0.649742394344E+03    0.32701E-06   -0.82631E-07  1404   0.128E-03    0.542E-04
RMM:   8    -0.649742394357E+03   -0.13271E-07   -0.21625E-07  1192   0.731E-04
 159 F= -.65709597E+03 E0= -.65709597E+03  d E =-.914325E-33
 Finite differences progress:
  Degree of freedom:  79/153
  Displacement:        2/  2
  Total:             158/306
 bond charge predicted
       N       E                     dE             d eps       ncg     rms          rms(c)
DAV:   1    -0.649743059086E+03   -0.66474E-03   -0.15903E-01  2048   0.673E-01    0.226E-01
RMM:   2    -0.649742323652E+03    0.73543E-03   -0.24553E-03  1777   0.809E-02    0.114E-01
RMM:   3    -0.649742206028E+03    0.11762E-03   -0.87094E-04  1766   0.355E-02    0.344E-02
RMM:   4    -0.649742184928E+03    0.21101E-04   -0.48869E-05  1746   0.107E-02    0.893E-03
RMM:   5    -0.649742185448E+03   -0.52059E-06   -0.89746E-06  1708   0.428E-03    0.380E-03
RMM:   6    -0.649742185531E+03   -0.83204E-07   -0.46049E-06  1650   0.278E-03    0.306E-03
RMM:   7    -0.649742185136E+03    0.39498E-06   -0.88159E-07  1405   0.135E-03    0.594E-04
RMM:   8    -0.649742185159E+03   -0.22428E-07   -0.22347E-07  1179   0.734E-04
 160 F= -.65709561E+03 E0= -.65709561E+03  d E =-.776481E-34
 Finite differences progress:
  Degree of freedom:  80/153
  Displacement:        1/  2
  Total:             159/306
 bond charge predicted
       N       E                     dE             d eps       ncg     rms          rms(c)
DAV:   1    -0.649743086578E+03   -0.90144E-03   -0.27739E-01  2048   0.866E-01    0.263E-01
RMM:   2    -0.649742261094E+03    0.82548E-03   -0.31445E-03  1782   0.907E-02    0.137E-01
RMM:   3    -0.649742132419E+03    0.12868E-03   -0.10629E-03  1776   0.393E-02    0.398E-02
RMM:   4    -0.649742108924E+03    0.23494E-04   -0.66278E-05  1756   0.125E-02    0.880E-03
RMM:   5    -0.649742109744E+03   -0.81957E-06   -0.91430E-06  1722   0.451E-03    0.409E-03
RMM:   6    -0.649742109753E+03   -0.92732E-08   -0.51261E-06  1686   0.294E-03    0.332E-03
RMM:   7    -0.649742109312E+03    0.44160E-06   -0.11598E-06  1462   0.147E-03    0.586E-04
RMM:   8    -0.649742109317E+03   -0.58571E-08   -0.23610E-07  1228   0.800E-04
 161 F= -.65709566E+03 E0= -.65709566E+03  d E =-.227764E-32
 Finite differences progress:
  Degree of freedom:  80/153
  Displacement:        2/  2
  Total:             160/306
 bond charge predicted
       N       E                     dE             d eps       ncg     rms          rms(c)
DAV:   1    -0.649743909512E+03   -0.18002E-02   -0.15699E-01  1984   0.651E-01    0.179E-01
RMM:   2    -0.649743553670E+03    0.35584E-03   -0.14858E-03  1773   0.636E-02    0.937E-02
RMM:   3    -0.649743495884E+03    0.57786E-04   -0.49193E-04  1765   0.272E-02    0.260E-02
RMM:   4    -0.649743485382E+03    0.10502E-04   -0.30382E-05  1740   0.838E-03    0.580E-03
RMM:   5    -0.649743485881E+03   -0.49865E-06   -0.43234E-06  1692   0.309E-03    0.277E-03
RMM:   6    -0.649743485970E+03   -0.88770E-07   -0.21386E-06  1579   0.191E-03    0.208E-03
RMM:   7    -0.649743485795E+03    0.17437E-06   -0.41287E-07  1279   0.919E-04    0.437E-04
RMM:   8    -0.649743485814E+03   -0.18888E-07   -0.14815E-07  1129   0.597E-04
 162 F= -.65709698E+03 E0= -.65709698E+03  d E =-.376775E-33
 Finite differences progress:
  Degree of freedom:  81/153
  Displacement:        1/  2
  Total:             161/306
 bond charge predicted
       N       E                     dE             d eps       ncg     rms          rms(c)
DAV:   1    -0.649743629401E+03   -0.14361E-03   -0.27306E-01  1856   0.834E-01    0.183E-01
RMM:   2    -0.649743504830E+03    0.12457E-03   -0.13171E-03  1779   0.604E-02    0.105E-01
RMM:   3    -0.649743480225E+03    0.24605E-04   -0.36320E-04  1776   0.256E-02    0.170E-02
RMM:   4    -0.649743476331E+03    0.38935E-05   -0.17116E-05  1739   0.670E-03    0.431E-03
RMM:   5    -0.649743476500E+03   -0.16835E-06   -0.34259E-06  1668   0.263E-03    0.220E-03
RMM:   6    -0.649743476468E+03    0.31563E-07   -0.75492E-07  1433   0.133E-03
 163 F= -.65709696E+03 E0= -.65709696E+03  d E =-.821169E-33
 Finite differences progress:
  Degree of freedom:  81/153
  Displacement:        2/  2
  Total:             162/306
 bond charge predicted
       N       E                     dE             d eps       ncg     rms          rms(c)
DAV:   1    -0.649742672879E+03    0.80362E-03   -0.15536E-01  1920   0.660E-01    0.151E-01
RMM:   2    -0.649742495931E+03    0.17695E-03   -0.12839E-03  1774   0.602E-02    0.826E-02
RMM:   3    -0.649742464869E+03    0.31062E-04   -0.35943E-04  1766   0.239E-02    0.213E-02
RMM:   4    -0.649742457733E+03    0.71355E-05   -0.20378E-05  1738   0.743E-03    0.562E-03
RMM:   5    -0.649742458185E+03   -0.45186E-06   -0.53327E-06  1674   0.308E-03    0.260E-03
RMM:   6    -0.649742458113E+03    0.72570E-07   -0.13316E-06  1507   0.163E-03    0.139E-03
RMM:   7    -0.649742458058E+03    0.55028E-07   -0.13861E-07  1162   0.698E-04
 164 F= -.65709599E+03 E0= -.65709599E+03  d E =-.736517E-33
 Finite differences progress:
  Degree of freedom:  82/153
  Displacement:        1/  2
  Total:             163/306
 bond charge predicted
       N       E                     dE             d eps       ncg     rms          rms(c)
DAV:   1    -0.649743301439E+03   -0.84333E-03   -0.27639E-01  1984   0.841E-01    0.246E-01
RMM:   2    -0.649742647241E+03    0.65420E-03   -0.27299E-03  1780   0.834E-02    0.130E-01
RMM:   3    -0.649742540721E+03    0.10652E-03   -0.91328E-04  1774   0.368E-02    0.350E-02
RMM:   4    -0.649742522308E+03    0.18413E-04   -0.50409E-05  1749   0.111E-02    0.840E-03
RMM:   5    -0.649742523167E+03   -0.85880E-06   -0.10267E-05  1713   0.434E-03    0.388E-03
RMM:   6    -0.649742523335E+03   -0.16799E-06   -0.45982E-06  1662   0.280E-03    0.306E-03
RMM:   7    -0.649742522952E+03    0.38317E-06   -0.81133E-07  1390   0.131E-03    0.696E-04
RMM:   8    -0.649742522973E+03   -0.20882E-07   -0.34335E-07  1236   0.814E-04
 165 F= -.65709597E+03 E0= -.65709597E+03  d E =-.427047E-33
 Finite differences progress:
  Degree of freedom:  82/153
  Displacement:        2/  2
  Total:             164/306
 bond charge predicted
       N       E                     dE             d eps       ncg     rms          rms(c)
DAV:   1    -0.649742900233E+03   -0.37728E-03   -0.16166E-01  2080   0.667E-01    0.223E-01
RMM:   2    -0.649742196405E+03    0.70383E-03   -0.24668E-03  1774   0.800E-02    0.113E-01
RMM:   3    -0.649742083109E+03    0.11330E-03   -0.88726E-04  1766   0.351E-02    0.340E-02
RMM:   4    -0.649742062247E+03    0.20861E-04   -0.48789E-05  1736   0.107E-02    0.919E-03
RMM:   5    -0.649742062757E+03   -0.50984E-06   -0.92459E-06  1702   0.427E-03    0.382E-03
RMM:   6    -0.649742062761E+03   -0.42164E-08   -0.50171E-06  1654   0.285E-03    0.323E-03
RMM:   7    -0.649742062329E+03    0.43236E-06   -0.92021E-07  1389   0.137E-03    0.644E-04
RMM:   8    -0.649742062332E+03   -0.27758E-08   -0.24709E-07  1187   0.746E-04
 166 F= -.65709564E+03 E0= -.65709564E+03  d E =-.818340E-33
 Finite differences progress:
  Degree of freedom:  83/153
  Displacement:        1/  2
  Total:             165/306
 bond charge predicted
       N       E                     dE             d eps       ncg     rms          rms(c)
DAV:   1    -0.649743102304E+03   -0.10400E-02   -0.28114E-01  2016   0.855E-01    0.261E-01
RMM:   2    -0.649742323759E+03    0.77854E-03   -0.31417E-03  1785   0.909E-02    0.137E-01
RMM:   3    -0.649742199179E+03    0.12458E-03   -0.11239E-03  1774   0.402E-02    0.385E-02
RMM:   4    -0.649742175235E+03    0.23944E-04   -0.57030E-05  1750   0.121E-02    0.105E-02
RMM:   5    -0.649742176156E+03   -0.92075E-06   -0.15641E-05  1726   0.522E-03    0.459E-03
RMM:   6    -0.649742176151E+03    0.51587E-08   -0.60914E-06  1678   0.322E-03    0.334E-03
RMM:   7    -0.649742175702E+03    0.44870E-06   -0.84145E-07  1410   0.143E-03    0.996E-04
RMM:   8    -0.649742175719E+03   -0.16880E-07   -0.57762E-07  1315   0.958E-04
 167 F= -.65709558E+03 E0= -.65709558E+03  d E =-.381842E-33
 Finite differences progress:
  Degree of freedom:  83/153
  Displacement:        2/  2
  Total:             166/306
 bond charge predicted
       N       E                     dE             d eps       ncg     rms          rms(c)
DAV:   1    -0.649743875801E+03   -0.17001E-02   -0.15835E-01  2048   0.654E-01    0.182E-01
RMM:   2    -0.649743510627E+03    0.36517E-03   -0.16448E-03  1779   0.671E-02    0.955E-02
RMM:   3    -0.649743452550E+03    0.58078E-04   -0.52127E-04  1772   0.277E-02    0.268E-02
RMM:   4    -0.649743442235E+03    0.10315E-04   -0.30635E-05  1737   0.873E-03    0.604E-03
RMM:   5    -0.649743442660E+03   -0.42507E-06   -0.48160E-06  1679   0.317E-03    0.281E-03
RMM:   6    -0.649743442630E+03    0.30268E-07   -0.21790E-06  1581   0.195E-03    0.207E-03
RMM:   7    -0.649743442461E+03    0.16886E-06   -0.35552E-07  1268   0.893E-04    0.509E-04
RMM:   8    -0.649743442469E+03   -0.82000E-08   -0.20343E-07  1143   0.628E-04
 168 F= -.65709692E+03 E0= -.65709692E+03  d E =-.515195E-33
 Finite differences progress:
  Degree of freedom:  84/153
  Displacement:        1/  2
  Total:             167/306
 bond charge predicted
       N       E                     dE             d eps       ncg     rms          rms(c)
DAV:   1    -0.649743569504E+03   -0.12704E-03   -0.27117E-01  1888   0.827E-01    0.184E-01
RMM:   2    -0.649743456794E+03    0.11271E-03   -0.13728E-03  1780   0.625E-02    0.105E-01
RMM:   3    -0.649743435753E+03    0.21041E-04   -0.38521E-04  1782   0.264E-02    0.162E-02
RMM:   4    -0.649743430992E+03    0.47609E-05   -0.15493E-05  1737   0.658E-03    0.507E-03
RMM:   5    -0.649743431101E+03   -0.10909E-06   -0.52229E-06  1683   0.300E-03    0.241E-03
RMM:   6    -0.649743431121E+03   -0.20293E-07   -0.11168E-06  1478   0.151E-03    0.136E-03
RMM:   7    -0.649743431075E+03    0.46730E-07   -0.17078E-07  1205   0.725E-04
 169 F= -.65709693E+03 E0= -.65709693E+03  d E =-.592050E-33
 Finite differences progress:
  Degree of freedom:  84/153
  Displacement:        2/  2
  Total:             168/306
 bond charge predicted
       N       E                     dE             d eps       ncg     rms          rms(c)
DAV:   1    -0.649743297043E+03    0.13408E-03   -0.15347E-01  1920   0.667E-01    0.136E-01
RMM:   2    -0.649743205809E+03    0.91234E-04   -0.10141E-03  1777   0.525E-02    0.757E-02
RMM:   3    -0.649743200884E+03    0.49252E-05   -0.26292E-04  1766   0.205E-02    0.186E-02
RMM:   4    -0.649743195893E+03    0.49913E-05   -0.18336E-05  1731   0.659E-03    0.398E-03
RMM:   5    -0.649743196268E+03   -0.37520E-06   -0.29244E-06  1629   0.243E-03    0.197E-03
RMM:   6    -0.649743196267E+03    0.13424E-08   -0.12648E-06  1469   0.146E-03    0.156E-03
RMM:   7    -0.649743196175E+03    0.92001E-07   -0.22498E-07  1212   0.715E-04
 170 F= -.65709673E+03 E0= -.65709673E+03  d E =-.662191E-32
 Finite differences progress:
  Degree of freedom:  85/153
  Displacement:        1/  2
  Total:             169/306
 bond charge predicted
       N       E                     dE             d eps       ncg     rms          rms(c)
DAV:   1    -0.649743604606E+03   -0.40834E-03   -0.27510E-01  1824   0.845E-01    0.202E-01
RMM:   2    -0.649743343630E+03    0.26098E-03   -0.16946E-03  1769   0.682E-02    0.112E-01
RMM:   3    -0.649743303186E+03    0.40444E-04   -0.55780E-04  1770   0.297E-02    0.238E-02
RMM:   4    -0.649743293812E+03    0.93739E-05   -0.29502E-05  1741   0.847E-03    0.577E-03
RMM:   5    -0.649743294322E+03   -0.51049E-06   -0.59957E-06  1688   0.330E-03    0.285E-03
RMM:   6    -0.649743294518E+03   -0.19602E-06   -0.28660E-06  1615   0.220E-03    0.255E-03
RMM:   7    -0.649743294239E+03    0.27912E-06   -0.68847E-07  1364   0.112E-03    0.445E-04
RMM:   8    -0.649743294256E+03   -0.16444E-07   -0.13824E-07  1131   0.626E-04
 171 F= -.65709674E+03 E0= -.65709674E+03  d E =-.456681E-34
 Finite differences progress:
  Degree of freedom:  85/153
  Displacement:        2/  2
  Total:             170/306
 bond charge predicted
       N       E                     dE             d eps       ncg     rms          rms(c)
DAV:   1    -0.649741516700E+03    0.17775E-02   -0.15583E-01  1920   0.650E-01    0.138E-01
RMM:   2    -0.649741446178E+03    0.70521E-04   -0.88876E-04  1759   0.508E-02    0.787E-02
RMM:   3    -0.649741432516E+03    0.13662E-04   -0.25230E-04  1761   0.205E-02    0.147E-02
RMM:   4    -0.649741428242E+03    0.42739E-05   -0.10179E-05  1726   0.540E-03    0.498E-03
RMM:   5    -0.649741428353E+03   -0.11037E-06   -0.54611E-06  1670   0.290E-03    0.228E-03
RMM:   6    -0.649741428425E+03   -0.72916E-07   -0.18683E-06  1540   0.173E-03    0.203E-03
RMM:   7    -0.649741428257E+03    0.16846E-06   -0.39693E-07  1288   0.920E-04    0.483E-04
RMM:   8    -0.649741428267E+03   -0.10117E-07   -0.15364E-07  1134   0.583E-04
 172 F= -.65709485E+03 E0= -.65709485E+03  d E =-.619324E-36
 Finite differences progress:
  Degree of freedom:  86/153
  Displacement:        1/  2
  Total:             171/306
 bond charge predicted
       N       E                     dE             d eps       ncg     rms          rms(c)
DAV:   1    -0.649742767931E+03   -0.13397E-02   -0.28065E-01  2080   0.889E-01    0.292E-01
RMM:   2    -0.649741623217E+03    0.11447E-02   -0.39651E-03  1777   0.102E-01    0.150E-01
RMM:   3    -0.649741443259E+03    0.17996E-03   -0.15094E-03  1771   0.458E-02    0.444E-02
RMM:   4    -0.649741407794E+03    0.35465E-04   -0.80488E-05  1750   0.141E-02    0.125E-02
RMM:   5    -0.649741408767E+03   -0.97241E-06   -0.19432E-05  1735   0.594E-03    0.534E-03
RMM:   6    -0.649741408833E+03   -0.65938E-07   -0.10108E-05  1701   0.403E-03    0.461E-03
RMM:   7    -0.649741407948E+03    0.88496E-06   -0.21196E-06  1547   0.202E-03    0.793E-04
RMM:   8    -0.649741407963E+03   -0.14872E-07   -0.42560E-07  1294   0.995E-04
 173 F= -.65709497E+03 E0= -.65709497E+03  d E =-.146960E-31
 Finite differences progress:
  Degree of freedom:  86/153
  Displacement:        2/  2
  Total:             172/306
 bond charge predicted
       N       E                     dE             d eps       ncg     rms          rms(c)
DAV:   1    -0.649743586379E+03   -0.21784E-02   -0.15372E-01  1920   0.645E-01    0.139E-01
RMM:   2    -0.649743487321E+03    0.99058E-04   -0.93496E-04  1763   0.516E-02    0.777E-02
RMM:   3    -0.649743468125E+03    0.19197E-04   -0.26408E-04  1761   0.205E-02    0.165E-02
RMM:   4    -0.649743463463E+03    0.46618E-05   -0.13797E-05  1737   0.600E-03    0.420E-03
RMM:   5    -0.649743463655E+03   -0.19195E-06   -0.35067E-06  1642   0.251E-03    0.209E-03
RMM:   6    -0.649743463738E+03   -0.82786E-07   -0.15572E-06  1533   0.165E-03    0.192E-03
RMM:   7    -0.649743463576E+03    0.16204E-06   -0.35748E-07  1262   0.859E-04    0.403E-04
RMM:   8    -0.649743463583E+03   -0.71632E-08   -0.12697E-07  1119   0.567E-04
 174 F= -.65709690E+03 E0= -.65709690E+03  d E =-.855676E-33
 Finite differences progress:
  Degree of freedom:  87/153
  Displacement:        1/  2
  Total:             173/306
 bond charge predicted
       N       E                     dE             d eps       ncg     rms          rms(c)
DAV:   1    -0.649743558456E+03   -0.94881E-04   -0.27415E-01  1824   0.839E-01    0.189E-01
RMM:   2    -0.649743396139E+03    0.16232E-03   -0.14249E-03  1770   0.625E-02    0.107E-01
RMM:   3    -0.649743366721E+03    0.29418E-04   -0.44103E-04  1770   0.275E-02    0.192E-02
RMM:   4    -0.649743360412E+03    0.63087E-05   -0.21337E-05  1740   0.753E-03    0.497E-03
RMM:   5    -0.649743360711E+03   -0.29929E-06   -0.50964E-06  1673   0.301E-03    0.254E-03
RMM:   6    -0.649743360856E+03   -0.14511E-06   -0.19624E-06  1566   0.187E-03    0.205E-03
RMM:   7    -0.649743360681E+03    0.17518E-06   -0.44149E-07  1303   0.950E-04    0.424E-04
RMM:   8    -0.649743360696E+03   -0.15229E-07   -0.15998E-07  1139   0.602E-04
 175 F= -.65709690E+03 E0= -.65709690E+03  d E =-.369700E-33
 Finite differences progress:
  Degree of freedom:  87/153
  Displacement:        2/  2
  Total:             174/306
 bond charge predicted
       N       E                     dE             d eps       ncg     rms          rms(c)
DAV:   1    -0.649742403338E+03    0.95734E-03   -0.15612E-01  1984   0.714E-01    0.153E-01
RMM:   2    -0.649742250413E+03    0.15292E-03   -0.12925E-03  1779   0.667E-02    0.857E-02
RMM:   3    -0.649742211522E+03    0.38892E-04   -0.41138E-04  1775   0.276E-02    0.192E-02
RMM:   4    -0.649742204871E+03    0.66508E-05   -0.14586E-05  1741   0.737E-03    0.803E-03
RMM:   5    -0.649742205012E+03   -0.14125E-06   -0.12336E-05  1716   0.444E-03    0.347E-03
RMM:   6    -0.649742204688E+03    0.32414E-06   -0.15857E-06  1560   0.185E-03    0.127E-03
RMM:   7    -0.649742204694E+03   -0.62828E-08   -0.21462E-07  1229   0.915E-04
 176 F= -.65709568E+03 E0= -.65709568E+03  d E =-.368740E-33
 Finite differences progress:
  Degree of freedom:  88/153
  Displacement:        1/  2
  Total:             175/306
 bond charge predicted
       N       E                     dE             d eps       ncg     rms          rms(c)
DAV:   1    -0.649742933687E+03   -0.72900E-03   -0.27534E-01  1952   0.917E-01    0.243E-01
RMM:   2    -0.649742338988E+03    0.59470E-03   -0.26823E-03  1785   0.940E-02    0.131E-01
RMM:   3    -0.649742222457E+03    0.11653E-03   -0.99563E-04  1785   0.413E-02    0.324E-02
RMM:   4    -0.649742206271E+03    0.16186E-04   -0.37002E-05  1759   0.114E-02    0.118E-02
RMM:   5    -0.649742206453E+03   -0.18150E-06   -0.21548E-05  1737   0.607E-03    0.472E-03
RMM:   6    -0.649742205986E+03    0.46669E-06   -0.37078E-06  1660   0.286E-03    0.218E-03
RMM:   7    -0.649742205876E+03    0.11033E-06   -0.34834E-07  1325   0.123E-03    0.112E-03
RMM:   8    -0.649742205855E+03    0.20453E-07   -0.40813E-07  1329   0.834E-04
 177 F= -.65709571E+03 E0= -.65709571E+03  d E =-.683699E-33
 Finite differences progress:
  Degree of freedom:  88/153
  Displacement:        2/  2
  Total:             176/306
 bond charge predicted
       N       E                     dE             d eps       ncg     rms          rms(c)
DAV:   1    -0.649742943654E+03   -0.73778E-03   -0.16294E-01  2016   0.721E-01    0.204E-01
RMM:   2    -0.649742459444E+03    0.48421E-03   -0.20571E-03  1786   0.825E-02    0.108E-01
RMM:   3    -0.649742368416E+03    0.91028E-04   -0.78534E-04  1781   0.362E-02    0.295E-02
RMM:   4    -0.649742353668E+03    0.14748E-04   -0.27774E-05  1756   0.101E-02    0.119E-02
RMM:   5    -0.649742353615E+03    0.52743E-07   -0.20976E-05  1736   0.595E-03    0.465E-03
RMM:   6    -0.649742353051E+03    0.56427E-06   -0.26642E-06  1628   0.252E-03    0.157E-03
RMM:   7    -0.649742353085E+03   -0.34303E-07   -0.43075E-07  1355   0.123E-03
 178 F= -.65709574E+03 E0= -.65709574E+03  d E =-.242835E-33
 Finite differences progress:
  Degree of freedom:  89/153
  Displacement:        1/  2
  Total:             177/306
 bond charge predicted
       N       E                     dE             d eps       ncg     rms          rms(c)
DAV:   1    -0.649742707987E+03   -0.35494E-03   -0.27650E-01  1984   0.919E-01    0.232E-01
RMM:   2    -0.649742283024E+03    0.42496E-03   -0.25115E-03  1787   0.911E-02    0.128E-01
RMM:   3    -0.649742198485E+03    0.84539E-04   -0.84260E-04  1787   0.382E-02    0.319E-02
RMM:   4    -0.649742183601E+03    0.14884E-04   -0.32589E-05  1764   0.110E-02    0.122E-02
RMM:   5    -0.649742183496E+03    0.10462E-06   -0.22864E-05  1742   0.627E-03    0.458E-03
RMM:   6    -0.649742182900E+03    0.59611E-06   -0.16032E-06  1604   0.226E-03    0.173E-03
RMM:   7    -0.649742182999E+03   -0.99481E-07   -0.10598E-06  1549   0.154E-03    0.171E-03
RMM:   8    -0.649742182901E+03    0.98404E-07   -0.42239E-07  1338   0.916E-04
 179 F= -.65709578E+03 E0= -.65709578E+03  d E =-.308753E-32
 Finite differences progress:
  Degree of freedom:  89/153
  Displacement:        2/  2
  Total:             178/306
 bond charge predicted
       N       E                     dE             d eps       ncg     rms          rms(c)
DAV:   1    -0.649743652051E+03   -0.14691E-02   -0.15550E-01  1952   0.695E-01    0.162E-01
RMM:   2    -0.649743458767E+03    0.19328E-03   -0.12943E-03  1785   0.665E-02    0.888E-02
RMM:   3    -0.649743418758E+03    0.40009E-04   -0.39595E-04  1782   0.270E-02    0.218E-02
RMM:   4    -0.649743412473E+03    0.62857E-05   -0.15851E-05  1752   0.788E-03    0.839E-03
RMM:   5    -0.649743412359E+03    0.11339E-06   -0.10383E-05  1725   0.429E-03    0.299E-03
RMM:   6    -0.649743412153E+03    0.20656E-06   -0.57259E-07  1422   0.149E-03    0.128E-03
RMM:   7    -0.649743412226E+03   -0.72847E-07   -0.55082E-07  1436   0.110E-03
 180 F= -.65709691E+03 E0= -.65709691E+03  d E =-.101348E-32
 Finite differences progress:
  Degree of freedom:  90/153
  Displacement:        1/  2
  Total:             179/306
 bond charge predicted
       N       E                     dE             d eps       ncg     rms          rms(c)
DAV:   1    -0.649743471771E+03   -0.59618E-04   -0.26606E-01  1792   0.886E-01    0.180E-01
RMM:   2    -0.649743415270E+03    0.56500E-04   -0.14116E-03  1784   0.678E-02    0.104E-01
RMM:   3    -0.649743403461E+03    0.11810E-04   -0.33621E-04  1788   0.273E-02    0.152E-02
RMM:   4    -0.649743401613E+03    0.18481E-05   -0.12604E-05  1757   0.681E-03    0.621E-03
RMM:   5    -0.649743401448E+03    0.16471E-06   -0.59575E-06  1714   0.341E-03    0.224E-03
RMM:   6    -0.649743401379E+03    0.68612E-07   -0.26765E-07  1292   0.115E-03
 181 F= -.65709688E+03 E0= -.65709688E+03  d E =-.540316E-33
 Finite differences progress:
  Degree of freedom:  90/153
  Displacement:        2/  2
  Total:             180/306
 bond charge predicted
       N       E                     dE             d eps       ncg     rms          rms(c)
DAV:   1    -0.649743424275E+03   -0.22827E-04   -0.15054E-01  1824   0.706E-01    0.130E-01
RMM:   2    -0.649743387791E+03    0.36484E-04   -0.89374E-04  1782   0.545E-02    0.746E-02
RMM:   3    -0.649743386442E+03    0.13497E-05   -0.20822E-04  1779   0.209E-02    0.146E-02
RMM:   4    -0.649743382845E+03    0.35963E-05   -0.11282E-05  1750   0.606E-03    0.443E-03
RMM:   5    -0.649743383105E+03   -0.25997E-06   -0.41386E-06  1681   0.285E-03    0.197E-03
RMM:   6    -0.649743383044E+03    0.61485E-07   -0.33085E-07  1325   0.116E-03
 182 F= -.65709687E+03 E0= -.65709687E+03  d E =-.782603E-33
 Finite differences progress:
  Degree of freedom:  91/153
  Displacement:        1/  2
  Total:             181/306
 bond charge predicted
       N       E                     dE             d eps       ncg     rms          rms(c)
DAV:   1    -0.649743607605E+03   -0.22450E-03   -0.26684E-01  1856   0.887E-01    0.195E-01
RMM:   2    -0.649743415842E+03    0.19176E-03   -0.15432E-03  1779   0.722E-02    0.110E-01
RMM:   3    -0.649743376264E+03    0.39577E-04   -0.42695E-04  1778   0.293E-02    0.194E-02
RMM:   4    -0.649743371523E+03    0.47414E-05   -0.18531E-05  1746   0.783E-03    0.550E-03
RMM:   5    -0.649743371719E+03   -0.19651E-06   -0.56426E-06  1701   0.337E-03    0.251E-03
RMM:   6    -0.649743371640E+03    0.79795E-07   -0.90132E-07  1484   0.159E-03
 183 F= -.65709687E+03 E0= -.65709687E+03  d E =-.418947E-33
 Finite differences progress:
  Degree of freedom:  91/153
  Displacement:        2/  2
  Total:             182/306
 bond charge predicted
       N       E                     dE             d eps       ncg     rms          rms(c)
DAV:   1    -0.649741468974E+03    0.19027E-02   -0.15166E-01  1952   0.681E-01    0.140E-01
RMM:   2    -0.649741366445E+03    0.10253E-03   -0.95731E-04  1776   0.558E-02    0.786E-02
RMM:   3    -0.649741347188E+03    0.19256E-04   -0.24320E-04  1772   0.212E-02    0.169E-02
RMM:   4    -0.649741343332E+03    0.38568E-05   -0.13027E-05  1733   0.633E-03    0.414E-03
RMM:   5    -0.649741343526E+03   -0.19426E-06   -0.30748E-06  1658   0.253E-03    0.192E-03
RMM:   6    -0.649741343514E+03    0.12235E-07   -0.99886E-07  1519   0.153E-03
 184 F= -.65709490E+03 E0= -.65709490E+03  d E =-.496087E-33
 Finite differences progress:
  Degree of freedom:  92/153
  Displacement:        1/  2
  Total:             183/306
 bond charge predicted
       N       E                     dE             d eps       ncg     rms          rms(c)
DAV:   1    -0.649742715968E+03   -0.13724E-02   -0.28114E-01  2048   0.939E-01    0.295E-01
RMM:   2    -0.649741589325E+03    0.11266E-02   -0.40225E-03  1786   0.110E-01    0.154E-01
RMM:   3    -0.649741390483E+03    0.19884E-03   -0.14868E-03  1784   0.494E-02    0.435E-02
RMM:   4    -0.649741355586E+03    0.34897E-04   -0.68379E-05  1768   0.144E-02    0.138E-02
RMM:   5    -0.649741356162E+03   -0.57632E-06   -0.25405E-05  1736   0.682E-03    0.566E-03
RMM:   6    -0.649741355913E+03    0.24951E-06   -0.85626E-06  1700   0.422E-03    0.368E-03
RMM:   7    -0.649741355365E+03    0.54835E-06   -0.86492E-07  1474   0.174E-03    0.131E-03
RMM:   8    -0.649741355374E+03   -0.96006E-08   -0.89838E-07  1461   0.121E-03
 185 F= -.65709478E+03 E0= -.65709478E+03  d E =-.623126E-33
 Finite differences progress:
  Degree of freedom:  92/153
  Displacement:        2/  2
  Total:             184/306
 bond charge predicted
       N       E                     dE             d eps       ncg     rms          rms(c)
DAV:   1    -0.649743517537E+03   -0.21622E-02   -0.15568E-01  1952   0.689E-01    0.148E-01
RMM:   2    -0.649743395439E+03    0.12210E-03   -0.10055E-03  1772   0.578E-02    0.820E-02
RMM:   3    -0.649743371395E+03    0.24044E-04   -0.28490E-04  1773   0.228E-02    0.177E-02
RMM:   4    -0.649743366714E+03    0.46809E-05   -0.14797E-05  1739   0.678E-03    0.432E-03
RMM:   5    -0.649743366912E+03   -0.19723E-06   -0.36252E-06  1665   0.274E-03    0.217E-03
RMM:   6    -0.649743366903E+03    0.85129E-08   -0.13062E-06  1547   0.170E-03    0.162E-03
RMM:   7    -0.649743366809E+03    0.94427E-07   -0.19576E-07  1225   0.780E-04
 186 F= -.65709685E+03 E0= -.65709685E+03  d E =-.385008E-33
 Finite differences progress:
  Degree of freedom:  93/153
  Displacement:        1/  2
  Total:             185/306
 bond charge predicted
       N       E                     dE             d eps       ncg     rms          rms(c)
DAV:   1    -0.649743525504E+03   -0.15860E-03   -0.27139E-01  1856   0.886E-01    0.191E-01
RMM:   2    -0.649743367835E+03    0.15767E-03   -0.14773E-03  1772   0.685E-02    0.108E-01
RMM:   3    -0.649743340694E+03    0.27141E-04   -0.39856E-04  1769   0.277E-02    0.204E-02
RMM:   4    -0.649743335879E+03    0.48155E-05   -0.22751E-05  1748   0.807E-03    0.447E-03
RMM:   5    -0.649743336130E+03   -0.25091E-06   -0.36367E-06  1681   0.290E-03    0.230E-03
RMM:   6    -0.649743336113E+03    0.16567E-07   -0.99893E-07  1547   0.163E-03
 187 F= -.65709683E+03 E0= -.65709683E+03  d E =-.847567E-33
 Finite differences progress:
  Degree of freedom:  93/153
  Displacement:        2/  2
  Total:             186/306
 bond charge predicted
       N       E                     dE             d eps       ncg     rms          rms(c)
DAV:   1    -0.649741738618E+03    0.15975E-02   -0.15319E-01  1984   0.731E-01    0.160E-01
RMM:   2    -0.649741560926E+03    0.17769E-03   -0.15798E-03  1781   0.741E-02    0.886E-02
RMM:   3    -0.649741519210E+03    0.41716E-04   -0.21831E-04  1777   0.231E-02    0.274E-02
RMM:   4    -0.649741519106E+03    0.10424E-06   -0.21444E-05  1766   0.873E-03    0.599E-03
RMM:   5    -0.649741519166E+03   -0.59954E-07   -0.18312E-06  1685   0.265E-03    0.222E-03
RMM:   6    -0.649741519180E+03   -0.14490E-07   -0.45596E-07  1437   0.124E-03
 188 F= -.65709495E+03 E0= -.65709495E+03  d E =-.166385E-34
 Finite differences progress:
  Degree of freedom:  94/153
  Displacement:        1/  2
  Total:             187/306
 bond charge predicted
       N       E                     dE             d eps       ncg     rms          rms(c)
DAV:   1    -0.649742389217E+03   -0.87005E-03   -0.26747E-01  2016   0.838E-01    0.263E-01
RMM:   2    -0.649741591390E+03    0.79783E-03   -0.37294E-03  1788   0.102E-01    0.137E-01
RMM:   3    -0.649741468952E+03    0.12244E-03   -0.44688E-04  1790   0.317E-02    0.518E-02
RMM:   4    -0.649741463177E+03    0.57749E-05   -0.79045E-05  1771   0.149E-02    0.942E-03
RMM:   5    -0.649741463284E+03   -0.10743E-06   -0.48780E-06  1742   0.442E-03    0.367E-03
RMM:   6    -0.649741463208E+03    0.76489E-07   -0.11766E-06  1585   0.195E-03    0.130E-03
RMM:   7    -0.649741463194E+03    0.13155E-07   -0.14470E-07  1188   0.821E-04
 189 F= -.65709504E+03 E0= -.65709504E+03  d E =-.675965E-31
 Finite differences progress:
  Degree of freedom:  94/153
  Displacement:        2/  2
  Total:             188/306
 bond charge predicted
       N       E                     dE             d eps       ncg     rms          rms(c)
DAV:   1    -0.649743753060E+03   -0.22899E-02   -0.15123E-01  2048   0.643E-01    0.197E-01
RMM:   2    -0.649743287548E+03    0.46551E-03   -0.21492E-03  1786   0.792E-02    0.101E-01
RMM:   3    -0.649743219674E+03    0.67875E-04   -0.25308E-04  1797   0.245E-02    0.391E-02
RMM:   4    -0.649743216488E+03    0.31854E-05   -0.44645E-05  1775   0.116E-02    0.722E-03
RMM:   5    -0.649743216601E+03   -0.11319E-06   -0.27167E-06  1707   0.345E-03    0.275E-03
RMM:   6    -0.649743216588E+03    0.13573E-07   -0.66487E-07  1485   0.148E-03
 190 F= -.65709658E+03 E0= -.65709658E+03  d E =-.178619E-35
 Finite differences progress:
  Degree of freedom:  95/153
  Displacement:        1/  2
  Total:             189/306
 bond charge predicted
       N       E                     dE             d eps       ncg     rms          rms(c)
DAV:   1    -0.649743249001E+03   -0.32400E-04   -0.25519E-01  1920   0.808E-01    0.210E-01
RMM:   2    -0.649742951181E+03    0.29782E-03   -0.18278E-03  1786   0.758E-02    0.115E-01
RMM:   3    -0.649742908572E+03    0.42609E-04   -0.27014E-04  1783   0.250E-02    0.341E-02
RMM:   4    -0.649742913948E+03   -0.53761E-05   -0.32043E-05  1772   0.986E-03    0.679E-03
RMM:   5    -0.649742913851E+03    0.96952E-07   -0.26774E-06  1719   0.318E-03    0.240E-03
RMM:   6    -0.649742913884E+03   -0.33069E-07   -0.65200E-07  1502   0.145E-03
 191 F= -.65709654E+03 E0= -.65709654E+03  d E =-.147592E-31
 Finite differences progress:
  Degree of freedom:  95/153
  Displacement:        2/  2
  Total:             190/306
 bond charge predicted
       N       E                     dE             d eps       ncg     rms          rms(c)
DAV:   1    -0.649743600227E+03   -0.68638E-03   -0.14754E-01  1984   0.618E-01    0.159E-01
RMM:   2    -0.649743394850E+03    0.20538E-03   -0.13441E-03  1782   0.634E-02    0.856E-02
RMM:   3    -0.649743360744E+03    0.34106E-04   -0.17454E-04  1775   0.204E-02    0.285E-02
RMM:   4    -0.649743363257E+03   -0.25131E-05   -0.25253E-05  1771   0.863E-03    0.558E-03
RMM:   5    -0.649743363337E+03   -0.80003E-07   -0.16385E-06  1630   0.268E-03    0.210E-03
RMM:   6    -0.649743363370E+03   -0.33084E-07   -0.46060E-07  1402   0.124E-03
 192 F= -.65709685E+03 E0= -.65709685E+03  d E =-.413429E-34
 Finite differences progress:
  Degree of freedom:  96/153
  Displacement:        1/  2
  Total:             191/306
 bond charge predicted
       N       E                     dE             d eps       ncg     rms          rms(c)
DAV:   1    -0.649743566930E+03   -0.20359E-03   -0.25715E-01  1856   0.797E-01    0.195E-01
RMM:   2    -0.649743376763E+03    0.19017E-03   -0.16567E-03  1789   0.707E-02    0.109E-01
RMM:   3    -0.649743345910E+03    0.30853E-04   -0.26942E-04  1784   0.252E-02    0.276E-02
RMM:   4    -0.649743351696E+03   -0.57859E-05   -0.25286E-05  1775   0.890E-03    0.631E-03
RMM:   5    -0.649743351462E+03    0.23405E-06   -0.26178E-06  1726   0.310E-03    0.231E-03
RMM:   6    -0.649743351455E+03    0.70395E-08   -0.57786E-07  1476   0.139E-03
 193 F= -.65709685E+03 E0= -.65709685E+03  d E =-.102689E-31
 Finite differences progress:
  Degree of freedom:  96/153
  Displacement:        2/  2
  Total:             192/306
 bond charge predicted
       N       E                     dE             d eps       ncg     rms          rms(c)
DAV:   1    -0.649740857247E+03    0.24942E-02   -0.14910E-01  2016   0.685E-01    0.181E-01
RMM:   2    -0.649740470850E+03    0.38640E-03   -0.18695E-03  1784   0.769E-02    0.940E-02
RMM:   3    -0.649740416266E+03    0.54585E-04   -0.23961E-04  1779   0.235E-02    0.342E-02
RMM:   4    -0.649740412449E+03    0.38166E-05   -0.33758E-05  1772   0.101E-02    0.564E-03
RMM:   5    -0.649740412537E+03   -0.88090E-07   -0.15285E-06  1619   0.270E-03    0.267E-03
RMM:   6    -0.649740412469E+03    0.68092E-07   -0.86769E-07  1543   0.156E-03
 194 F= -.65709406E+03 E0= -.65709406E+03  d E =-.125613E-32
 Finite differences progress:
  Degree of freedom:  97/153
  Displacement:        1/  2
  Total:             193/306
 bond charge predicted
       N       E                     dE             d eps       ncg     rms          rms(c)
DAV:   1    -0.649742187880E+03   -0.17753E-02   -0.27223E-01  2048   0.900E-01    0.314E-01
RMM:   2    -0.649740723228E+03    0.14647E-02   -0.48734E-03  1788   0.117E-01    0.157E-01
RMM:   3    -0.649740522151E+03    0.20108E-03   -0.67367E-04  1777   0.375E-02    0.598E-02
RMM:   4    -0.649740503513E+03    0.18637E-04   -0.10069E-04  1768   0.166E-02    0.107E-02
RMM:   5    -0.649740503189E+03    0.32419E-06   -0.45679E-06  1709   0.448E-03    0.445E-03
RMM:   6    -0.649740503145E+03    0.43958E-07   -0.20130E-06  1637   0.235E-03    0.142E-03
RMM:   7    -0.649740503181E+03   -0.35434E-07   -0.16063E-07  1213   0.831E-04
 195 F= -.65709386E+03 E0= -.65709386E+03  d E =-.248634E-33
 Finite differences progress:
  Degree of freedom:  97/153
  Displacement:        2/  2
  Total:             194/306
 bond charge predicted
       N       E                     dE             d eps       ncg     rms          rms(c)
DAV:   1    -0.649744392057E+03   -0.38889E-02   -0.15182E-01  1952   0.670E-01    0.198E-01
RMM:   2    -0.649743877417E+03    0.51464E-03   -0.19062E-03  1782   0.741E-02    0.100E-01
RMM:   3    -0.649743806878E+03    0.70539E-04   -0.24688E-04  1765   0.231E-02    0.375E-02
RMM:   4    -0.649743802342E+03    0.45360E-05   -0.39111E-05  1760   0.104E-02    0.652E-03
RMM:   5    -0.649743802250E+03    0.92463E-07   -0.17967E-06  1626   0.285E-03    0.279E-03
RMM:   6    -0.649743802235E+03    0.15018E-07   -0.78934E-07  1508   0.152E-03
 196 F= -.65709731E+03 E0= -.65709731E+03  d E =-.551465E-33
 Finite differences progress:
  Degree of freedom:  98/153
  Displacement:        1/  2
  Total:             195/306
 bond charge predicted
       N       E                     dE             d eps       ncg     rms          rms(c)
DAV:   1    -0.649743916941E+03   -0.11469E-03   -0.25781E-01  1824   0.839E-01    0.179E-01
RMM:   2    -0.649743857507E+03    0.59434E-04   -0.98390E-04  1783   0.593E-02    0.103E-01
RMM:   3    -0.649743852622E+03    0.48845E-05   -0.22836E-04  1775   0.230E-02    0.127E-02
RMM:   4    -0.649743854301E+03   -0.16791E-05   -0.74863E-06  1763   0.538E-03    0.469E-03
RMM:   5    -0.649743854205E+03    0.96246E-07   -0.24007E-06  1713   0.255E-03    0.140E-03
RMM:   6    -0.649743854308E+03   -0.10294E-06   -0.20130E-07  1228   0.912E-04    0.638E-04
RMM:   7    -0.649743854352E+03   -0.44172E-07   -0.53563E-08  1135   0.485E-04
 197 F= -.65709733E+03 E0= -.65709733E+03  d E =-.718329E-33
 Finite differences progress:
  Degree of freedom:  98/153
  Displacement:        2/  2
  Total:             196/306
 bond charge predicted
       N       E                     dE             d eps       ncg     rms          rms(c)
DAV:   1    -0.649743725373E+03    0.12893E-03   -0.14861E-01  1824   0.639E-01    0.124E-01
RMM:   2    -0.649743715571E+03    0.98023E-05   -0.65241E-04  1781   0.469E-02    0.725E-02
RMM:   3    -0.649743711579E+03    0.39916E-05   -0.13841E-04  1770   0.182E-02    0.738E-03
RMM:   4    -0.649743711940E+03   -0.36049E-06   -0.41104E-06  1711   0.421E-03    0.337E-03
RMM:   5    -0.649743711846E+03    0.93714E-07   -0.13769E-06  1606   0.193E-03    0.108E-03
RMM:   6    -0.649743711877E+03   -0.30566E-07   -0.12755E-07  1171   0.758E-04
 198 F= -.65709714E+03 E0= -.65709714E+03  d E =-.630108E-33
 Finite differences progress:
  Degree of freedom:  99/153
  Displacement:        1/  2
  Total:             197/306
 bond charge predicted
       N       E                     dE             d eps       ncg     rms          rms(c)
DAV:   1    -0.649743658500E+03    0.53346E-04   -0.25974E-01  1856   0.836E-01    0.182E-01
RMM:   2    -0.649743578266E+03    0.80234E-04   -0.12665E-03  1780   0.632E-02    0.104E-01
RMM:   3    -0.649743567221E+03    0.11045E-04   -0.25901E-04  1774   0.244E-02    0.162E-02
RMM:   4    -0.649743568854E+03   -0.16337E-05   -0.11731E-05  1745   0.650E-03    0.471E-03
RMM:   5    -0.649743568688E+03    0.16673E-06   -0.22994E-06  1686   0.254E-03    0.167E-03
RMM:   6    -0.649743568720E+03   -0.31847E-07   -0.35880E-07  1370   0.114E-03
 199 F= -.65709712E+03 E0= -.65709712E+03  d E =-.603856E-33
 Finite differences progress:
  Degree of freedom:  99/153
  Displacement:        2/  2
  Total:             198/306
 bond charge predicted
       N       E                     dE             d eps       ncg     rms          rms(c)
DAV:   1    -0.649743483004E+03    0.85684E-04   -0.14679E-01  1856   0.653E-01    0.129E-01
RMM:   2    -0.649743449605E+03    0.33399E-04   -0.87897E-04  1776   0.531E-02    0.740E-02
RMM:   3    -0.649743442098E+03    0.75068E-05   -0.13812E-04  1767   0.183E-02    0.142E-02
RMM:   4    -0.649743443397E+03   -0.12985E-05   -0.78854E-06  1743   0.545E-03    0.334E-03
RMM:   5    -0.649743443317E+03    0.79563E-07   -0.10158E-06  1572   0.182E-03    0.151E-03
RMM:   6    -0.649743443333E+03   -0.15658E-07   -0.40322E-07  1377   0.108E-03
 200 F= -.65709699E+03 E0= -.65709699E+03  d E =-.201776E-33
 Finite differences progress:
  Degree of freedom: 100/153
  Displacement:        1/  2
  Total:             199/306
 bond charge predicted
       N       E                     dE             d eps       ncg     rms          rms(c)
DAV:   1    -0.649743709176E+03   -0.26586E-03   -0.25796E-01  1856   0.764E-01    0.183E-01
RMM:   2    -0.649743600781E+03    0.10839E-03   -0.13513E-03  1771   0.605E-02    0.104E-01
RMM:   3    -0.649743580854E+03    0.19928E-04   -0.25271E-04  1765   0.234E-02    0.192E-02
RMM:   4    -0.649743585237E+03   -0.43836E-05   -0.14018E-05  1755   0.680E-03    0.513E-03
RMM:   5    -0.649743585145E+03    0.91761E-07   -0.19196E-06  1634   0.243E-03    0.198E-03
RMM:   6    -0.649743585276E+03   -0.13045E-06   -0.46455E-07  1385   0.122E-03    0.589E-04
RMM:   7    -0.649743585308E+03   -0.31912E-07   -0.46833E-08  1134   0.492E-04
 201 F= -.65709702E+03 E0= -.65709702E+03  d E =-.172096E-32
 Finite differences progress:
  Degree of freedom: 100/153
  Displacement:        2/  2
  Total:             200/306
 bond charge predicted
       N       E                     dE             d eps       ncg     rms          rms(c)
DAV:   1    -0.649742864184E+03    0.72109E-03   -0.14765E-01  1952   0.597E-01    0.164E-01
RMM:   2    -0.649742602383E+03    0.26180E-03   -0.13553E-03  1773   0.593E-02    0.861E-02
RMM:   3    -0.649742564324E+03    0.38059E-04   -0.17033E-04  1761   0.189E-02    0.302E-02
RMM:   4    -0.649742565099E+03   -0.77476E-06   -0.25922E-05  1753   0.828E-03    0.528E-03
RMM:   5    -0.649742565145E+03   -0.46650E-07   -0.12582E-06  1557   0.229E-03    0.237E-03
RMM:   6    -0.649742565192E+03   -0.46297E-07   -0.61976E-07  1461   0.134E-03
 202 F= -.65709615E+03 E0= -.65709615E+03  d E =-.457187E-33
 Finite differences progress:
  Degree of freedom: 101/153
  Displacement:        1/  2
  Total:             201/306
 bond charge predicted
       N       E                     dE             d eps       ncg     rms          rms(c)
DAV:   1    -0.649743359884E+03   -0.79474E-03   -0.25900E-01  1920   0.789E-01    0.234E-01
RMM:   2    -0.649742813675E+03    0.54621E-03   -0.24379E-03  1777   0.787E-02    0.124E-01
RMM:   3    -0.649742741393E+03    0.72281E-04   -0.34609E-04  1765   0.263E-02    0.426E-02
RMM:   4    -0.649742742629E+03   -0.12359E-05   -0.46433E-05  1760   0.113E-02    0.756E-03
RMM:   5    -0.649742742560E+03    0.69522E-07   -0.22914E-06  1668   0.298E-03    0.328E-03
RMM:   6    -0.649742742641E+03   -0.81000E-07   -0.12405E-06  1585   0.181E-03    0.107E-03
RMM:   7    -0.649742742683E+03   -0.42437E-07   -0.95736E-08  1152   0.652E-04
 203 F= -.65709614E+03 E0= -.65709614E+03  d E =-.734345E-33
 Finite differences progress:
  Degree of freedom: 101/153
  Displacement:        2/  2
  Total:             202/306
 bond charge predicted
       N       E                     dE             d eps       ncg     rms          rms(c)
DAV:   1    -0.649742522592E+03    0.22005E-03   -0.15081E-01  2048   0.621E-01    0.218E-01
RMM:   2    -0.649741833970E+03    0.68862E-03   -0.25878E-03  1775   0.796E-02    0.108E-01
RMM:   3    -0.649741741653E+03    0.92317E-04   -0.30945E-04  1763   0.249E-02    0.429E-02
RMM:   4    -0.649741732415E+03    0.92384E-05   -0.51612E-05  1760   0.117E-02    0.736E-03
RMM:   5    -0.649741732309E+03    0.10596E-06   -0.22863E-06  1624   0.311E-03    0.323E-03
RMM:   6    -0.649741732281E+03    0.28107E-07   -0.10906E-06  1534   0.171E-03    0.105E-03
RMM:   7    -0.649741732252E+03    0.28816E-07   -0.86927E-08  1143   0.640E-04
 204 F= -.65709534E+03 E0= -.65709534E+03  d E =-.462018E-32
 Finite differences progress:
  Degree of freedom: 102/153
  Displacement:        1/  2
  Total:             203/306
 bond charge predicted
       N       E                     dE             d eps       ncg     rms          rms(c)
DAV:   1    -0.649742860449E+03   -0.11282E-02   -0.26276E-01  1952   0.802E-01    0.266E-01
RMM:   2    -0.649741986270E+03    0.87418E-03   -0.34730E-03  1780   0.920E-02    0.136E-01
RMM:   3    -0.649741870625E+03    0.11564E-03   -0.45831E-04  1777   0.303E-02    0.509E-02
RMM:   4    -0.649741865233E+03    0.53926E-05   -0.70227E-05  1769   0.138E-02    0.877E-03
RMM:   5    -0.649741865059E+03    0.17329E-06   -0.32571E-06  1698   0.366E-03    0.384E-03
RMM:   6    -0.649741865037E+03    0.22599E-07   -0.16472E-06  1616   0.208E-03    0.126E-03
RMM:   7    -0.649741865062E+03   -0.25469E-07   -0.14609E-07  1192   0.767E-04
 205 F= -.65709525E+03 E0= -.65709525E+03  d E =-.879082E-34
 Finite differences progress:
  Degree of freedom: 102/153
  Displacement:        2/  2
  Total:             204/306
 bond charge predicted
       N       E                     dE             d eps       ncg     rms          rms(c)
DAV:   1    -0.649743165001E+03   -0.13000E-02   -0.15078E-01  1920   0.724E-01    0.175E-01
RMM:   2    -0.649742857987E+03    0.30701E-03   -0.18530E-03  1791   0.793E-02    0.930E-02
RMM:   3    -0.649742803331E+03    0.54656E-04   -0.31955E-04  1785   0.273E-02    0.301E-02
RMM:   4    -0.649742799634E+03    0.36968E-05   -0.23801E-05  1779   0.993E-03    0.737E-03
RMM:   5    -0.649742799524E+03    0.10947E-06   -0.32936E-06  1737   0.314E-03    0.222E-03
RMM:   6    -0.649742799498E+03    0.25964E-07   -0.37415E-07  1395   0.132E-03
 206 F= -.65709624E+03 E0= -.65709624E+03  d E =-.578452E-33
 Finite differences progress:
  Degree of freedom: 103/153
  Displacement:        1/  2
  Total:             205/306
 bond charge predicted
       N       E                     dE             d eps       ncg     rms          rms(c)
DAV:   1    -0.649743349523E+03   -0.55000E-03   -0.26860E-01  1920   0.854E-01    0.230E-01
RMM:   2    -0.649742805061E+03    0.54446E-03   -0.26129E-03  1789   0.821E-02    0.122E-01
RMM:   3    -0.649742726477E+03    0.78583E-04   -0.79369E-04  1783   0.358E-02    0.340E-02
RMM:   4    -0.649742711181E+03    0.15296E-04   -0.51608E-05  1741   0.118E-02    0.695E-03
RMM:   5    -0.649742711832E+03   -0.65157E-06   -0.67021E-06  1716   0.394E-03    0.342E-03
RMM:   6    -0.649742711627E+03    0.20532E-06   -0.11653E-06  1538   0.178E-03    0.139E-03
RMM:   7    -0.649742711635E+03   -0.74542E-08   -0.23370E-07  1252   0.841E-04
 207 F= -.65709625E+03 E0= -.65709625E+03  d E =-.539939E-33
 Finite differences progress:
  Degree of freedom: 103/153
  Displacement:        2/  2
  Total:             206/306
 bond charge predicted
       N       E                     dE             d eps       ncg     rms          rms(c)
DAV:   1    -0.649743480253E+03   -0.76863E-03   -0.15201E-01  1856   0.639E-01    0.121E-01
RMM:   2    -0.649743464285E+03    0.15968E-04   -0.71236E-04  1780   0.456E-02    0.699E-02
RMM:   3    -0.649743462165E+03    0.21193E-05   -0.15652E-04  1771   0.175E-02    0.106E-02
RMM:   4    -0.649743460443E+03    0.17225E-05   -0.74006E-06  1697   0.471E-03    0.311E-03
RMM:   5    -0.649743460505E+03   -0.62566E-07   -0.20544E-06  1605   0.202E-03    0.148E-03
RMM:   6    -0.649743460498E+03    0.74288E-08   -0.29702E-07  1292   0.958E-04
 208 F= -.65709700E+03 E0= -.65709700E+03  d E =-.573685E-33
 Finite differences progress:
  Degree of freedom: 104/153
  Displacement:        1/  2
  Total:             207/306
 bond charge predicted
       N       E                     dE             d eps       ncg     rms          rms(c)
DAV:   1    -0.649743666808E+03   -0.20630E-03   -0.27239E-01  1920   0.838E-01    0.180E-01
RMM:   2    -0.649743568027E+03    0.98781E-04   -0.13324E-03  1786   0.628E-02    0.103E-01
RMM:   3    -0.649743554974E+03    0.13053E-04   -0.37931E-04  1787   0.265E-02    0.184E-02
RMM:   4    -0.649743549569E+03    0.54055E-05   -0.16051E-05  1730   0.716E-03    0.557E-03
RMM:   5    -0.649743549672E+03   -0.10340E-06   -0.65674E-06  1674   0.343E-03    0.258E-03
RMM:   6    -0.649743549555E+03    0.11730E-06   -0.50116E-07  1380   0.137E-03    0.117E-03
RMM:   7    -0.649743549588E+03   -0.33207E-07   -0.31218E-07  1304   0.909E-04
 209 F= -.65709699E+03 E0= -.65709699E+03  d E =-.626653E-33
 Finite differences progress:
  Degree of freedom: 104/153
  Displacement:        2/  2
  Total:             208/306
 bond charge predicted
       N       E                     dE             d eps       ncg     rms          rms(c)
DAV:   1    -0.649742356313E+03    0.11932E-02   -0.15775E-01  1920   0.664E-01    0.185E-01
RMM:   2    -0.649741950287E+03    0.40603E-03   -0.17782E-03  1787   0.696E-02    0.963E-02
RMM:   3    -0.649741887733E+03    0.62554E-04   -0.60352E-04  1781   0.307E-02    0.282E-02
RMM:   4    -0.649741874389E+03    0.13344E-04   -0.30723E-05  1742   0.963E-03    0.851E-03
RMM:   5    -0.649741874892E+03   -0.50282E-06   -0.10511E-05  1694   0.434E-03    0.364E-03
RMM:   6    -0.649741874557E+03    0.33474E-06   -0.13781E-06  1544   0.200E-03    0.129E-03
RMM:   7    -0.649741874587E+03   -0.29875E-07   -0.36056E-07  1316   0.960E-04
 210 F= -.65709547E+03 E0= -.65709547E+03  d E =-.890546E-33
 Finite differences progress:
  Degree of freedom: 105/153
  Displacement:        1/  2
  Total:             209/306
 bond charge predicted
       N       E                     dE             d eps       ncg     rms          rms(c)
DAV:   1    -0.649743131160E+03   -0.12566E-02   -0.27696E-01  1920   0.875E-01    0.270E-01
RMM:   2    -0.649742195729E+03    0.93543E-03   -0.33738E-03  1788   0.942E-02    0.140E-01
RMM:   3    -0.649742056647E+03    0.13908E-03   -0.13092E-03  1789   0.447E-02    0.407E-02
RMM:   4    -0.649742026756E+03    0.29891E-04   -0.68827E-05  1753   0.137E-02    0.117E-02
RMM:   5    -0.649742028024E+03   -0.12680E-05   -0.18993E-05  1719   0.597E-03    0.513E-03
RMM:   6    -0.649742027427E+03    0.59690E-06   -0.34920E-06  1645   0.299E-03    0.186E-03
RMM:   7    -0.649742027414E+03    0.12904E-07   -0.47564E-07  1386   0.121E-03
 211 F= -.65709542E+03 E0= -.65709542E+03  d E =-.378006E-33
 Finite differences progress:
  Degree of freedom: 105/153
  Displacement:        2/  2
  Total:             210/306
 bond charge predicted
       N       E                     dE             d eps       ncg     rms          rms(c)
DAV:   1    -0.649743921498E+03   -0.18941E-02   -0.15518E-01  1920   0.687E-01    0.157E-01
RMM:   2    -0.649743707755E+03    0.21374E-03   -0.13344E-03  1787   0.634E-02    0.846E-02
RMM:   3    -0.649743668329E+03    0.39426E-04   -0.43682E-04  1778   0.270E-02    0.208E-02
RMM:   4    -0.649743661401E+03    0.69282E-05   -0.17073E-05  1718   0.743E-03    0.792E-03
RMM:   5    -0.649743661762E+03   -0.36131E-06   -0.10818E-05  1692   0.423E-03    0.328E-03
RMM:   6    -0.649743661492E+03    0.26996E-06   -0.11466E-06  1518   0.173E-03    0.125E-03
RMM:   7    -0.649743661521E+03   -0.28282E-07   -0.29845E-07  1306   0.925E-04
 212 F= -.65709718E+03 E0= -.65709718E+03  d E =-.694611E-33
 Finite differences progress:
  Degree of freedom: 106/153
  Displacement:        1/  2
  Total:             211/306
 bond charge predicted
       N       E                     dE             d eps       ncg     rms          rms(c)
DAV:   1    -0.649743697103E+03   -0.35611E-04   -0.26827E-01  1920   0.853E-01    0.166E-01
RMM:   2    -0.649743693730E+03    0.33733E-05   -0.11459E-03  1782   0.582E-02    0.980E-02
RMM:   3    -0.649743698000E+03   -0.42708E-05   -0.25926E-04  1786   0.233E-02    0.944E-03
RMM:   4    -0.649743697546E+03    0.45418E-06   -0.80755E-06  1705   0.525E-03    0.422E-03
RMM:   5    -0.649743697394E+03    0.15241E-06   -0.28637E-06  1664   0.248E-03    0.140E-03
RMM:   6    -0.649743697407E+03   -0.12969E-07   -0.16535E-07  1214   0.839E-04
 213 F= -.65709716E+03 E0= -.65709716E+03  d E =-.581060E-33
 Finite differences progress:
  Degree of freedom: 106/153
  Displacement:        2/  2
  Total:             212/306
 bond charge predicted
       N       E                     dE             d eps       ncg     rms          rms(c)
DAV:   1    -0.649742130223E+03    0.15672E-02   -0.15376E-01  1920   0.664E-01    0.146E-01
RMM:   2    -0.649741990503E+03    0.13972E-03   -0.11425E-03  1784   0.582E-02    0.809E-02
RMM:   3    -0.649741967066E+03    0.23437E-04   -0.33088E-04  1767   0.239E-02    0.196E-02
RMM:   4    -0.649741961133E+03    0.59327E-05   -0.15916E-05  1730   0.717E-03    0.643E-03
RMM:   5    -0.649741961409E+03   -0.27598E-06   -0.75622E-06  1683   0.359E-03    0.272E-03
RMM:   6    -0.649741961212E+03    0.19711E-06   -0.50739E-07  1385   0.138E-03    0.116E-03
RMM:   7    -0.649741961256E+03   -0.44231E-07   -0.45535E-07  1382   0.100E-03
 214 F= -.65709558E+03 E0= -.65709558E+03  d E =-.500743E-33
 Finite differences progress:
  Degree of freedom: 107/153
  Displacement:        1/  2
  Total:             213/306
 bond charge predicted
       N       E                     dE             d eps       ncg     rms          rms(c)
DAV:   1    -0.649743098765E+03   -0.11376E-02   -0.27691E-01  1952   0.890E-01    0.260E-01
RMM:   2    -0.649742317563E+03    0.78120E-03   -0.35065E-03  1789   0.970E-02    0.136E-01
RMM:   3    -0.649742198410E+03    0.11915E-03   -0.12044E-03  1788   0.436E-02    0.394E-02
RMM:   4    -0.649742172763E+03    0.25647E-04   -0.58888E-05  1753   0.132E-02    0.120E-02
RMM:   5    -0.649742173761E+03   -0.99802E-06   -0.21796E-05  1723   0.620E-03    0.520E-03
RMM:   6    -0.649742173049E+03    0.71180E-06   -0.24358E-06  1614   0.272E-03    0.187E-03
RMM:   7    -0.649742173121E+03   -0.71690E-07   -0.10216E-06  1527   0.148E-03    0.163E-03
RMM:   8    -0.649742173026E+03    0.95260E-07   -0.22038E-07  1227   0.736E-04
 215 F= -.65709553E+03 E0= -.65709553E+03  d E =-.268869E-33
 Finite differences progress:
  Degree of freedom: 107/153
  Displacement:        2/  2
  Total:             214/306
 bond charge predicted
       N       E                     dE             d eps       ncg     rms          rms(c)
DAV:   1    -0.649742316835E+03   -0.14371E-03   -0.15465E-01  1888   0.658E-01    0.119E-01
RMM:   2    -0.649742343905E+03   -0.27069E-04   -0.73155E-04  1780   0.478E-02    0.711E-02
RMM:   3    -0.649742346319E+03   -0.24148E-05   -0.12753E-04  1776   0.170E-02    0.582E-03
RMM:   4    -0.649742346057E+03    0.26285E-06   -0.39143E-06  1690   0.374E-03    0.307E-03
RMM:   5    -0.649742345896E+03    0.16025E-06   -0.17265E-06  1624   0.193E-03    0.104E-03
RMM:   6    -0.649742345884E+03    0.12231E-07   -0.78277E-08  1162   0.609E-04
 216 F= -.65709584E+03 E0= -.65709584E+03  d E =-.296636E-33
 Finite differences progress:
  Degree of freedom: 108/153
  Displacement:        1/  2
  Total:             215/306
 bond charge predicted
       N       E                     dE             d eps       ncg     rms          rms(c)
DAV:   1    -0.649743251314E+03   -0.90542E-03   -0.27287E-01  1920   0.884E-01    0.248E-01
RMM:   2    -0.649742535378E+03    0.71594E-03   -0.28057E-03  1787   0.886E-02    0.131E-01
RMM:   3    -0.649742438520E+03    0.96858E-04   -0.10316E-03  1785   0.402E-02    0.370E-02
RMM:   4    -0.649742416182E+03    0.22338E-04   -0.60190E-05  1754   0.128E-02    0.953E-03
RMM:   5    -0.649742417165E+03   -0.98296E-06   -0.12970E-05  1726   0.507E-03    0.434E-03
RMM:   6    -0.649742416742E+03    0.42294E-06   -0.23188E-06  1622   0.250E-03    0.165E-03
RMM:   7    -0.649742416721E+03    0.20773E-07   -0.36954E-07  1345   0.107E-03
 217 F= -.65709590E+03 E0= -.65709590E+03  d E =-.123110E-32
 Finite differences progress:
  Degree of freedom: 108/153
  Displacement:        2/  2
  Total:             216/306
 bond charge predicted
       N       E                     dE             d eps       ncg     rms          rms(c)
DAV:   1    -0.649742389085E+03    0.27657E-04   -0.15455E-01  1920   0.716E-01    0.177E-01
RMM:   2    -0.649742076279E+03    0.31281E-03   -0.19490E-03  1790   0.771E-02    0.953E-02
RMM:   3    -0.649742012306E+03    0.63973E-04   -0.41638E-04  1767   0.276E-02    0.287E-02
RMM:   4    -0.649742005430E+03    0.68760E-05   -0.22084E-05  1741   0.855E-03    0.843E-03
RMM:   5    -0.649742005418E+03    0.11278E-07   -0.51078E-06  1682   0.329E-03    0.236E-03
RMM:   6    -0.649742005358E+03    0.60241E-07   -0.34905E-07  1360   0.124E-03
 218 F= -.65709543E+03 E0= -.65709543E+03  d E =-.112252E-33
 Finite differences progress:
  Degree of freedom: 109/153
  Displacement:        1/  2
  Total:             217/306
 bond charge predicted
       N       E                     dE             d eps       ncg     rms          rms(c)
DAV:   1    -0.649742946483E+03   -0.94106E-03   -0.27417E-01  2016   0.839E-01    0.265E-01
RMM:   2    -0.649742049902E+03    0.89658E-03   -0.34858E-03  1780   0.904E-02    0.136E-01
RMM:   3    -0.649741917995E+03    0.13191E-03   -0.51489E-04  1771   0.298E-02    0.487E-02
RMM:   4    -0.649741906376E+03    0.11619E-04   -0.67397E-05  1759   0.122E-02    0.798E-03
RMM:   5    -0.649741906191E+03    0.18571E-06   -0.31689E-06  1649   0.314E-03    0.351E-03
RMM:   6    -0.649741906087E+03    0.10333E-06   -0.13383E-06  1568   0.174E-03    0.104E-03
RMM:   7    -0.649741906075E+03    0.12478E-07   -0.80663E-08  1154   0.576E-04
 219 F= -.65709547E+03 E0= -.65709547E+03  d E =-.290977E-32
 Finite differences progress:
  Degree of freedom: 109/153
  Displacement:        2/  2
  Total:             218/306
 bond charge predicted
       N       E                     dE             d eps       ncg     rms          rms(c)
DAV:   1    -0.649744214688E+03   -0.23086E-02   -0.15084E-01  1952   0.630E-01    0.174E-01
RMM:   2    -0.649743883122E+03    0.33157E-03   -0.14312E-03  1776   0.610E-02    0.907E-02
RMM:   3    -0.649743833717E+03    0.49405E-04   -0.21983E-04  1761   0.200E-02    0.301E-02
RMM:   4    -0.649743831514E+03    0.22026E-05   -0.25051E-05  1736   0.771E-03    0.510E-03
RMM:   5    -0.649743831397E+03    0.11640E-06   -0.12177E-06  1560   0.199E-03    0.220E-03
RMM:   6    -0.649743831400E+03   -0.23756E-08   -0.53860E-07  1416   0.114E-03
 220 F= -.65709730E+03 E0= -.65709730E+03  d E =-.250638E-33
 Finite differences progress:
  Degree of freedom: 110/153
  Displacement:        1/  2
  Total:             219/306
 bond charge predicted
       N       E                     dE             d eps       ncg     rms          rms(c)
DAV:   1    -0.649743895182E+03   -0.63785E-04   -0.26248E-01  1792   0.816E-01    0.183E-01
RMM:   2    -0.649743785403E+03    0.10978E-03   -0.10371E-03  1777   0.562E-02    0.106E-01
RMM:   3    -0.649743762456E+03    0.22947E-04   -0.25181E-04  1776   0.217E-02    0.145E-02
RMM:   4    -0.649743763055E+03   -0.59880E-06   -0.92185E-06  1701   0.513E-03    0.466E-03
RMM:   5    -0.649743762814E+03    0.24039E-06   -0.21659E-06  1640   0.217E-03    0.146E-03
RMM:   6    -0.649743762844E+03   -0.29355E-07   -0.22943E-07  1261   0.848E-04
 221 F= -.65709727E+03 E0= -.65709727E+03  d E =-.126607E-32
 Finite differences progress:
  Degree of freedom: 110/153
  Displacement:        2/  2
  Total:             220/306
 bond charge predicted
       N       E                     dE             d eps       ncg     rms          rms(c)
DAV:   1    -0.649742425086E+03    0.13377E-02   -0.14950E-01  1888   0.625E-01    0.140E-01
RMM:   2    -0.649742317680E+03    0.10741E-03   -0.83119E-04  1774   0.485E-02    0.778E-02
RMM:   3    -0.649742296689E+03    0.20991E-04   -0.14304E-04  1757   0.164E-02    0.180E-02
RMM:   4    -0.649742297327E+03   -0.63810E-06   -0.98755E-06  1700   0.509E-03    0.383E-03
RMM:   5    -0.649742297234E+03    0.93089E-07   -0.95606E-07  1517   0.159E-03
 222 F= -.65709584E+03 E0= -.65709584E+03  d E =-.693337E-32
 Finite differences progress:
  Degree of freedom: 111/153
  Displacement:        1/  2
  Total:             221/306
 bond charge predicted
       N       E                     dE             d eps       ncg     rms          rms(c)
DAV:   1    -0.649743163456E+03   -0.86613E-03   -0.27725E-01  2048   0.831E-01    0.247E-01
RMM:   2    -0.649742468734E+03    0.69472E-03   -0.28831E-03  1781   0.850E-02    0.129E-01
RMM:   3    -0.649742371302E+03    0.97432E-04   -0.46579E-04  1771   0.288E-02    0.440E-02
RMM:   4    -0.649742366310E+03    0.49918E-05   -0.55814E-05  1752   0.115E-02    0.745E-03
RMM:   5    -0.649742366205E+03    0.10518E-06   -0.27152E-06  1645   0.298E-03    0.335E-03
RMM:   6    -0.649742366146E+03    0.59466E-07   -0.11957E-06  1557   0.166E-03    0.100E-03
RMM:   7    -0.649742366178E+03   -0.32567E-07   -0.76685E-08  1142   0.573E-04
 223 F= -.65709581E+03 E0= -.65709581E+03  d E =-.638499E-34
 Finite differences progress:
  Degree of freedom: 111/153
  Displacement:        2/  2
  Total:             222/306
 bond charge predicted
       N       E                     dE             d eps       ncg     rms          rms(c)
DAV:   1    -0.649743708546E+03   -0.13424E-02   -0.15608E-01  1920   0.652E-01    0.151E-01
RMM:   2    -0.649743542555E+03    0.16599E-03   -0.12203E-03  1771   0.584E-02    0.828E-02
RMM:   3    -0.649743509881E+03    0.32675E-04   -0.20141E-04  1757   0.191E-02    0.228E-02
RMM:   4    -0.649743507843E+03    0.20374E-05   -0.17084E-05  1719   0.657E-03    0.446E-03
RMM:   5    -0.649743507909E+03   -0.66098E-07   -0.98310E-07  1499   0.175E-03
 224 F= -.65709701E+03 E0= -.65709701E+03  d E =-.167758E-32
 Finite differences progress:
  Degree of freedom: 112/153
  Displacement:        1/  2
  Total:             223/306
 bond charge predicted
       N       E                     dE             d eps       ncg     rms          rms(c)
DAV:   1    -0.649743642463E+03   -0.13462E-03   -0.27548E-01  1952   0.810E-01    0.178E-01
RMM:   2    -0.649743552639E+03    0.89824E-04   -0.11520E-03  1766   0.561E-02    0.103E-01
RMM:   3    -0.649743538935E+03    0.13703E-04   -0.27521E-04  1761   0.225E-02    0.160E-02
RMM:   4    -0.649743539404E+03   -0.46898E-06   -0.12636E-05  1708   0.603E-03    0.440E-03
RMM:   5    -0.649743539235E+03    0.16942E-06   -0.16208E-06  1600   0.203E-03    0.192E-03
RMM:   6    -0.649743539274E+03   -0.39410E-07   -0.37865E-07  1337   0.105E-03
 225 F= -.65709701E+03 E0= -.65709701E+03  d E =-.226156E-33
 Finite differences progress:
  Degree of freedom: 112/153
  Displacement:        2/  2
  Total:             224/306
 bond charge predicted
       N       E                     dE             d eps       ncg     rms          rms(c)
DAV:   1    -0.649743444152E+03    0.95083E-04   -0.15240E-01  1888   0.633E-01    0.130E-01
RMM:   2    -0.649743400066E+03    0.44086E-04   -0.62504E-04  1757   0.434E-02    0.747E-02
RMM:   3    -0.649743390522E+03    0.95435E-05   -0.13331E-04  1745   0.162E-02    0.104E-02
RMM:   4    -0.649743390839E+03   -0.31618E-06   -0.55255E-06  1694   0.406E-03    0.327E-03
RMM:   5    -0.649743390697E+03    0.14147E-06   -0.97544E-07  1522   0.154E-03    0.119E-03
RMM:   6    -0.649743390718E+03   -0.21362E-07   -0.14367E-07  1179   0.680E-04
 226 F= -.65709689E+03 E0= -.65709689E+03  d E =-.648631E-33
 Finite differences progress:
  Degree of freedom: 113/153
  Displacement:        1/  2
  Total:             225/306
 bond charge predicted
       N       E                     dE             d eps       ncg     rms          rms(c)
DAV:   1    -0.649743822291E+03   -0.43159E-03   -0.26557E-01  1920   0.835E-01    0.216E-01
RMM:   2    -0.649743425445E+03    0.39685E-03   -0.16968E-03  1772   0.681E-02    0.117E-01
RMM:   3    -0.649743358681E+03    0.66764E-04   -0.31074E-04  1773   0.237E-02    0.324E-02
RMM:   4    -0.649743358548E+03    0.13299E-06   -0.28135E-05  1741   0.821E-03    0.610E-03
RMM:   5    -0.649743358201E+03    0.34656E-06   -0.20416E-06  1647   0.239E-03    0.243E-03
RMM:   6    -0.649743358171E+03    0.30155E-07   -0.63432E-07  1450   0.126E-03
 227 F= -.65709685E+03 E0= -.65709685E+03  d E =-.607218E-33
 Finite differences progress:
  Degree of freedom: 113/153
  Displacement:        2/  2
  Total:             226/306
 bond charge predicted
       N       E                     dE             d eps       ncg     rms          rms(c)
DAV:   1    -0.649741376186E+03    0.19820E-02   -0.14954E-01  2016   0.633E-01    0.140E-01
RMM:   2    -0.649741266066E+03    0.11012E-03   -0.85017E-04  1770   0.504E-02    0.777E-02
RMM:   3    -0.649741243237E+03    0.22829E-04   -0.14103E-04  1748   0.164E-02    0.184E-02
RMM:   4    -0.649741243787E+03   -0.55036E-06   -0.99550E-06  1709   0.514E-03    0.391E-03
RMM:   5    -0.649741243671E+03    0.11671E-06   -0.98286E-07  1508   0.162E-03    0.146E-03
RMM:   6    -0.649741243668E+03    0.32378E-08   -0.22566E-07  1248   0.806E-04
 228 F= -.65709478E+03 E0= -.65709478E+03  d E =-.765143E-32
 Finite differences progress:
  Degree of freedom: 114/153
  Displacement:        1/  2
  Total:             227/306
 bond charge predicted
       N       E                     dE             d eps       ncg     rms          rms(c)
DAV:   1    -0.649742805598E+03   -0.15619E-02   -0.28198E-01  2080   0.866E-01    0.308E-01
RMM:   2    -0.649741389449E+03    0.14161E-02   -0.46006E-03  1785   0.105E-01    0.153E-01
RMM:   3    -0.649741196558E+03    0.19289E-03   -0.71346E-04  1780   0.352E-02    0.565E-02
RMM:   4    -0.649741175740E+03    0.20817E-04   -0.91610E-05  1778   0.146E-02    0.959E-03
RMM:   5    -0.649741175235E+03    0.50559E-06   -0.44875E-06  1675   0.377E-03    0.412E-03
RMM:   6    -0.649741175046E+03    0.18919E-06   -0.18697E-06  1611   0.203E-03    0.127E-03
RMM:   7    -0.649741175073E+03   -0.27398E-07   -0.10928E-07  1166   0.668E-04
 229 F= -.65709463E+03 E0= -.65709463E+03  d E =-.530359E-34
 Finite differences progress:
  Degree of freedom: 114/153
  Displacement:        2/  2
  Total:             228/306
 bond charge predicted
       N       E                     dE             d eps       ncg     rms          rms(c)
DAV:   1    -0.649742542268E+03   -0.13672E-02   -0.15743E-01  2048   0.677E-01    0.200E-01
RMM:   2    -0.649742041922E+03    0.50035E-03   -0.24136E-03  1783   0.796E-02    0.104E-01
RMM:   3    -0.649741950242E+03    0.91681E-04   -0.32710E-04  1758   0.244E-02    0.380E-02
RMM:   4    -0.649741941842E+03    0.83993E-05   -0.39722E-05  1740   0.974E-03    0.745E-03
RMM:   5    -0.649741941654E+03    0.18819E-06   -0.22022E-06  1630   0.266E-03    0.289E-03
RMM:   6    -0.649741941549E+03    0.10532E-06   -0.88724E-07  1503   0.140E-03    0.888E-04
RMM:   7    -0.649741941527E+03    0.22195E-07   -0.59370E-08  1131   0.518E-04
 230 F= -.65709551E+03 E0= -.65709551E+03  d E =-.185301E-32
 Finite differences progress:
  Degree of freedom: 115/153
  Displacement:        1/  2
  Total:             229/306
 bond charge predicted
       N       E                     dE             d eps       ncg     rms          rms(c)
DAV:   1    -0.649743006833E+03   -0.10653E-02   -0.27934E-01  2016   0.842E-01    0.262E-01
RMM:   2    -0.649742157026E+03    0.84981E-03   -0.34108E-03  1784   0.909E-02    0.135E-01
RMM:   3    -0.649742028779E+03    0.12825E-03   -0.52493E-04  1769   0.306E-02    0.473E-02
RMM:   4    -0.649742018783E+03    0.99963E-05   -0.63933E-05  1764   0.123E-02    0.796E-03
RMM:   5    -0.649742018576E+03    0.20651E-06   -0.30895E-06  1660   0.319E-03    0.349E-03
RMM:   6    -0.649742018474E+03    0.10239E-06   -0.12790E-06  1561   0.171E-03    0.105E-03
RMM:   7    -0.649742018511E+03   -0.37275E-07   -0.80730E-08  1154   0.591E-04
 231 F= -.65709544E+03 E0= -.65709544E+03  d E =-.232639E-33
 Finite differences progress:
  Degree of freedom: 115/153
  Displacement:        2/  2
  Total:             230/306
 bond charge predicted
       N       E                     dE             d eps       ncg     rms          rms(c)
DAV:   1    -0.649744300522E+03   -0.22820E-02   -0.15307E-01  1952   0.640E-01    0.176E-01
RMM:   2    -0.649743946358E+03    0.35416E-03   -0.14720E-03  1780   0.614E-02    0.914E-02
RMM:   3    -0.649743893836E+03    0.52522E-04   -0.22326E-04  1755   0.203E-02    0.307E-02
RMM:   4    -0.649743891198E+03    0.26379E-05   -0.25842E-05  1730   0.787E-03    0.515E-03
RMM:   5    -0.649743891006E+03    0.19169E-06   -0.12957E-06  1560   0.204E-03    0.215E-03
RMM:   6    -0.649743890970E+03    0.36838E-07   -0.51266E-07  1395   0.112E-03
 232 F= -.65709732E+03 E0= -.65709732E+03  d E =-.106086E-32
 Finite differences progress:
  Degree of freedom: 116/153
  Displacement:        1/  2
  Total:             231/306
 bond charge predicted
       N       E                     dE             d eps       ncg     rms          rms(c)
DAV:   1    -0.649743891554E+03   -0.54756E-06   -0.26094E-01  1792   0.818E-01    0.183E-01
RMM:   2    -0.649743769671E+03    0.12188E-03   -0.92744E-04  1781   0.543E-02    0.105E-01
RMM:   3    -0.649743743891E+03    0.25780E-04   -0.25910E-04  1776   0.221E-02    0.138E-02
RMM:   4    -0.649743743921E+03   -0.30479E-07   -0.90514E-06  1702   0.517E-03    0.468E-03
RMM:   5    -0.649743743645E+03    0.27642E-06   -0.20873E-06  1639   0.216E-03    0.153E-03
RMM:   6    -0.649743743693E+03   -0.47818E-07   -0.21924E-07  1258   0.838E-04
 233 F= -.65709730E+03 E0= -.65709730E+03  d E =-.429332E-33
 Finite differences progress:
  Degree of freedom: 116/153
  Displacement:        2/  2
  Total:             232/306
 bond charge predicted
       N       E                     dE             d eps       ncg     rms          rms(c)
DAV:   1    -0.649742415893E+03    0.13278E-02   -0.15193E-01  1920   0.640E-01    0.145E-01
RMM:   2    -0.649742295660E+03    0.12023E-03   -0.84801E-04  1772   0.506E-02    0.810E-02
RMM:   3    -0.649742270933E+03    0.24727E-04   -0.16105E-04  1765   0.176E-02    0.185E-02
RMM:   4    -0.649742271067E+03   -0.13375E-06   -0.10731E-05  1702   0.541E-03    0.413E-03
RMM:   5    -0.649742270926E+03    0.14133E-06   -0.10092E-06  1543   0.168E-03    0.186E-03
RMM:   6    -0.649742270907E+03    0.18215E-07   -0.30439E-07  1306   0.909E-04
 234 F= -.65709573E+03 E0= -.65709573E+03  d E =-.327327E-33
 Finite differences progress:
  Degree of freedom: 117/153
  Displacement:        1/  2
  Total:             233/306
 bond charge predicted
       N       E                     dE             d eps       ncg     rms          rms(c)
DAV:   1    -0.649743060501E+03   -0.78958E-03   -0.28114E-01  2048   0.845E-01    0.248E-01
RMM:   2    -0.649742359627E+03    0.70087E-03   -0.29131E-03  1780   0.862E-02    0.129E-01
RMM:   3    -0.649742261472E+03    0.98155E-04   -0.47918E-04  1774   0.291E-02    0.443E-02
RMM:   4    -0.649742255299E+03    0.61726E-05   -0.57207E-05  1750   0.116E-02    0.758E-03
RMM:   5    -0.649742255244E+03    0.55225E-07   -0.28693E-06  1660   0.308E-03    0.350E-03
RMM:   6    -0.649742255130E+03    0.11367E-06   -0.11608E-06  1551   0.166E-03    0.107E-03
RMM:   7    -0.649742255116E+03    0.14614E-07   -0.88855E-08  1161   0.607E-04
 235 F= -.65709578E+03 E0= -.65709578E+03  d E =-.163776E-32
 Finite differences progress:
  Degree of freedom: 117/153
  Displacement:        2/  2
  Total:             234/306
 bond charge predicted
       N       E                     dE             d eps       ncg     rms          rms(c)
DAV:   1    -0.649743714600E+03   -0.14595E-02   -0.15627E-01  1888   0.664E-01    0.149E-01
RMM:   2    -0.649743560430E+03    0.15417E-03   -0.12184E-03  1782   0.593E-02    0.818E-02
RMM:   3    -0.649743531824E+03    0.28606E-04   -0.19577E-04  1761   0.194E-02    0.227E-02
RMM:   4    -0.649743530323E+03    0.15018E-05   -0.16716E-05  1724   0.676E-03    0.437E-03
RMM:   5    -0.649743530365E+03   -0.42757E-07   -0.98988E-07  1513   0.177E-03
 236 F= -.65709700E+03 E0= -.65709700E+03  d E =-.749256E-33
 Finite differences progress:
  Degree of freedom: 118/153
  Displacement:        1/  2
  Total:             235/306
 bond charge predicted
       N       E                     dE             d eps       ncg     rms          rms(c)
DAV:   1    -0.649743579619E+03   -0.49297E-04   -0.27289E-01  1824   0.838E-01    0.177E-01
RMM:   2    -0.649743488839E+03    0.90780E-04   -0.11932E-03  1766   0.570E-02    0.102E-01
RMM:   3    -0.649743474876E+03    0.13963E-04   -0.26197E-04  1765   0.225E-02    0.163E-02
RMM:   4    -0.649743475857E+03   -0.98104E-06   -0.12212E-05  1717   0.588E-03    0.441E-03
RMM:   5    -0.649743475638E+03    0.21864E-06   -0.17250E-06  1601   0.206E-03    0.179E-03
RMM:   6    -0.649743475644E+03   -0.59408E-08   -0.34006E-07  1331   0.100E-03
 237 F= -.65709698E+03 E0= -.65709698E+03  d E =-.422948E-33
 Finite differences progress:
  Degree of freedom: 118/153
  Displacement:        2/  2
  Total:             236/306
 bond charge predicted
       N       E                     dE             d eps       ncg     rms          rms(c)
DAV:   1    -0.649743363654E+03    0.11198E-03   -0.15157E-01  1824   0.642E-01    0.126E-01
RMM:   2    -0.649743323988E+03    0.39665E-04   -0.62833E-04  1754   0.434E-02    0.728E-02
RMM:   3    -0.649743317468E+03    0.65206E-05   -0.13272E-04  1745   0.163E-02    0.100E-02
RMM:   4    -0.649743317699E+03   -0.23150E-06   -0.54228E-06  1693   0.401E-03    0.315E-03
RMM:   5    -0.649743317557E+03    0.14287E-06   -0.98552E-07  1508   0.152E-03    0.115E-03
RMM:   6    -0.649743317551E+03    0.55988E-08   -0.13926E-07  1189   0.672E-04
 238 F= -.65709685E+03 E0= -.65709685E+03  d E =-.405286E-33
 Finite differences progress:
  Degree of freedom: 119/153
  Displacement:        1/  2
  Total:             237/306
 bond charge predicted
       N       E                     dE             d eps       ncg     rms          rms(c)
DAV:   1    -0.649743813343E+03   -0.49579E-03   -0.26634E-01  1824   0.855E-01    0.212E-01
RMM:   2    -0.649743465076E+03    0.34827E-03   -0.16170E-03  1766   0.688E-02    0.116E-01
RMM:   3    -0.649743409826E+03    0.55250E-04   -0.32070E-04  1764   0.248E-02    0.296E-02
RMM:   4    -0.649743410337E+03   -0.51120E-06   -0.24437E-05  1730   0.814E-03    0.581E-03
RMM:   5    -0.649743409960E+03    0.37715E-06   -0.18856E-06  1631   0.229E-03    0.235E-03
RMM:   6    -0.649743409956E+03    0.37180E-08   -0.60606E-07  1432   0.125E-03
 239 F= -.65709686E+03 E0= -.65709686E+03  d E =-.777863E-33
 Finite differences progress:
  Degree of freedom: 119/153
  Displacement:        2/  2
  Total:             238/306
 bond charge predicted
       N       E                     dE             d eps       ncg     rms          rms(c)
DAV:   1    -0.649741331625E+03    0.20783E-02   -0.15199E-01  1888   0.659E-01    0.146E-01
RMM:   2    -0.649741208204E+03    0.12342E-03   -0.83258E-04  1758   0.510E-02    0.817E-02
RMM:   3    -0.649741182420E+03    0.25784E-04   -0.15887E-04  1746   0.175E-02    0.176E-02
RMM:   4    -0.649741182620E+03   -0.19942E-06   -0.95740E-06  1715   0.512E-03    0.401E-03
RMM:   5    -0.649741182452E+03    0.16784E-06   -0.10313E-06  1527   0.161E-03    0.153E-03
RMM:   6    -0.649741182458E+03   -0.62828E-08   -0.26622E-07  1273   0.848E-04
 240 F= -.65709463E+03 E0= -.65709463E+03  d E =-.367810E-33
 Finite differences progress:
  Degree of freedom: 120/153
  Displacement:        1/  2
  Total:             239/306
 bond charge predicted
       N       E                     dE             d eps       ncg     rms          rms(c)
DAV:   1    -0.649742732931E+03   -0.15505E-02   -0.28076E-01  2016   0.894E-01    0.301E-01
RMM:   2    -0.649741415074E+03    0.13179E-02   -0.44621E-03  1786   0.106E-01    0.150E-01
RMM:   3    -0.649741232719E+03    0.18235E-03   -0.66157E-04  1777   0.341E-02    0.558E-02
RMM:   4    -0.649741212291E+03    0.20428E-04   -0.87892E-05  1759   0.141E-02    0.919E-03
RMM:   5    -0.649741211824E+03    0.46624E-06   -0.40831E-06  1677   0.363E-03    0.400E-03
RMM:   6    -0.649741211619E+03    0.20531E-06   -0.17621E-06  1608   0.197E-03    0.121E-03
RMM:   7    -0.649741211590E+03    0.29591E-07   -0.99027E-08  1164   0.648E-04
 241 F= -.65709475E+03 E0= -.65709475E+03  d E =-.862253E-33
 Finite differences progress:
  Degree of freedom: 120/153
  Displacement:        2/  2
  Total:             240/306
 bond charge predicted
       N       E                     dE             d eps       ncg     rms          rms(c)
DAV:   1    -0.649743113646E+03   -0.19020E-02   -0.15363E-01  1920   0.713E-01    0.185E-01
RMM:   2    -0.649742712287E+03    0.40136E-03   -0.20734E-03  1788   0.785E-02    0.968E-02
RMM:   3    -0.649742644084E+03    0.68203E-04   -0.38913E-04  1770   0.272E-02    0.320E-02
RMM:   4    -0.649742636829E+03    0.72556E-05   -0.27751E-05  1743   0.937E-03    0.741E-03
RMM:   5    -0.649742636682E+03    0.14607E-06   -0.32239E-06  1661   0.287E-03    0.232E-03
RMM:   6    -0.649742636618E+03    0.64163E-07   -0.46951E-07  1410   0.127E-03
 242 F= -.65709615E+03 E0= -.65709615E+03  d E =-.972755E-33
 Finite differences progress:
  Degree of freedom: 121/153
  Displacement:        1/  2
  Total:             241/306
 bond charge predicted
       N       E                     dE             d eps       ncg     rms          rms(c)
DAV:   1    -0.649743331147E+03   -0.69446E-03   -0.26908E-01  1920   0.848E-01    0.233E-01
RMM:   2    -0.649742761209E+03    0.56994E-03   -0.27303E-03  1786   0.842E-02    0.124E-01
RMM:   3    -0.649742676656E+03    0.84553E-04   -0.84915E-04  1785   0.370E-02    0.342E-02
RMM:   4    -0.649742660824E+03    0.15832E-04   -0.51403E-05  1739   0.118E-02    0.757E-03
RMM:   5    -0.649742661601E+03   -0.77769E-06   -0.75502E-06  1699   0.410E-03    0.349E-03
RMM:   6    -0.649742661410E+03    0.19172E-06   -0.12663E-06  1563   0.193E-03    0.136E-03
RMM:   7    -0.649742661423E+03   -0.13468E-07   -0.22609E-07  1247   0.833E-04
 243 F= -.65709613E+03 E0= -.65709613E+03  d E =-.314989E-33
 Finite differences progress:
  Degree of freedom: 121/153
  Displacement:        2/  2
  Total:             242/306
 bond charge predicted
       N       E                     dE             d eps       ncg     rms          rms(c)
DAV:   1    -0.649743998269E+03   -0.13369E-02   -0.15343E-01  1888   0.641E-01    0.156E-01
RMM:   2    -0.649743788673E+03    0.20960E-03   -0.11908E-03  1779   0.573E-02    0.842E-02
RMM:   3    -0.649743757762E+03    0.30911E-04   -0.34889E-04  1768   0.241E-02    0.220E-02
RMM:   4    -0.649743751131E+03    0.66309E-05   -0.23181E-05  1732   0.791E-03    0.443E-03
RMM:   5    -0.649743751457E+03   -0.32611E-06   -0.31427E-06  1675   0.271E-03    0.224E-03
RMM:   6    -0.649743751396E+03    0.61191E-07   -0.85273E-07  1482   0.140E-03
 244 F= -.65709721E+03 E0= -.65709721E+03  d E =-.878507E-33
 Finite differences progress:
  Degree of freedom: 122/153
  Displacement:        1/  2
  Total:             243/306
 bond charge predicted
       N       E                     dE             d eps       ncg     rms          rms(c)
DAV:   1    -0.649743670564E+03    0.80893E-04   -0.26910E-01  1856   0.826E-01    0.167E-01
RMM:   2    -0.649743666110E+03    0.44539E-05   -0.10047E-03  1780   0.544E-02    0.984E-02
RMM:   3    -0.649743666112E+03   -0.13024E-08   -0.24326E-04  1781   0.219E-02    0.107E-02
RMM:   4    -0.649743664106E+03    0.20053E-05   -0.75612E-06  1699   0.504E-03    0.423E-03
RMM:   5    -0.649743664062E+03    0.44325E-07   -0.39291E-06  1669   0.269E-03    0.184E-03
RMM:   6    -0.649743664040E+03    0.21475E-07   -0.32999E-07  1330   0.100E-03
 245 F= -.65709719E+03 E0= -.65709719E+03  d E =-.369926E-33
 Finite differences progress:
  Degree of freedom: 122/153
  Displacement:        2/  2
  Total:             244/306
 bond charge predicted
       N       E                     dE             d eps       ncg     rms          rms(c)
DAV:   1    -0.649742048017E+03    0.16160E-02   -0.15572E-01  1920   0.645E-01    0.147E-01
RMM:   2    -0.649741916324E+03    0.13169E-03   -0.11284E-03  1778   0.562E-02    0.821E-02
RMM:   3    -0.649741893108E+03    0.23216E-04   -0.32671E-04  1758   0.237E-02    0.193E-02
RMM:   4    -0.649741887134E+03    0.59734E-05   -0.15289E-05  1714   0.705E-03    0.608E-03
RMM:   5    -0.649741887442E+03   -0.30740E-06   -0.66646E-06  1675   0.339E-03    0.260E-03
RMM:   6    -0.649741887285E+03    0.15681E-06   -0.53847E-07  1386   0.137E-03    0.104E-03
RMM:   7    -0.649741887324E+03   -0.38835E-07   -0.31177E-07  1299   0.868E-04
 246 F= -.65709525E+03 E0= -.65709525E+03  d E =-.462896E-33
 Finite differences progress:
  Degree of freedom: 123/153
  Displacement:        1/  2
  Total:             245/306
 bond charge predicted
       N       E                     dE             d eps       ncg     rms          rms(c)
DAV:   1    -0.649742836234E+03   -0.94895E-03   -0.27440E-01  1952   0.864E-01    0.272E-01
RMM:   2    -0.649741903962E+03    0.93227E-03   -0.36707E-03  1790   0.973E-02    0.141E-01
RMM:   3    -0.649741755551E+03    0.14841E-03   -0.12662E-03  1780   0.448E-02    0.417E-02
RMM:   4    -0.649741726698E+03    0.28853E-04   -0.65801E-05  1744   0.140E-02    0.119E-02
RMM:   5    -0.649741727631E+03   -0.93286E-06   -0.19344E-05  1725   0.593E-03    0.504E-03
RMM:   6    -0.649741727049E+03    0.58141E-06   -0.31545E-06  1636   0.291E-03    0.186E-03
RMM:   7    -0.649741727052E+03   -0.27139E-08   -0.45743E-07  1356   0.116E-03
 247 F= -.65709534E+03 E0= -.65709534E+03  d E =-.670753E-33
 Finite differences progress:
  Degree of freedom: 123/153
  Displacement:        2/  2
  Total:             246/306
 bond charge predicted
       N       E                     dE             d eps       ncg     rms          rms(c)
DAV:   1    -0.649744030770E+03   -0.23037E-02   -0.15432E-01  1920   0.689E-01    0.158E-01
RMM:   2    -0.649743792392E+03    0.23838E-03   -0.13782E-03  1789   0.641E-02    0.845E-02
RMM:   3    -0.649743751919E+03    0.40474E-04   -0.45773E-04  1772   0.276E-02    0.222E-02
RMM:   4    -0.649743744738E+03    0.71804E-05   -0.17502E-05  1721   0.791E-03    0.878E-03
RMM:   5    -0.649743745087E+03   -0.34901E-06   -0.12857E-05  1696   0.458E-03    0.356E-03
RMM:   6    -0.649743744746E+03    0.34141E-06   -0.11329E-06  1521   0.176E-03    0.130E-03
RMM:   7    -0.649743744788E+03   -0.42495E-07   -0.44710E-07  1369   0.105E-03
 248 F= -.65709718E+03 E0= -.65709718E+03  d E =-.485918E-33
 Finite differences progress:
  Degree of freedom: 124/153
  Displacement:        1/  2
  Total:             247/306
 bond charge predicted
       N       E                     dE             d eps       ncg     rms          rms(c)
DAV:   1    -0.649743611157E+03    0.13359E-03   -0.26674E-01  1824   0.867E-01    0.165E-01
RMM:   2    -0.649743614647E+03   -0.34899E-05   -0.10838E-03  1788   0.584E-02    0.973E-02
RMM:   3    -0.649743623438E+03   -0.87912E-05   -0.25166E-04  1786   0.238E-02    0.847E-03
RMM:   4    -0.649743623024E+03    0.41455E-06   -0.80204E-06  1738   0.521E-03    0.435E-03
RMM:   5    -0.649743622912E+03    0.11178E-06   -0.30385E-06  1668   0.262E-03    0.137E-03
RMM:   6    -0.649743622951E+03   -0.38908E-07   -0.14935E-07  1200   0.810E-04
 249 F= -.65709717E+03 E0= -.65709717E+03  d E =-.763278E-33
 Finite differences progress:
  Degree of freedom: 124/153
  Displacement:        2/  2
  Total:             248/306
 bond charge predicted
       N       E                     dE             d eps       ncg     rms          rms(c)
DAV:   1    -0.649741274407E+03    0.23485E-02   -0.15670E-01  1952   0.693E-01    0.186E-01
RMM:   2    -0.649740875625E+03    0.39878E-03   -0.17320E-03  1787   0.704E-02    0.977E-02
RMM:   3    -0.649740815210E+03    0.60415E-04   -0.60971E-04  1781   0.314E-02    0.275E-02
RMM:   4    -0.649740802406E+03    0.12804E-04   -0.27964E-05  1735   0.937E-03    0.920E-03
RMM:   5    -0.649740802983E+03   -0.57650E-06   -0.12843E-05  1705   0.473E-03    0.379E-03
RMM:   6    -0.649740802591E+03    0.39161E-06   -0.11971E-06  1537   0.196E-03    0.135E-03
RMM:   7    -0.649740802658E+03   -0.67361E-07   -0.64568E-07  1428   0.117E-03
 250 F= -.65709419E+03 E0= -.65709419E+03  d E =-.150147E-33
 Finite differences progress:
  Degree of freedom: 125/153
  Displacement:        1/  2
  Total:             249/306
 bond charge predicted
       N       E                     dE             d eps       ncg     rms          rms(c)
DAV:   1    -0.649742507136E+03   -0.17045E-02   -0.27752E-01  2016   0.933E-01    0.315E-01
RMM:   2    -0.649741036791E+03    0.14703E-02   -0.49560E-03  1790   0.117E-01    0.160E-01
RMM:   3    -0.649740816658E+03    0.22013E-03   -0.18121E-03  1790   0.531E-02    0.489E-02
RMM:   4    -0.649740772637E+03    0.44021E-04   -0.94993E-05  1755   0.161E-02    0.142E-02
RMM:   5    -0.649740773587E+03   -0.95026E-06   -0.23621E-05  1755   0.679E-03    0.588E-03
RMM:   6    -0.649740772744E+03    0.84331E-06   -0.39472E-06  1658   0.328E-03    0.205E-03
RMM:   7    -0.649740772752E+03   -0.81600E-08   -0.69687E-07  1455   0.137E-03
 251 F= -.65709437E+03 E0= -.65709437E+03  d E =-.238119E-32
 Finite differences progress:
  Degree of freedom: 125/153
  Displacement:        2/  2
  Total:             250/306
 bond charge predicted
       N       E                     dE             d eps       ncg     rms          rms(c)
DAV:   1    -0.649744014932E+03   -0.32422E-02   -0.15224E-01  1952   0.674E-01    0.161E-01
RMM:   2    -0.649743780834E+03    0.23410E-03   -0.14321E-03  1790   0.647E-02    0.858E-02
RMM:   3    -0.649743747350E+03    0.33484E-04   -0.40141E-04  1785   0.264E-02    0.235E-02
RMM:   4    -0.649743739999E+03    0.73514E-05   -0.20809E-05  1745   0.808E-03    0.641E-03
RMM:   5    -0.649743740347E+03   -0.34823E-06   -0.64437E-06  1692   0.350E-03    0.279E-03
RMM:   6    -0.649743740176E+03    0.17103E-06   -0.60205E-07  1421   0.149E-03    0.116E-03
RMM:   7    -0.649743740205E+03   -0.28798E-07   -0.33821E-07  1315   0.910E-04
 252 F= -.65709716E+03 E0= -.65709716E+03  d E =-.795504E-32
 Finite differences progress:
  Degree of freedom: 126/153
  Displacement:        1/  2
  Total:             251/306
 bond charge predicted
       N       E                     dE             d eps       ncg     rms          rms(c)
DAV:   1    -0.649743649712E+03    0.90464E-04   -0.26896E-01  1824   0.868E-01    0.167E-01
RMM:   2    -0.649743642955E+03    0.67567E-05   -0.10865E-03  1788   0.590E-02    0.983E-02
RMM:   3    -0.649743648660E+03   -0.57055E-05   -0.25087E-04  1788   0.239E-02    0.105E-02
RMM:   4    -0.649743646648E+03    0.20122E-05   -0.80301E-06  1742   0.537E-03    0.471E-03
RMM:   5    -0.649743646426E+03    0.22260E-06   -0.48351E-06  1696   0.300E-03    0.193E-03
RMM:   6    -0.649743646365E+03    0.60936E-07   -0.34237E-07  1343   0.105E-03
 253 F= -.65709720E+03 E0= -.65709720E+03  d E =-.499335E-34
 Finite differences progress:
  Degree of freedom: 126/153
  Displacement:        2/  2
  Total:             252/306
 bond charge predicted
       N       E                     dE             d eps       ncg     rms          rms(c)
DAV:   1    -0.649738498690E+03    0.51477E-02   -0.99421E-01  1888   0.205E+00    0.243E-01
RMM:   2    -0.649738430760E+03    0.67930E-04   -0.87611E-03  1792   0.199E-01    0.126E-01
RMM:   3    -0.649738269179E+03    0.16158E-03   -0.93839E-04  1791   0.540E-02    0.374E-02
RMM:   4    -0.649738265302E+03    0.38772E-05   -0.77759E-05  1836   0.198E-02    0.102E-02
RMM:   5    -0.649738264869E+03    0.43355E-06   -0.69350E-06  1787   0.510E-03    0.424E-03
RMM:   6    -0.649738264706E+03    0.16242E-06   -0.15416E-06  1689   0.237E-03    0.109E-03
RMM:   7    -0.649738264724E+03   -0.17608E-07   -0.10343E-07  1166   0.755E-04
 254 F= -.65709168E+03 E0= -.65709168E+03  d E =-.264290E-33
 Finite differences progress:
  Degree of freedom: 127/153
  Displacement:        1/  2
  Total:             253/306
 bond charge predicted
       N       E                     dE             d eps       ncg     rms          rms(c)
DAV:   1    -0.649740243102E+03   -0.19784E-02   -0.31979E+00  1888   0.353E+00    0.451E-01
RMM:   2    -0.649739017445E+03    0.12257E-02   -0.25041E-02  1790   0.334E-01    0.231E-01
RMM:   3    -0.649738391267E+03    0.62618E-03   -0.31636E-03  1788   0.950E-02    0.698E-02
RMM:   4    -0.649738371914E+03    0.19353E-04   -0.25640E-04  1836   0.352E-02    0.204E-02
RMM:   5    -0.649738370764E+03    0.11502E-05   -0.20912E-05  1833   0.878E-03    0.925E-03
RMM:   6    -0.649738370031E+03    0.73271E-06   -0.57706E-06  1730   0.420E-03    0.220E-03
RMM:   7    -0.649738369991E+03    0.39665E-07   -0.27515E-07  1283   0.119E-03
 255 F= -.65709194E+03 E0= -.65709194E+03  d E =-.163421E-32
 Finite differences progress:
  Degree of freedom: 127/153
  Displacement:        2/  2
  Total:             254/306
 bond charge predicted
       N       E                     dE             d eps       ncg     rms          rms(c)
DAV:   1    -0.649738979634E+03   -0.60960E-03   -0.18020E+00  1824   0.267E+00    0.310E-01
RMM:   2    -0.649738705671E+03    0.27396E-03   -0.14051E-02  1787   0.250E-01    0.155E-01
RMM:   3    -0.649738431245E+03    0.27443E-03   -0.13197E-03  1788   0.652E-02    0.492E-02
RMM:   4    -0.649738429593E+03    0.16520E-05   -0.15531E-04  1824   0.250E-02    0.131E-02
RMM:   5    -0.649738428440E+03    0.11533E-05   -0.11024E-05  1759   0.662E-03    0.562E-03
RMM:   6    -0.649738428407E+03    0.33480E-07   -0.22852E-06  1701   0.285E-03    0.109E-03
RMM:   7    -0.649738428400E+03    0.67921E-08   -0.10840E-07  1179   0.838E-04
 256 F= -.65709239E+03 E0= -.65709239E+03  d E =-.768765E-33
 Finite differences progress:
  Degree of freedom: 128/153
  Displacement:        1/  2
  Total:             255/306
 bond charge predicted
       N       E                     dE             d eps       ncg     rms          rms(c)
DAV:   1    -0.649740474257E+03   -0.20459E-02   -0.32440E+00  1792   0.350E+00    0.452E-01
RMM:   2    -0.649739775524E+03    0.69873E-03   -0.24722E-02  1790   0.310E-01    0.230E-01
RMM:   3    -0.649739283102E+03    0.49242E-03   -0.21940E-03  1788   0.814E-02    0.841E-02
RMM:   4    -0.649739273466E+03    0.96354E-05   -0.30472E-04  1831   0.340E-02    0.219E-02
RMM:   5    -0.649739265977E+03    0.74892E-05   -0.33005E-05  1759   0.105E-02    0.620E-03
RMM:   6    -0.649739265706E+03    0.27136E-06   -0.31308E-06  1732   0.360E-03    0.292E-03
RMM:   7    -0.649739265706E+03   -0.53842E-09   -0.71498E-07  1551   0.160E-03
 257 F= -.65709224E+03 E0= -.65709224E+03  d E =-.202166E-32
 Finite differences progress:
  Degree of freedom: 128/153
  Displacement:        2/  2
  Total:             256/306
 bond charge predicted
       N       E                     dE             d eps       ncg     rms          rms(c)
DAV:   1    -0.649742519294E+03   -0.32536E-02   -0.18286E+00  1792   0.266E+00    0.300E-01
RMM:   2    -0.649742382173E+03    0.13712E-03   -0.12697E-02  1790   0.232E-01    0.161E-01
RMM:   3    -0.649742161991E+03    0.22018E-03   -0.11952E-03  1794   0.612E-02    0.574E-02
RMM:   4    -0.649742160228E+03    0.17633E-05   -0.12700E-04  1825   0.234E-02    0.179E-02
RMM:   5    -0.649742157387E+03    0.28403E-05   -0.15818E-05  1752   0.717E-03    0.477E-03
RMM:   6    -0.649742157073E+03    0.31489E-06   -0.13852E-06  1681   0.244E-03    0.225E-03
RMM:   7    -0.649742156861E+03    0.21136E-06   -0.38681E-07  1405   0.120E-03    0.705E-04
RMM:   8    -0.649742156828E+03    0.33117E-07   -0.73840E-08  1148   0.705E-04
 258 F= -.65709576E+03 E0= -.65709576E+03  d E =-.936664E-33
 Finite differences progress:
  Degree of freedom: 129/153
  Displacement:        1/  2
  Total:             257/306
 bond charge predicted
       N       E                     dE             d eps       ncg     rms          rms(c)
DAV:   1    -0.649743181718E+03   -0.10249E-02   -0.31684E+00  1792   0.338E+00    0.305E-01
RMM:   2    -0.649742746526E+03    0.43519E-03   -0.12527E-02  1787   0.237E-01    0.158E-01
RMM:   3    -0.649742409230E+03    0.33730E-03   -0.16091E-03  1792   0.672E-02    0.353E-02
RMM:   4    -0.649742410291E+03   -0.10607E-05   -0.80255E-05  1838   0.204E-02    0.151E-02
RMM:   5    -0.649742409314E+03    0.97734E-06   -0.10781E-05  1754   0.587E-03    0.463E-03
RMM:   6    -0.649742409042E+03    0.27178E-06   -0.13273E-06  1679   0.231E-03    0.158E-03
RMM:   7    -0.649742408935E+03    0.10669E-06   -0.26411E-07  1274   0.969E-04    0.680E-04
RMM:   8    -0.649742408874E+03    0.60751E-07   -0.12570E-07  1175   0.646E-04
 259 F= -.65709579E+03 E0= -.65709579E+03  d E =-.141492E-32
 Finite differences progress:
  Degree of freedom: 129/153
  Displacement:        2/  2
  Total:             258/306
 bond charge predicted
       N       E                     dE             d eps       ncg     rms          rms(c)
DAV:   1    -0.649736267114E+03    0.61418E-02   -0.18094E+00  1824   0.271E+00    0.242E-01
RMM:   2    -0.649736778408E+03   -0.51129E-03   -0.14559E-02  1785   0.252E-01    0.131E-01
RMM:   3    -0.649736601352E+03    0.17706E-03   -0.13793E-03  1807   0.646E-02    0.377E-02
RMM:   4    -0.649736604617E+03   -0.32643E-05   -0.90709E-05  1828   0.213E-02    0.158E-02
RMM:   5    -0.649736603135E+03    0.14812E-05   -0.22022E-05  1746   0.748E-03    0.380E-03
RMM:   6    -0.649736602856E+03    0.27926E-06   -0.14150E-06  1624   0.261E-03    0.180E-03
RMM:   7    -0.649736602836E+03    0.20365E-07   -0.36625E-07  1372   0.115E-03
 260 F= -.65709067E+03 E0= -.65709067E+03  d E =-.271060E-33
 Finite differences progress:
  Degree of freedom: 130/153
  Displacement:        1/  2
  Total:             259/306
 bond charge predicted
       N       E                     dE             d eps       ncg     rms          rms(c)
DAV:   1    -0.649737871225E+03   -0.12684E-02   -0.32199E+00  1856   0.346E+00    0.400E-01
RMM:   2    -0.649738135989E+03   -0.26476E-03   -0.25018E-02  1788   0.321E-01    0.204E-01
RMM:   3    -0.649737747520E+03    0.38847E-03   -0.30019E-03  1803   0.902E-02    0.538E-02
RMM:   4    -0.649737745053E+03    0.24666E-05   -0.19012E-04  1839   0.307E-02    0.199E-02
RMM:   5    -0.649737740305E+03    0.47481E-05   -0.53773E-05  1762   0.109E-02    0.639E-03
RMM:   6    -0.649737739898E+03    0.40766E-06   -0.34913E-06  1706   0.408E-03    0.273E-03
RMM:   7    -0.649737739884E+03    0.13635E-07   -0.71566E-07  1531   0.160E-03
 261 F= -.65709059E+03 E0= -.65709059E+03  d E =-.909844E-33
 Finite differences progress:
  Degree of freedom: 130/153
  Displacement:        2/  2
  Total:             260/306
 bond charge predicted
       N       E                     dE             d eps       ncg     rms          rms(c)
DAV:   1    -0.649737179324E+03    0.56057E-03   -0.18237E+00  1856   0.258E+00    0.292E-01
RMM:   2    -0.649737483454E+03   -0.30413E-03   -0.14214E-02  1785   0.243E-01    0.150E-01
RMM:   3    -0.649737268617E+03    0.21484E-03   -0.12694E-03  1786   0.612E-02    0.418E-02
RMM:   4    -0.649737268826E+03   -0.20958E-06   -0.12192E-04  1862   0.222E-02    0.116E-02
RMM:   5    -0.649737267124E+03    0.17029E-05   -0.11255E-05  1740   0.582E-03    0.491E-03
RMM:   6    -0.649737267096E+03    0.27685E-07   -0.20044E-06  1665   0.265E-03    0.995E-04
RMM:   7    -0.649737267109E+03   -0.13144E-07   -0.11606E-07  1176   0.785E-04
 262 F= -.65709072E+03 E0= -.65709072E+03  d E =-.153506E-34
 Finite differences progress:
  Degree of freedom: 131/153
  Displacement:        1/  2
  Total:             261/306
 bond charge predicted
       N       E                     dE             d eps       ncg     rms          rms(c)
DAV:   1    -0.649737720021E+03   -0.45292E-03   -0.32145E+00  1984   0.339E+00    0.405E-01
RMM:   2    -0.649737869460E+03   -0.14944E-03   -0.26127E-02  1789   0.331E-01    0.211E-01
RMM:   3    -0.649737421625E+03    0.44784E-03   -0.24785E-03  1792   0.857E-02    0.653E-02
RMM:   4    -0.649737414715E+03    0.69096E-05   -0.25013E-04  1867   0.318E-02    0.188E-02
RMM:   5    -0.649737411238E+03    0.34771E-05   -0.24091E-05  1770   0.886E-03    0.698E-03
RMM:   6    -0.649737411095E+03    0.14243E-06   -0.36130E-06  1730   0.367E-03    0.189E-03
RMM:   7    -0.649737411173E+03   -0.77052E-07   -0.34142E-07  1332   0.119E-03
 263 F= -.65709095E+03 E0= -.65709095E+03  d E =-.186014E-32
 Finite differences progress:
  Degree of freedom: 131/153
  Displacement:        2/  2
  Total:             262/306
 bond charge predicted
       N       E                     dE             d eps       ncg     rms          rms(c)
DAV:   1    -0.649741796448E+03   -0.43854E-02   -0.18382E+00  1856   0.262E+00    0.268E-01
RMM:   2    -0.649741983546E+03   -0.18710E-03   -0.12953E-02  1789   0.237E-01    0.138E-01
RMM:   3    -0.649741827091E+03    0.15645E-03   -0.12340E-03  1788   0.602E-02    0.389E-02
RMM:   4    -0.649741830602E+03   -0.35107E-05   -0.11266E-04  1862   0.219E-02    0.115E-02
RMM:   5    -0.649741829227E+03    0.13747E-05   -0.12695E-05  1744   0.614E-03    0.423E-03
RMM:   6    -0.649741829162E+03    0.65615E-07   -0.14022E-06  1651   0.248E-03    0.130E-03
RMM:   7    -0.649741829172E+03   -0.99717E-08   -0.19017E-07  1214   0.872E-04
 264 F= -.65709507E+03 E0= -.65709507E+03  d E =-.671352E-33
 Finite differences progress:
  Degree of freedom: 132/153
  Displacement:        1/  2
  Total:             263/306
 bond charge predicted
       N       E                     dE             d eps       ncg     rms          rms(c)
DAV:   1    -0.649741238228E+03    0.59093E-03   -0.32740E+00  1792   0.336E+00    0.260E-01
RMM:   2    -0.649741453374E+03   -0.21515E-03   -0.13992E-02  1787   0.245E-01    0.143E-01
RMM:   3    -0.649741288716E+03    0.16466E-03   -0.14210E-03  1787   0.638E-02    0.343E-02
RMM:   4    -0.649741305060E+03   -0.16344E-04   -0.99525E-05  1861   0.210E-02    0.148E-02
RMM:   5    -0.649741306308E+03   -0.12478E-05   -0.18452E-05  1743   0.738E-03    0.386E-03
RMM:   6    -0.649741306148E+03    0.15940E-06   -0.18505E-06  1658   0.272E-03    0.170E-03
RMM:   7    -0.649741306145E+03    0.30086E-08   -0.28214E-07  1282   0.105E-03
 265 F= -.65709505E+03 E0= -.65709505E+03  d E =-.689156E-33
 Finite differences progress:
  Degree of freedom: 132/153
  Displacement:        2/  2
  Total:             264/306
 bond charge predicted
       N       E                     dE             d eps       ncg     rms          rms(c)
DAV:   1    -0.649736839179E+03    0.44670E-02   -0.18369E+00  1824   0.270E+00    0.237E-01
RMM:   2    -0.649737648785E+03   -0.80961E-03   -0.15700E-02  1792   0.262E-01    0.129E-01
RMM:   3    -0.649737496102E+03    0.15268E-03   -0.12559E-03  1796   0.629E-02    0.361E-02
RMM:   4    -0.649737503854E+03   -0.77522E-05   -0.11244E-04  1847   0.224E-02    0.131E-02
RMM:   5    -0.649737502097E+03    0.17569E-05   -0.20107E-05  1746   0.737E-03    0.391E-03
RMM:   6    -0.649737502054E+03    0.42910E-07   -0.14386E-06  1637   0.272E-03    0.170E-03
RMM:   7    -0.649737502063E+03   -0.90004E-08   -0.28702E-07  1316   0.105E-03
 266 F= -.65709036E+03 E0= -.65709036E+03  d E =-.786891E-36
 Finite differences progress:
  Degree of freedom: 133/153
  Displacement:        1/  2
  Total:             265/306
 bond charge predicted
       N       E                     dE             d eps       ncg     rms          rms(c)
DAV:   1    -0.649736476573E+03    0.10255E-02   -0.31928E+00  1856   0.344E+00    0.400E-01
RMM:   2    -0.649736857185E+03   -0.38061E-03   -0.25463E-02  1788   0.323E-01    0.209E-01
RMM:   3    -0.649736427681E+03    0.42950E-03   -0.28451E-03  1795   0.876E-02    0.578E-02
RMM:   4    -0.649736422989E+03    0.46927E-05   -0.19898E-04  1839   0.302E-02    0.203E-02
RMM:   5    -0.649736417918E+03    0.50706E-05   -0.45095E-05  1757   0.101E-02    0.635E-03
RMM:   6    -0.649736417589E+03    0.32859E-06   -0.27301E-06  1686   0.373E-03    0.259E-03
RMM:   7    -0.649736417593E+03   -0.40600E-08   -0.67126E-07  1519   0.151E-03
 267 F= -.65709048E+03 E0= -.65709048E+03  d E =-.185233E-31
 Finite differences progress:
  Degree of freedom: 133/153
  Displacement:        2/  2
  Total:             266/306
 bond charge predicted
       N       E                     dE             d eps       ncg     rms          rms(c)
DAV:   1    -0.649740641713E+03   -0.42241E-02   -0.18293E+00  1824   0.261E+00    0.266E-01
RMM:   2    -0.649740941787E+03   -0.30007E-03   -0.12430E-02  1784   0.229E-01    0.138E-01
RMM:   3    -0.649740764534E+03    0.17725E-03   -0.11645E-03  1786   0.584E-02    0.350E-02
RMM:   4    -0.649740767128E+03   -0.25936E-05   -0.97365E-05  1846   0.206E-02    0.106E-02
RMM:   5    -0.649740765545E+03    0.15825E-05   -0.13254E-05  1750   0.585E-03    0.379E-03
RMM:   6    -0.649740765598E+03   -0.53296E-07   -0.12366E-06  1577   0.228E-03    0.111E-03
RMM:   7    -0.649740765625E+03   -0.26739E-07   -0.16114E-07  1220   0.793E-04
 268 F= -.65709412E+03 E0= -.65709412E+03  d E =-.186228E-33
 Finite differences progress:
  Degree of freedom: 134/153
  Displacement:        1/  2
  Total:             267/306
 bond charge predicted
       N       E                     dE             d eps       ncg     rms          rms(c)
DAV:   1    -0.649740470777E+03    0.29482E-03   -0.32617E+00  1792   0.344E+00    0.308E-01
RMM:   2    -0.649740712437E+03   -0.24166E-03   -0.16394E-02  1788   0.268E-01    0.163E-01
RMM:   3    -0.649740431478E+03    0.28096E-03   -0.15986E-03  1789   0.669E-02    0.396E-02
RMM:   4    -0.649740438956E+03   -0.74786E-05   -0.12635E-04  1839   0.230E-02    0.135E-02
RMM:   5    -0.649740437623E+03    0.13330E-05   -0.14458E-05  1752   0.675E-03    0.477E-03
RMM:   6    -0.649740437726E+03   -0.10249E-06   -0.19533E-06  1673   0.273E-03    0.111E-03
RMM:   7    -0.649740437744E+03   -0.18583E-07   -0.16348E-07  1214   0.821E-04
 269 F= -.65709407E+03 E0= -.65709407E+03  d E =-.721899E-33
 Finite differences progress:
  Degree of freedom: 134/153
  Displacement:        2/  2
  Total:             268/306
 bond charge predicted
       N       E                     dE             d eps       ncg     rms          rms(c)
DAV:   1    -0.649738485882E+03    0.19518E-02   -0.18296E+00  1888   0.264E+00    0.291E-01
RMM:   2    -0.649738656864E+03   -0.17098E-03   -0.14296E-02  1788   0.245E-01    0.149E-01
RMM:   3    -0.649738439376E+03    0.21749E-03   -0.12665E-03  1787   0.603E-02    0.486E-02
RMM:   4    -0.649738434936E+03    0.44395E-05   -0.13711E-04  1839   0.228E-02    0.137E-02
RMM:   5    -0.649738433061E+03    0.18751E-05   -0.12640E-05  1752   0.647E-03    0.495E-03
RMM:   6    -0.649738433004E+03    0.57731E-07   -0.18176E-06  1669   0.258E-03    0.143E-03
RMM:   7    -0.649738433027E+03   -0.23203E-07   -0.17651E-07  1220   0.884E-04
 270 F= -.65709223E+03 E0= -.65709223E+03  d E =-.759703E-34
 Finite differences progress:
  Degree of freedom: 135/153
  Displacement:        1/  2
  Total:             269/306
 bond charge predicted
       N       E                     dE             d eps       ncg     rms          rms(c)
DAV:   1    -0.649739160606E+03   -0.72760E-03   -0.32453E+00  1920   0.345E+00    0.372E-01
RMM:   2    -0.649739246644E+03   -0.86038E-04   -0.22593E-02  1792   0.307E-01    0.189E-01
RMM:   3    -0.649738887766E+03    0.35888E-03   -0.22645E-03  1795   0.792E-02    0.541E-02
RMM:   4    -0.649738888578E+03   -0.81223E-06   -0.19756E-04  1849   0.287E-02    0.163E-02
RMM:   5    -0.649738885749E+03    0.28293E-05   -0.24191E-05  1765   0.860E-03    0.571E-03
RMM:   6    -0.649738885616E+03    0.13304E-06   -0.26095E-06  1732   0.339E-03    0.179E-03
RMM:   7    -0.649738885617E+03   -0.13897E-08   -0.36354E-07  1355   0.112E-03
 271 F= -.65709207E+03 E0= -.65709207E+03  d E =-.409925E-32
 Finite differences progress:
  Degree of freedom: 135/153
  Displacement:        2/  2
  Total:             270/306
 bond charge predicted
       N       E                     dE             d eps       ncg     rms          rms(c)
DAV:   1    -0.649738380142E+03    0.50547E-03   -0.18271E+00  1856   0.273E+00    0.293E-01
RMM:   2    -0.649738560871E+03   -0.18073E-03   -0.17103E-02  1787   0.273E-01    0.151E-01
RMM:   3    -0.649738357625E+03    0.20325E-03   -0.15336E-03  1788   0.678E-02    0.534E-02
RMM:   4    -0.649738349447E+03    0.81777E-05   -0.14392E-04  1839   0.252E-02    0.151E-02
RMM:   5    -0.649738349692E+03   -0.24489E-06   -0.12049E-05  1818   0.651E-03    0.612E-03
RMM:   6    -0.649738349532E+03    0.15944E-06   -0.24792E-06  1683   0.287E-03    0.156E-03
RMM:   7    -0.649738349543E+03   -0.10772E-07   -0.16554E-07  1213   0.903E-04
 272 F= -.65709187E+03 E0= -.65709187E+03  d E =-.683285E-30
 Finite differences progress:
  Degree of freedom: 136/153
  Displacement:        1/  2
  Total:             271/306
 bond charge predicted
       N       E                     dE             d eps       ncg     rms          rms(c)
DAV:   1    -0.649740335287E+03   -0.19858E-02   -0.32145E+00  1888   0.351E+00    0.468E-01
RMM:   2    -0.649738822065E+03    0.15132E-02   -0.24111E-02  1792   0.323E-01    0.228E-01
RMM:   3    -0.649738195567E+03    0.62650E-03   -0.30693E-03  1790   0.915E-02    0.660E-02
RMM:   4    -0.649738176243E+03    0.19324E-04   -0.26110E-04  1832   0.342E-02    0.161E-02
RMM:   5    -0.649738174457E+03    0.17859E-05   -0.19250E-05  1814   0.854E-03    0.792E-03
RMM:   6    -0.649738173888E+03    0.56938E-06   -0.58240E-06  1736   0.413E-03    0.191E-03
RMM:   7    -0.649738173890E+03   -0.18772E-08   -0.25778E-07  1279   0.118E-03
 273 F= -.65709164E+03 E0= -.65709164E+03  d E =-.115522E-35
 Finite differences progress:
  Degree of freedom: 136/153
  Displacement:        2/  2
  Total:             272/306
 bond charge predicted
       N       E                     dE             d eps       ncg     rms          rms(c)
DAV:   1    -0.649742538627E+03   -0.43647E-02   -0.18099E+00  1856   0.263E+00    0.301E-01
RMM:   2    -0.649742142619E+03    0.39601E-03   -0.12622E-02  1786   0.235E-01    0.149E-01
RMM:   3    -0.649741860203E+03    0.28242E-03   -0.13239E-03  1787   0.643E-02    0.435E-02
RMM:   4    -0.649741857405E+03    0.27985E-05   -0.13824E-04  1837   0.242E-02    0.113E-02
RMM:   5    -0.649741856428E+03    0.97666E-06   -0.95172E-06  1751   0.606E-03    0.491E-03
RMM:   6    -0.649741856449E+03   -0.21057E-07   -0.20817E-06  1676   0.272E-03    0.932E-04
RMM:   7    -0.649741856469E+03   -0.19634E-07   -0.94988E-08  1168   0.798E-04
 274 F= -.65709496E+03 E0= -.65709496E+03  d E =-.125362E-33
 Finite differences progress:
  Degree of freedom: 137/153
  Displacement:        1/  2
  Total:             273/306
 bond charge predicted
       N       E                     dE             d eps       ncg     rms          rms(c)
DAV:   1    -0.649741864788E+03   -0.83392E-05   -0.31789E+00  1792   0.342E+00    0.331E-01
RMM:   2    -0.649741508162E+03    0.35663E-03   -0.16009E-02  1792   0.262E-01    0.175E-01
RMM:   3    -0.649741126474E+03    0.38169E-03   -0.16539E-03  1792   0.708E-02    0.551E-02
RMM:   4    -0.649741132973E+03   -0.64998E-05   -0.16056E-04  1817   0.256E-02    0.210E-02
RMM:   5    -0.649741131546E+03    0.14277E-05   -0.20134E-05  1773   0.790E-03    0.451E-03
RMM:   6    -0.649741131394E+03    0.15215E-06   -0.14986E-06  1699   0.255E-03    0.210E-03
RMM:   7    -0.649741131351E+03    0.42892E-07   -0.29727E-07  1300   0.100E-03
 275 F= -.65709500E+03 E0= -.65709500E+03  d E =-.301497E-32
 Finite differences progress:
  Degree of freedom: 137/153
  Displacement:        2/  2
  Total:             274/306
 bond charge predicted
       N       E                     dE             d eps       ncg     rms          rms(c)
DAV:   1    -0.649740494181E+03    0.63721E-03   -0.18506E+00  1792   0.266E+00    0.326E-01
RMM:   2    -0.649740198958E+03    0.29522E-03   -0.13022E-02  1790   0.233E-01    0.169E-01
RMM:   3    -0.649739951513E+03    0.24744E-03   -0.12419E-03  1785   0.611E-02    0.612E-02
RMM:   4    -0.649739946380E+03    0.51326E-05   -0.14865E-04  1832   0.246E-02    0.173E-02
RMM:   5    -0.649739941544E+03    0.48368E-05   -0.17705E-05  1766   0.758E-03    0.490E-03
RMM:   6    -0.649739941239E+03    0.30475E-06   -0.19799E-06  1698   0.272E-03    0.233E-03
RMM:   7    -0.649739941162E+03    0.76976E-07   -0.44090E-07  1442   0.132E-03
 276 F= -.65709307E+03 E0= -.65709307E+03  d E =-.473398E-35
 Finite differences progress:
  Degree of freedom: 138/153
  Displacement:        1/  2
  Total:             275/306
 bond charge predicted
       N       E                     dE             d eps       ncg     rms          rms(c)
DAV:   1    -0.649740230360E+03   -0.28912E-03   -0.32202E+00  1792   0.346E+00    0.418E-01
RMM:   2    -0.649739733379E+03    0.49698E-03   -0.21802E-02  1794   0.302E-01    0.225E-01
RMM:   3    -0.649739285373E+03    0.44801E-03   -0.22631E-03  1798   0.826E-02    0.792E-02
RMM:   4    -0.649739284014E+03    0.13593E-05   -0.22752E-04  1833   0.318E-02    0.267E-02
RMM:   5    -0.649739277772E+03    0.62413E-05   -0.29854E-05  1772   0.981E-03    0.716E-03
RMM:   6    -0.649739277003E+03    0.76896E-06   -0.26309E-06  1727   0.329E-03    0.342E-03
RMM:   7    -0.649739276543E+03    0.46013E-06   -0.79212E-07  1622   0.165E-03    0.107E-03
RMM:   8    -0.649739276436E+03    0.10743E-06   -0.14418E-07  1193   0.809E-04    0.618E-04
RMM:   9    -0.649739276363E+03    0.73011E-07   -0.93492E-08  1155   0.604E-04
 277 F= -.65709310E+03 E0= -.65709310E+03  d E =-.155135E-31
 Finite differences progress:
  Degree of freedom: 138/153
  Displacement:        2/  2
  Total:             276/306
 bond charge predicted
       N       E                     dE             d eps       ncg     rms          rms(c)
DAV:   1    -0.649739299804E+03   -0.23368E-04   -0.21667E+00  1792   0.305E+00    0.324E-01
RMM:   2    -0.649739738295E+03   -0.43849E-03   -0.20435E-02  1794   0.317E-01    0.173E-01
RMM:   3    -0.649739437124E+03    0.30117E-03   -0.19427E-03  1794   0.834E-02    0.547E-02
RMM:   4    -0.649739433665E+03    0.34586E-05   -0.18358E-04  1848   0.286E-02    0.219E-02
RMM:   5    -0.649739431129E+03    0.25357E-05   -0.18270E-05  1774   0.824E-03    0.824E-03
RMM:   6    -0.649739430836E+03    0.29358E-06   -0.42217E-06  1752   0.381E-03    0.287E-03
RMM:   7    -0.649739430835E+03    0.65847E-09   -0.46794E-07  1457   0.148E-03
 278 F= -.65709283E+03 E0= -.65709283E+03  d E =-.120763E-15
 Finite differences progress:
  Degree of freedom: 139/153
  Displacement:        1/  2
  Total:             277/306
 bond charge predicted
       N       E                     dE             d eps       ncg     rms          rms(c)
DAV:   1    -0.649741445854E+03   -0.20150E-02   -0.43936E+00  1792   0.375E+00    0.509E-01
RMM:   2    -0.649740175082E+03    0.12708E-02   -0.30936E-02  1791   0.338E-01    0.250E-01
RMM:   3    -0.649739488060E+03    0.68702E-03   -0.42384E-03  1806   0.101E-01    0.726E-02
RMM:   4    -0.649739487996E+03    0.64250E-07   -0.29002E-04  1816   0.345E-02    0.296E-02
RMM:   5    -0.649739483514E+03    0.44821E-05   -0.50096E-05  1792   0.122E-02    0.956E-03
RMM:   6    -0.649739482821E+03    0.69318E-06   -0.63488E-06  1749   0.480E-03    0.463E-03
RMM:   7    -0.649739481938E+03    0.88240E-06   -0.23005E-06  1714   0.270E-03    0.140E-03
RMM:   8    -0.649739481719E+03    0.21951E-06   -0.36265E-07  1344   0.104E-03    0.942E-04
RMM:   9    -0.649739481537E+03    0.18176E-06   -0.46196E-07  1486   0.101E-03    0.488E-04
RMM:  10    -0.649739481515E+03    0.21664E-07   -0.57804E-08  1157   0.490E-04
 279 F= -.65709306E+03 E0= -.65709306E+03  d E =-.935382E-35
 Finite differences progress:
  Degree of freedom: 139/153
  Displacement:        2/  2
  Total:             278/306
 bond charge predicted
       N       E                     dE             d eps       ncg     rms          rms(c)
DAV:   1    -0.649742153291E+03   -0.26718E-02   -0.25199E+00  1792   0.290E+00    0.300E-01
RMM:   2    -0.649742524109E+03   -0.37082E-03   -0.14933E-02  1791   0.222E-01    0.161E-01
RMM:   3    -0.649742351708E+03    0.17240E-03   -0.15123E-03  1804   0.629E-02    0.364E-02
RMM:   4    -0.649742351773E+03   -0.65593E-07   -0.11160E-04  1858   0.199E-02    0.160E-02
RMM:   5    -0.649742348935E+03    0.28380E-05   -0.20298E-05  1773   0.712E-03    0.567E-03
RMM:   6    -0.649742348594E+03    0.34131E-06   -0.18029E-06  1686   0.260E-03    0.255E-03
RMM:   7    -0.649742348324E+03    0.27016E-06   -0.63829E-07  1553   0.138E-03    0.831E-04
RMM:   8    -0.649742348251E+03    0.72563E-07   -0.10105E-07  1167   0.628E-04
 280 F= -.65709584E+03 E0= -.65709584E+03  d E =-.147798E-34
 Finite differences progress:
  Degree of freedom: 140/153
  Displacement:        1/  2
  Total:             279/306
 bond charge predicted
       N       E                     dE             d eps       ncg     rms          rms(c)
DAV:   1    -0.649742216987E+03    0.13134E-03   -0.45401E+00  1792   0.377E+00    0.365E-01
RMM:   2    -0.649742634466E+03   -0.41748E-03   -0.19423E-02  1791   0.262E-01    0.190E-01
RMM:   3    -0.649742359560E+03    0.27491E-03   -0.15994E-03  1810   0.654E-02    0.606E-02
RMM:   4    -0.649742348939E+03    0.10621E-04   -0.21535E-04  1809   0.248E-02    0.149E-02
RMM:   5    -0.649742347679E+03    0.12604E-05   -0.13223E-05  1839   0.701E-03    0.792E-03
RMM:   6    -0.649742347117E+03    0.56187E-06   -0.59841E-06  1709   0.381E-03    0.243E-03
RMM:   7    -0.649742347018E+03    0.98949E-07   -0.37515E-07  1338   0.121E-03
 281 F= -.65709584E+03 E0= -.65709584E+03  d E =-.165016E-25
 Finite differences progress:
  Degree of freedom: 140/153
  Displacement:        2/  2
  Total:             280/306
 bond charge predicted
       N       E                     dE             d eps       ncg     rms          rms(c)
DAV:   1    -0.649742754167E+03   -0.40705E-03   -0.25532E+00  1792   0.285E+00    0.234E-01
RMM:   2    -0.649743180427E+03   -0.42626E-03   -0.11153E-02  1791   0.194E-01    0.127E-01
RMM:   3    -0.649743020782E+03    0.15964E-03   -0.88442E-04  1796   0.483E-02    0.343E-02
RMM:   4    -0.649743019368E+03    0.14141E-05   -0.99189E-05  1815   0.171E-02    0.113E-02
RMM:   5    -0.649743018004E+03    0.13638E-05   -0.71253E-06  1751   0.461E-03    0.584E-03
RMM:   6    -0.649743017241E+03    0.76320E-06   -0.24540E-06  1693   0.264E-03    0.159E-03
RMM:   7    -0.649743017065E+03    0.17665E-06   -0.29992E-07  1303   0.101E-03    0.868E-04
RMM:   8    -0.649743016936E+03    0.12892E-06   -0.25279E-07  1281   0.804E-04    0.448E-04
RMM:   9    -0.649743016907E+03    0.28529E-07   -0.52981E-08  1157   0.492E-04
 282 F= -.65709656E+03 E0= -.65709656E+03  d E =-.133872E-25
 Finite differences progress:
  Degree of freedom: 141/153
  Displacement:        1/  2
  Total:             281/306
 bond charge predicted
       N       E                     dE             d eps       ncg     rms          rms(c)
DAV:   1    -0.649743497046E+03   -0.48011E-03   -0.44091E+00  1792   0.368E+00    0.303E-01
RMM:   2    -0.649743591896E+03   -0.94850E-04   -0.19335E-02  1791   0.267E-01    0.157E-01
RMM:   3    -0.649743143923E+03    0.44797E-03   -0.20187E-03  1799   0.725E-02    0.390E-02
RMM:   4    -0.649743141038E+03    0.28844E-05   -0.15373E-04  1814   0.224E-02    0.178E-02
RMM:   5    -0.649743136028E+03    0.50098E-05   -0.27127E-05  1785   0.786E-03    0.548E-03
RMM:   6    -0.649743134544E+03    0.14847E-05   -0.29934E-06  1700   0.318E-03    0.295E-03
RMM:   7    -0.649743133693E+03    0.85106E-06   -0.14253E-06  1650   0.180E-03    0.137E-03
RMM:   8    -0.649743133379E+03    0.31396E-06   -0.42355E-07  1411   0.106E-03    0.890E-04
RMM:   9    -0.649743133244E+03    0.13464E-06   -0.32652E-07  1314   0.849E-04    0.301E-04
RMM:  10    -0.649743133237E+03    0.69995E-08   -0.47485E-08  1157   0.460E-04
 283 F= -.65709657E+03 E0= -.65709657E+03  d E =-.427809E-34
 Finite differences progress:
  Degree of freedom: 141/153
  Displacement:        2/  2
  Total:             282/306
 bond charge predicted
       N       E                     dE             d eps       ncg     rms          rms(c)
DAV:   1    -0.649741230769E+03    0.19025E-02   -0.25315E+00  1792   0.289E+00    0.225E-01
RMM:   2    -0.649742203844E+03   -0.97308E-03   -0.17447E-02  1791   0.247E-01    0.124E-01
RMM:   3    -0.649741951084E+03    0.25276E-03   -0.12114E-03  1800   0.601E-02    0.338E-02
RMM:   4    -0.649741944921E+03    0.61637E-05   -0.15669E-04  1830   0.209E-02    0.132E-02
RMM:   5    -0.649741943258E+03    0.16627E-05   -0.97285E-06  1803   0.560E-03    0.650E-03
RMM:   6    -0.649741942091E+03    0.11668E-05   -0.39433E-06  1742   0.331E-03    0.199E-03
RMM:   7    -0.649741941709E+03    0.38209E-06   -0.75778E-07  1580   0.145E-03    0.104E-03
RMM:   8    -0.649741941527E+03    0.18180E-06   -0.30102E-07  1304   0.889E-04    0.529E-04
RMM:   9    -0.649741941481E+03    0.46319E-07   -0.10182E-07  1161   0.541E-04
 284 F= -.65709552E+03 E0= -.65709552E+03  d E =-.278577E-33
 Finite differences progress:
  Degree of freedom: 142/153
  Displacement:        1/  2
  Total:             283/306
 bond charge predicted
       N       E                     dE             d eps       ncg     rms          rms(c)
DAV:   1    -0.649742643347E+03   -0.70182E-03   -0.45431E+00  1792   0.365E+00    0.356E-01
RMM:   2    -0.649742535965E+03    0.10738E-03   -0.19776E-02  1790   0.261E-01    0.187E-01
RMM:   3    -0.649742111943E+03    0.42402E-03   -0.25671E-03  1803   0.760E-02    0.519E-02
RMM:   4    -0.649742099190E+03    0.12753E-04   -0.16955E-04  1814   0.226E-02    0.221E-02
RMM:   5    -0.649742096585E+03    0.26045E-05   -0.20417E-05  1795   0.777E-03    0.859E-03
RMM:   6    -0.649742095996E+03    0.58915E-06   -0.51408E-06  1708   0.377E-03    0.326E-03
RMM:   7    -0.649742095817E+03    0.17936E-06   -0.92229E-07  1581   0.173E-03    0.147E-03
RMM:   8    -0.649742095746E+03    0.71068E-07   -0.28070E-07  1292   0.896E-04
 285 F= -.65709549E+03 E0= -.65709549E+03  d E =-.298666E-23
 Finite differences progress:
  Degree of freedom: 142/153
  Displacement:        2/  2
  Total:             284/306
 bond charge predicted
       N       E                     dE             d eps       ncg     rms          rms(c)
DAV:   1    -0.649737839913E+03    0.42559E-02   -0.25710E+00  1792   0.280E+00    0.236E-01
RMM:   2    -0.649738266830E+03   -0.42692E-03   -0.12361E-02  1790   0.201E-01    0.123E-01
RMM:   3    -0.649738111621E+03    0.15521E-03   -0.11584E-03  1800   0.521E-02    0.303E-02
RMM:   4    -0.649738112436E+03   -0.81454E-06   -0.73954E-05  1823   0.145E-02    0.136E-02
RMM:   5    -0.649738111353E+03    0.10824E-05   -0.10758E-05  1753   0.494E-03    0.503E-03
RMM:   6    -0.649738111387E+03   -0.33462E-07   -0.15846E-06  1637   0.232E-03    0.214E-03
RMM:   7    -0.649738111364E+03    0.22843E-07   -0.38408E-07  1367   0.113E-03
 286 F= -.65709149E+03 E0= -.65709149E+03  d E =-.121521E-16
 Finite differences progress:
  Degree of freedom: 143/153
  Displacement:        1/  2
  Total:             285/306
 bond charge predicted
       N       E                     dE             d eps       ncg     rms          rms(c)
DAV:   1    -0.649740594712E+03   -0.24833E-02   -0.44395E+00  1792   0.378E+00    0.526E-01
RMM:   2    -0.649739321577E+03    0.12731E-02   -0.31951E-02  1791   0.338E-01    0.262E-01
RMM:   3    -0.649738367467E+03    0.95411E-03   -0.46334E-03  1801   0.101E-01    0.786E-02
RMM:   4    -0.649738331822E+03    0.35645E-04   -0.23424E-04  1822   0.289E-02    0.338E-02
RMM:   5    -0.649738320149E+03    0.11672E-04   -0.78140E-05  1791   0.133E-02    0.829E-03
RMM:   6    -0.649738319818E+03    0.33094E-06   -0.40043E-06  1745   0.413E-03    0.448E-03
RMM:   7    -0.649738319933E+03   -0.11477E-06   -0.19630E-06  1680   0.255E-03    0.161E-03
RMM:   8    -0.649738319913E+03    0.20198E-07   -0.24723E-07  1269   0.878E-04
 287 F= -.65709192E+03 E0= -.65709192E+03  d E =-.268506E-31
 Finite differences progress:
  Degree of freedom: 143/153
  Displacement:        2/  2
  Total:             286/306
 bond charge predicted
       N       E                     dE             d eps       ncg     rms          rms(c)
DAV:   1    -0.649743920920E+03   -0.56010E-02   -0.25250E+00  1792   0.283E+00    0.298E-01
RMM:   2    -0.649743917564E+03    0.33561E-05   -0.14087E-02  1791   0.219E-01    0.152E-01
RMM:   3    -0.649743652283E+03    0.26528E-03   -0.17218E-03  1806   0.635E-02    0.397E-02
RMM:   4    -0.649743642706E+03    0.95773E-05   -0.85017E-05  1814   0.169E-02    0.177E-02
RMM:   5    -0.649743640177E+03    0.25288E-05   -0.19794E-05  1781   0.680E-03    0.560E-03
RMM:   6    -0.649743640151E+03    0.25844E-07   -0.19402E-06  1675   0.271E-03    0.287E-03
RMM:   7    -0.649743640107E+03    0.43638E-07   -0.50556E-07  1503   0.137E-03
 288 F= -.65709726E+03 E0= -.65709726E+03  d E =-.605317E-33
 Finite differences progress:
  Degree of freedom: 144/153
  Displacement:        1/  2
  Total:             287/306
 bond charge predicted
       N       E                     dE             d eps       ncg     rms          rms(c)
DAV:   1    -0.649744555275E+03   -0.91512E-03   -0.43751E+00  1792   0.363E+00    0.321E-01
RMM:   2    -0.649744205223E+03    0.35005E-03   -0.15057E-02  1790   0.231E-01    0.172E-01
RMM:   3    -0.649743838509E+03    0.36671E-03   -0.19713E-03  1793   0.707E-02    0.329E-02
RMM:   4    -0.649743845335E+03   -0.68261E-05   -0.81179E-05  1846   0.163E-02    0.184E-02
RMM:   5    -0.649743847214E+03   -0.18788E-05   -0.11022E-05  1774   0.584E-03    0.500E-03
RMM:   6    -0.649743847143E+03    0.71592E-07   -0.15666E-06  1660   0.235E-03    0.164E-03
RMM:   7    -0.649743847040E+03    0.10224E-06   -0.27926E-07  1290   0.928E-04    0.970E-04
RMM:   8    -0.649743846939E+03    0.10084E-06   -0.25584E-07  1293   0.831E-04    0.381E-04
RMM:   9    -0.649743846920E+03    0.19179E-07   -0.61172E-08  1154   0.453E-04
 289 F= -.65709721E+03 E0= -.65709721E+03  d E =-.764677E-33
 Finite differences progress:
  Degree of freedom: 144/153
  Displacement:        2/  2
  Total:             288/306
 bond charge predicted
       N       E                     dE             d eps       ncg     rms          rms(c)
DAV:   1    -0.649742496274E+03    0.13507E-02   -0.25206E+00  1792   0.289E+00    0.227E-01
RMM:   2    -0.649743021033E+03   -0.52476E-03   -0.13481E-02  1792   0.227E-01    0.124E-01
RMM:   3    -0.649742827567E+03    0.19347E-03   -0.11414E-03  1793   0.573E-02    0.292E-02
RMM:   4    -0.649742831042E+03   -0.34756E-05   -0.77253E-05  1823   0.165E-02    0.140E-02
RMM:   5    -0.649742831625E+03   -0.58250E-06   -0.86832E-06  1753   0.498E-03    0.561E-03
RMM:   6    -0.649742831831E+03   -0.20599E-06   -0.15958E-06  1666   0.246E-03    0.160E-03
RMM:   7    -0.649742831834E+03   -0.36307E-08   -0.19587E-07  1216   0.896E-04
 290 F= -.65709623E+03 E0= -.65709623E+03  d E =-.239032E-32
 Finite differences progress:
  Degree of freedom: 145/153
  Displacement:        1/  2
  Total:             289/306
 bond charge predicted
       N       E                     dE             d eps       ncg     rms          rms(c)
DAV:   1    -0.649742765799E+03    0.66032E-04   -0.45048E+00  1792   0.360E+00    0.330E-01
RMM:   2    -0.649743014941E+03   -0.24914E-03   -0.20178E-02  1792   0.264E-01    0.175E-01
RMM:   3    -0.649742633350E+03    0.38159E-03   -0.18675E-03  1799   0.663E-02    0.507E-02
RMM:   4    -0.649742641717E+03   -0.83678E-05   -0.17840E-04  1817   0.224E-02    0.184E-02
RMM:   5    -0.649742640878E+03    0.83932E-06   -0.23495E-05  1782   0.770E-03    0.490E-03
RMM:   6    -0.649742641022E+03   -0.14368E-06   -0.20117E-06  1658   0.260E-03    0.246E-03
RMM:   7    -0.649742641030E+03   -0.81418E-08   -0.95620E-07  1579   0.152E-03
 291 F= -.65709622E+03 E0= -.65709622E+03  d E =-.377520E-33
 Finite differences progress:
  Degree of freedom: 145/153
  Displacement:        2/  2
  Total:             290/306
 bond charge predicted
       N       E                     dE             d eps       ncg     rms          rms(c)
DAV:   1    -0.649739107051E+03    0.35340E-02   -0.24985E+00  1792   0.277E+00    0.251E-01
RMM:   2    -0.649739261746E+03   -0.15469E-03   -0.12024E-02  1792   0.203E-01    0.131E-01
RMM:   3    -0.649739086968E+03    0.17478E-03   -0.11787E-03  1799   0.532E-02    0.301E-02
RMM:   4    -0.649739092906E+03   -0.59373E-05   -0.61687E-05  1833   0.137E-02    0.148E-02
RMM:   5    -0.649739093245E+03   -0.33899E-06   -0.14405E-05  1765   0.589E-03    0.382E-03
RMM:   6    -0.649739093100E+03    0.14504E-06   -0.10495E-06  1585   0.207E-03    0.201E-03
RMM:   7    -0.649739093038E+03    0.61289E-07   -0.47287E-07  1443   0.119E-03
 292 F= -.65709274E+03 E0= -.65709274E+03  d E =-.181758E-33
 Finite differences progress:
  Degree of freedom: 146/153
  Displacement:        1/  2
  Total:             291/306
 bond charge predicted
       N       E                     dE             d eps       ncg     rms          rms(c)
DAV:   1    -0.649741705343E+03   -0.26122E-02   -0.44129E+00  1792   0.375E+00    0.508E-01
RMM:   2    -0.649740044970E+03    0.16604E-02   -0.27316E-02  1792   0.320E-01    0.253E-01
RMM:   3    -0.649739244403E+03    0.80057E-03   -0.44535E-03  1796   0.100E-01    0.709E-02
RMM:   4    -0.649739212139E+03    0.32264E-04   -0.20835E-04  1814   0.270E-02    0.317E-02
RMM:   5    -0.649739208101E+03    0.40382E-05   -0.43075E-05  1795   0.110E-02    0.100E-02
RMM:   6    -0.649739208093E+03    0.79890E-08   -0.66478E-06  1725   0.454E-03    0.465E-03
RMM:   7    -0.649739208157E+03   -0.63545E-07   -0.13244E-06  1669   0.214E-03    0.157E-03
RMM:   8    -0.649739208172E+03   -0.15687E-07   -0.23230E-07  1258   0.934E-04
 293 F= -.65709254E+03 E0= -.65709254E+03  d E =-.291513E-26
 Finite differences progress:
  Degree of freedom: 146/153
  Displacement:        2/  2
  Total:             292/306
 bond charge predicted
       N       E                     dE             d eps       ncg     rms          rms(c)
DAV:   1    -0.649743093409E+03   -0.38853E-02   -0.25165E+00  1792   0.287E+00    0.382E-01
RMM:   2    -0.649742597062E+03    0.49635E-03   -0.18573E-02  1791   0.255E-01    0.188E-01
RMM:   3    -0.649742114950E+03    0.48211E-03   -0.23568E-03  1800   0.713E-02    0.580E-02
RMM:   4    -0.649742097917E+03    0.17033E-04   -0.13164E-04  1817   0.211E-02    0.241E-02
RMM:   5    -0.649742091392E+03    0.65252E-05   -0.41235E-05  1792   0.961E-03    0.585E-03
RMM:   6    -0.649742091044E+03    0.34802E-06   -0.21705E-06  1687   0.300E-03    0.309E-03
RMM:   7    -0.649742090966E+03    0.77674E-07   -0.11003E-06  1632   0.187E-03    0.120E-03
RMM:   8    -0.649742090931E+03    0.34845E-07   -0.18152E-07  1233   0.725E-04
 294 F= -.65709557E+03 E0= -.65709557E+03  d E =-.453108E-33
 Finite differences progress:
  Degree of freedom: 147/153
  Displacement:        1/  2
  Total:             293/306
 bond charge predicted
       N       E                     dE             d eps       ncg     rms          rms(c)
DAV:   1    -0.649742860580E+03   -0.76961E-03   -0.44565E+00  1792   0.362E+00    0.379E-01
RMM:   2    -0.649742559200E+03    0.30138E-03   -0.19740E-02  1792   0.267E-01    0.198E-01
RMM:   3    -0.649742057078E+03    0.50212E-03   -0.26518E-03  1800   0.787E-02    0.466E-02
RMM:   4    -0.649742044232E+03    0.12846E-04   -0.10802E-04  1815   0.192E-02    0.222E-02
RMM:   5    -0.649742040041E+03    0.41908E-05   -0.30406E-05  1782   0.822E-03    0.658E-03
RMM:   6    -0.649742039536E+03    0.50526E-06   -0.28472E-06  1715   0.327E-03    0.334E-03
RMM:   7    -0.649742039128E+03    0.40828E-06   -0.11908E-06  1645   0.188E-03    0.110E-03
RMM:   8    -0.649742039007E+03    0.12047E-06   -0.18320E-07  1227   0.715E-04    0.708E-04
RMM:   9    -0.649742038909E+03    0.98138E-07   -0.24957E-07  1307   0.731E-04
 295 F= -.65709554E+03 E0= -.65709554E+03  d E =-.269218E-30
 Finite differences progress:
  Degree of freedom: 147/153
  Displacement:        2/  2
  Total:             294/306
 bond charge predicted
       N       E                     dE             d eps       ncg     rms          rms(c)
DAV:   1    -0.649740162358E+03    0.18766E-02   -0.25037E+00  1792   0.288E+00    0.319E-01
RMM:   2    -0.649740465958E+03   -0.30360E-03   -0.19737E-02  1792   0.267E-01    0.164E-01
RMM:   3    -0.649740182439E+03    0.28352E-03   -0.19771E-03  1795   0.698E-02    0.512E-02
RMM:   4    -0.649740179546E+03    0.28928E-05   -0.16063E-04  1830   0.229E-02    0.219E-02
RMM:   5    -0.649740173873E+03    0.56731E-05   -0.31558E-05  1784   0.826E-03    0.556E-03
RMM:   6    -0.649740173169E+03    0.70472E-06   -0.22432E-06  1694   0.297E-03    0.309E-03
RMM:   7    -0.649740172454E+03    0.71413E-06   -0.12512E-06  1667   0.182E-03    0.102E-03
RMM:   8    -0.649740172308E+03    0.14623E-06   -0.22823E-07  1279   0.762E-04    0.726E-04
RMM:   9    -0.649740172206E+03    0.10205E-06   -0.28295E-07  1340   0.776E-04    0.321E-04
RMM:  10    -0.649740172198E+03    0.77453E-08   -0.36699E-08  1140   0.475E-04
 296 F= -.65709373E+03 E0= -.65709373E+03  d E =-.680665E-35
 Finite differences progress:
  Degree of freedom: 148/153
  Displacement:        1/  2
  Total:             295/306
 bond charge predicted
       N       E                     dE             d eps       ncg     rms          rms(c)
DAV:   1    -0.649741949679E+03   -0.17775E-02   -0.44157E+00  1792   0.376E+00    0.483E-01
RMM:   2    -0.649740817966E+03    0.11317E-02   -0.26576E-02  1792   0.312E-01    0.242E-01
RMM:   3    -0.649740142120E+03    0.67585E-03   -0.38436E-03  1802   0.961E-02    0.655E-02
RMM:   4    -0.649740123097E+03    0.19023E-04   -0.23247E-04  1815   0.315E-02    0.285E-02
RMM:   5    -0.649740116581E+03    0.65159E-05   -0.44520E-05  1781   0.111E-02    0.942E-03
RMM:   6    -0.649740115737E+03    0.84402E-06   -0.58458E-06  1745   0.462E-03    0.434E-03
RMM:   7    -0.649740115160E+03    0.57683E-06   -0.19025E-06  1692   0.243E-03    0.149E-03
RMM:   8    -0.649740114946E+03    0.21461E-06   -0.42960E-07  1402   0.108E-03    0.879E-04
RMM:   9    -0.649740114798E+03    0.14764E-06   -0.36042E-07  1370   0.972E-04    0.445E-04
RMM:  10    -0.649740114796E+03    0.22737E-08   -0.61327E-08  1161   0.605E-04
 297 F= -.65709354E+03 E0= -.65709354E+03  d E =-.106226E-25
 Finite differences progress:
  Degree of freedom: 148/153
  Displacement:        2/  2
  Total:             296/306
 bond charge predicted
       N       E                     dE             d eps       ncg     rms          rms(c)
DAV:   1    -0.649741636221E+03   -0.15214E-02   -0.25107E+00  1792   0.284E+00    0.247E-01
RMM:   2    -0.649742152977E+03   -0.51676E-03   -0.13487E-02  1791   0.207E-01    0.133E-01
RMM:   3    -0.649741999811E+03    0.15317E-03   -0.11583E-03  1802   0.563E-02    0.296E-02
RMM:   4    -0.649742007487E+03   -0.76759E-05   -0.10146E-04  1854   0.179E-02    0.118E-02
RMM:   5    -0.649742007070E+03    0.41685E-06   -0.96743E-06  1742   0.498E-03    0.395E-03
RMM:   6    -0.649742007020E+03    0.49451E-07   -0.11027E-06  1616   0.197E-03    0.140E-03
RMM:   7    -0.649742006943E+03    0.77387E-07   -0.22612E-07  1251   0.861E-04
 298 F= -.65709542E+03 E0= -.65709542E+03  d E =-.117848E-29
 Finite differences progress:
  Degree of freedom: 149/153
  Displacement:        1/  2
  Total:             297/306
 bond charge predicted
       N       E                     dE             d eps       ncg     rms          rms(c)
DAV:   1    -0.649742392315E+03   -0.38529E-03   -0.44657E+00  1792   0.378E+00    0.383E-01
RMM:   2    -0.649742368031E+03    0.24284E-04   -0.24333E-02  1792   0.298E-01    0.187E-01
RMM:   3    -0.649741899649E+03    0.46838E-03   -0.19285E-03  1796   0.722E-02    0.719E-02
RMM:   4    -0.649741876298E+03    0.23351E-04   -0.36202E-04  1815   0.311E-02    0.209E-02
RMM:   5    -0.649741873136E+03    0.31616E-05   -0.24992E-05  1784   0.928E-03    0.828E-03
RMM:   6    -0.649741873694E+03   -0.55721E-06   -0.54807E-06  1703   0.382E-03    0.320E-03
RMM:   7    -0.649741873683E+03    0.10979E-07   -0.13814E-06  1594   0.191E-03    0.163E-03
RMM:   8    -0.649741873705E+03   -0.22559E-07   -0.16836E-07  1213   0.848E-04
 299 F= -.65709545E+03 E0= -.65709545E+03  d E =-.625909E-34
 Finite differences progress:
  Degree of freedom: 149/153
  Displacement:        2/  2
  Total:             298/306
 bond charge predicted
       N       E                     dE             d eps       ncg     rms          rms(c)
DAV:   1    -0.649742682674E+03   -0.80899E-03   -0.25704E+00  1792   0.284E+00    0.258E-01
RMM:   2    -0.649743028868E+03   -0.34619E-03   -0.11384E-02  1792   0.206E-01    0.134E-01
RMM:   3    -0.649742906961E+03    0.12191E-03   -0.83581E-04  1802   0.490E-02    0.458E-02
RMM:   4    -0.649742902843E+03    0.41187E-05   -0.13259E-04  1807   0.191E-02    0.107E-02
RMM:   5    -0.649742901954E+03    0.88889E-06   -0.79292E-06  1804   0.545E-03    0.589E-03
RMM:   6    -0.649742901328E+03    0.62542E-06   -0.35605E-06  1689   0.291E-03    0.186E-03
RMM:   7    -0.649742901208E+03    0.12066E-06   -0.23115E-07  1251   0.958E-04    0.987E-04
RMM:   8    -0.649742901130E+03    0.77955E-07   -0.25415E-07  1297   0.776E-04
 300 F= -.65709636E+03 E0= -.65709636E+03  d E =-.276373E-33
 Finite differences progress:
  Degree of freedom: 150/153
  Displacement:        1/  2
  Total:             299/306
 bond charge predicted
       N       E                     dE             d eps       ncg     rms          rms(c)
DAV:   1    -0.649742719446E+03    0.18176E-03   -0.44716E+00  1792   0.371E+00    0.324E-01
RMM:   2    -0.649743236918E+03   -0.51747E-03   -0.19293E-02  1792   0.258E-01    0.178E-01
RMM:   3    -0.649742858355E+03    0.37856E-03   -0.18126E-03  1794   0.697E-02    0.416E-02
RMM:   4    -0.649742856242E+03    0.21133E-05   -0.16159E-04  1832   0.228E-02    0.168E-02
RMM:   5    -0.649742851591E+03    0.46501E-05   -0.17137E-05  1780   0.678E-03    0.714E-03
RMM:   6    -0.649742849965E+03    0.16266E-05   -0.42194E-06  1750   0.345E-03    0.258E-03
RMM:   7    -0.649742849239E+03    0.72558E-06   -0.12611E-06  1650   0.179E-03    0.116E-03
RMM:   8    -0.649742848962E+03    0.27706E-06   -0.49562E-07  1411   0.109E-03    0.647E-04
RMM:   9    -0.649742848887E+03    0.74891E-07   -0.18808E-07  1237   0.674E-04
 301 F= -.65709637E+03 E0= -.65709637E+03  d E =-.360128E-30
 Finite differences progress:
  Degree of freedom: 150/153
  Displacement:        2/  2
  Total:             300/306
 bond charge predicted
       N       E                     dE             d eps       ncg     rms          rms(c)
DAV:   1    -0.649742741406E+03    0.10756E-03   -0.23853E+00  1792   0.284E+00    0.197E-01
RMM:   2    -0.649743430840E+03   -0.68943E-03   -0.10939E-02  1792   0.205E-01    0.120E-01
RMM:   3    -0.649743297046E+03    0.13379E-03   -0.75159E-04  1796   0.490E-02    0.294E-02
RMM:   4    -0.649743291798E+03    0.52482E-05   -0.78139E-05  1834   0.163E-02    0.105E-02
RMM:   5    -0.649743288653E+03    0.31451E-05   -0.88890E-06  1793   0.535E-03    0.481E-03
RMM:   6    -0.649743287106E+03    0.15471E-05   -0.27566E-06  1765   0.295E-03    0.196E-03
RMM:   7    -0.649743286549E+03    0.55676E-06   -0.80435E-07  1596   0.145E-03    0.992E-04
RMM:   8    -0.649743286309E+03    0.23970E-06   -0.45251E-07  1401   0.102E-03    0.492E-04
RMM:   9    -0.649743286283E+03    0.26601E-07   -0.10734E-07  1172   0.546E-04
 302 F= -.65709667E+03 E0= -.65709667E+03  d E =-.382957E-26
 Finite differences progress:
  Degree of freedom: 151/153
  Displacement:        1/  2
  Total:             301/306
 bond charge predicted
       N       E                     dE             d eps       ncg     rms          rms(c)
DAV:   1    -0.649743074813E+03    0.21150E-03   -0.39815E+00  1824   0.322E+00    0.248E-01
RMM:   2    -0.649743265289E+03   -0.19048E-03   -0.55011E-03  1792   0.144E-01    0.155E-01
RMM:   3    -0.649743123703E+03    0.14159E-03   -0.49647E-04  1806   0.379E-02    0.342E-02
RMM:   4    -0.649743109764E+03    0.13940E-04   -0.63321E-05  1803   0.143E-02    0.114E-02
RMM:   5    -0.649743107153E+03    0.26108E-05   -0.10149E-05  1786   0.585E-03    0.565E-03
RMM:   6    -0.649743106270E+03    0.88289E-06   -0.37293E-06  1770   0.361E-03    0.248E-03
RMM:   7    -0.649743105793E+03    0.47683E-06   -0.15669E-06  1697   0.199E-03    0.832E-04
RMM:   8    -0.649743105710E+03    0.82622E-07   -0.29403E-07  1303   0.892E-04
 303 F= -.65709667E+03 E0= -.65709667E+03  d E =-.573337E-33
 Finite differences progress:
  Degree of freedom: 151/153
  Displacement:        2/  2
  Total:             302/306
 bond charge predicted
       N       E                     dE             d eps       ncg     rms          rms(c)
DAV:   1    -0.649742386465E+03    0.71933E-03   -0.22704E+00  1792   0.248E+00    0.187E-01
RMM:   2    -0.649742540575E+03   -0.15411E-03   -0.34629E-03  1791   0.116E-01    0.115E-01
RMM:   3    -0.649742463706E+03    0.76869E-04   -0.28940E-04  1805   0.310E-02    0.261E-02
RMM:   4    -0.649742455464E+03    0.82418E-05   -0.37043E-05  1807   0.109E-02    0.849E-03
RMM:   5    -0.649742453989E+03    0.14760E-05   -0.60324E-06  1786   0.452E-03    0.418E-03
RMM:   6    -0.649742453490E+03    0.49807E-06   -0.17860E-06  1743   0.252E-03    0.188E-03
RMM:   7    -0.649742453252E+03    0.23831E-06   -0.65761E-07  1576   0.136E-03    0.683E-04
RMM:   8    -0.649742453192E+03    0.60474E-07   -0.18934E-07  1228   0.712E-04
 304 F= -.65709627E+03 E0= -.65709627E+03  d E =-.165583E-30
 Finite differences progress:
  Degree of freedom: 152/153
  Displacement:        1/  2
  Total:             303/306
 bond charge predicted
       N       E                     dE             d eps       ncg     rms          rms(c)
DAV:   1    -0.649743046020E+03   -0.59277E-03   -0.39818E+00  1792   0.325E+00    0.277E-01
RMM:   2    -0.649743280539E+03   -0.23452E-03   -0.60125E-03  1792   0.156E-01    0.169E-01
RMM:   3    -0.649743142298E+03    0.13824E-03   -0.55025E-04  1806   0.455E-02    0.341E-02
RMM:   4    -0.649743131735E+03    0.10563E-04   -0.64116E-05  1819   0.140E-02    0.121E-02
RMM:   5    -0.649743131027E+03    0.70798E-06   -0.11770E-05  1782   0.672E-03    0.550E-03
RMM:   6    -0.649743131087E+03   -0.60372E-07   -0.22499E-06  1759   0.301E-03    0.271E-03
RMM:   7    -0.649743131068E+03    0.19318E-07   -0.89049E-07  1653   0.183E-03
 305 F= -.65709627E+03 E0= -.65709627E+03  d E =-.733676E-31
 Finite differences progress:
  Degree of freedom: 152/153
  Displacement:        2/  2
  Total:             304/306
 bond charge predicted
       N       E                     dE             d eps       ncg     rms          rms(c)
DAV:   1    -0.649742977771E+03    0.15332E-03   -0.22702E+00  1792   0.250E+00    0.185E-01
RMM:   2    -0.649743134300E+03   -0.15653E-03   -0.33912E-03  1792   0.117E-01    0.114E-01
RMM:   3    -0.649743047113E+03    0.87187E-04   -0.26332E-04  1802   0.301E-02    0.216E-02
RMM:   4    -0.649743036347E+03    0.10766E-04   -0.29409E-05  1815   0.100E-02    0.830E-03
RMM:   5    -0.649743031997E+03    0.43501E-05   -0.74851E-06  1777   0.464E-03    0.394E-03
RMM:   6    -0.649743029938E+03    0.20588E-05   -0.25330E-06  1752   0.271E-03    0.206E-03
RMM:   7    -0.649743028908E+03    0.10296E-05   -0.17745E-06  1705   0.190E-03    0.875E-04
RMM:   8    -0.649743028762E+03    0.14652E-06   -0.39147E-07  1344   0.929E-04    0.524E-04
RMM:   9    -0.649743028752E+03    0.93823E-08   -0.87022E-08  1162   0.508E-04
 306 F= -.65709644E+03 E0= -.65709644E+03  d E =-.246748E-30
 Finite differences progress:
  Degree of freedom: 153/153
  Displacement:        1/  2
  Total:             305/306
 bond charge predicted
       N       E                     dE             d eps       ncg     rms          rms(c)
DAV:   1    -0.649742960904E+03    0.67858E-04   -0.39825E+00  1824   0.326E+00    0.263E-01
RMM:   2    -0.649743164229E+03   -0.20333E-03   -0.58226E-03  1792   0.153E-01    0.162E-01
RMM:   3    -0.649742950794E+03    0.21344E-03   -0.51876E-04  1804   0.413E-02    0.292E-02
RMM:   4    -0.649742921814E+03    0.28980E-04   -0.58986E-05  1814   0.135E-02    0.123E-02
RMM:   5    -0.649742907753E+03    0.14061E-04   -0.19110E-05  1796   0.715E-03    0.587E-03
RMM:   6    -0.649742901230E+03    0.65231E-05   -0.72265E-06  1782   0.432E-03    0.324E-03
RMM:   7    -0.649742898192E+03    0.30385E-05   -0.53797E-06  1769   0.322E-03    0.141E-03
RMM:   8    -0.649742897877E+03    0.31513E-06   -0.10742E-06  1588   0.151E-03    0.817E-04
RMM:   9    -0.649742897864E+03    0.12693E-07   -0.19303E-07  1256   0.727E-04
 307 F= -.65709645E+03 E0= -.65709645E+03  d E =-.265399E-32
 Finite differences progress:
  Degree of freedom: 153/153
  Displacement:        2/  2
  Total:             306/306
Note: The following floating-point exceptions are signalling: IEEE_INVALID_FLAG IEEE_DIVIDE_BY_ZERO IEEE_UNDERFLOW_FLAG IEEE_DENORMAL
Note: The following floating-point exceptions are signalling: IEEE_INVALID_FLAG IEEE_DIVIDE_BY_ZERO IEEE_UNDERFLOW_FLAG IEEE_DENORMAL
Note: The following floating-point exceptions are signalling: IEEE_INVALID_FLAG IEEE_DIVIDE_BY_ZERO IEEE_UNDERFLOW_FLAG IEEE_DENORMAL
Note: The following floating-point exceptions are signalling: IEEE_INVALID_FLAG IEEE_DIVIDE_BY_ZERO IEEE_UNDERFLOW_FLAG IEEE_DENORMAL
Note: The following floating-point exceptions are signalling: IEEE_INVALID_FLAG IEEE_DIVIDE_BY_ZERO IEEE_UNDERFLOW_FLAG IEEE_DENORMAL
Note: The following floating-point exceptions are signalling: IEEE_INVALID_FLAG IEEE_DIVIDE_BY_ZERO IEEE_UNDERFLOW_FLAG IEEE_DENORMAL
Note: The following floating-point exceptions are signalling: IEEE_INVALID_FLAG IEEE_DIVIDE_BY_ZERO IEEE_UNDERFLOW_FLAG IEEE_DENORMAL
Note: The following floating-point exceptions are signalling: IEEE_INVALID_FLAG IEEE_DIVIDE_BY_ZERO IEEE_UNDERFLOW_FLAG IEEE_DENORMAL
Note: The following floating-point exceptions are signalling: IEEE_INVALID_FLAG IEEE_DIVIDE_BY_ZERO IEEE_UNDERFLOW_FLAG IEEE_DENORMAL
Note: The following floating-point exceptions are signalling: IEEE_INVALID_FLAG IEEE_DIVIDE_BY_ZERO IEEE_UNDERFLOW_FLAG IEEE_DENORMAL
Note: The following floating-point exceptions are signalling: IEEE_INVALID_FLAG IEEE_DIVIDE_BY_ZERO IEEE_UNDERFLOW_FLAG IEEE_DENORMAL
Note: The following floating-point exceptions are signalling: IEEE_INVALID_FLAG IEEE_DIVIDE_BY_ZERO IEEE_UNDERFLOW_FLAG IEEE_DENORMAL
Note: The following floating-point exceptions are signalling: IEEE_INVALID_FLAG IEEE_DIVIDE_BY_ZERO IEEE_UNDERFLOW_FLAG IEEE_DENORMAL
Note: The following floating-point exceptions are signalling: IEEE_INVALID_FLAG IEEE_DIVIDE_BY_ZERO IEEE_UNDERFLOW_FLAG IEEE_DENORMAL
Note: The following floating-point exceptions are signalling: IEEE_INVALID_FLAG IEEE_DIVIDE_BY_ZERO IEEE_UNDERFLOW_FLAG IEEE_DENORMAL
Note: The following floating-point exceptions are signalling: IEEE_INVALID_FLAG IEEE_DIVIDE_BY_ZERO IEEE_UNDERFLOW_FLAG IEEE_DENORMAL
Note: The following floating-point exceptions are signalling: IEEE_INVALID_FLAG IEEE_DIVIDE_BY_ZERO IEEE_UNDERFLOW_FLAG IEEE_DENORMAL
Note: The following floating-point exceptions are signalling: IEEE_INVALID_FLAG IEEE_DIVIDE_BY_ZERO IEEE_UNDERFLOW_FLAG IEEE_DENORMAL
Note: The following floating-point exceptions are signalling: IEEE_INVALID_FLAG IEEE_DIVIDE_BY_ZERO IEEE_UNDERFLOW_FLAG IEEE_DENORMAL
Note: The following floating-point exceptions are signalling: IEEE_INVALID_FLAG IEEE_DIVIDE_BY_ZERO IEEE_UNDERFLOW_FLAG IEEE_DENORMAL
Note: The following floating-point exceptions are signalling: IEEE_INVALID_FLAG IEEE_DIVIDE_BY_ZERO IEEE_UNDERFLOW_FLAG IEEE_DENORMAL
Note: The following floating-point exceptions are signalling: IEEE_INVALID_FLAG IEEE_DIVIDE_BY_ZERO IEEE_UNDERFLOW_FLAG IEEE_DENORMAL
Note: The following floating-point exceptions are signalling: IEEE_INVALID_FLAG IEEE_DIVIDE_BY_ZERO IEEE_UNDERFLOW_FLAG IEEE_DENORMAL
Note: The following floating-point exceptions are signalling: IEEE_INVALID_FLAG IEEE_DIVIDE_BY_ZERO IEEE_UNDERFLOW_FLAG IEEE_DENORMAL
Note: The following floating-point exceptions are signalling: IEEE_INVALID_FLAG IEEE_DIVIDE_BY_ZERO IEEE_UNDERFLOW_FLAG IEEE_DENORMAL
Note: The following floating-point exceptions are signalling: IEEE_INVALID_FLAG IEEE_DIVIDE_BY_ZERO IEEE_UNDERFLOW_FLAG IEEE_DENORMAL
Note: The following floating-point exceptions are signalling: IEEE_INVALID_FLAG IEEE_DIVIDE_BY_ZERO IEEE_UNDERFLOW_FLAG IEEE_DENORMAL
Note: The following floating-point exceptions are signalling: IEEE_INVALID_FLAG IEEE_DIVIDE_BY_ZERO IEEE_UNDERFLOW_FLAG IEEE_DENORMAL
Note: The following floating-point exceptions are signalling: IEEE_INVALID_FLAG IEEE_DIVIDE_BY_ZERO IEEE_UNDERFLOW_FLAG IEEE_DENORMAL
Note: The following floating-point exceptions are signalling: IEEE_INVALID_FLAG IEEE_DIVIDE_BY_ZERO IEEE_UNDERFLOW_FLAG IEEE_DENORMAL
Note: The following floating-point exceptions are signalling: IEEE_INVALID_FLAG IEEE_DIVIDE_BY_ZERO IEEE_UNDERFLOW_FLAG IEEE_DENORMAL
Note: The following floating-point exceptions are signalling: IEEE_INVALID_FLAG IEEE_DIVIDE_BY_ZERO IEEE_UNDERFLOW_FLAG IEEE_DENORMAL
Note: The following floating-point exceptions are signalling: IEEE_INVALID_FLAG IEEE_DIVIDE_BY_ZERO IEEE_UNDERFLOW_FLAG IEEE_DENORMAL
Note: The following floating-point exceptions are signalling: IEEE_INVALID_FLAG IEEE_DIVIDE_BY_ZERO IEEE_UNDERFLOW_FLAG IEEE_DENORMAL
Note: The following floating-point exceptions are signalling: IEEE_INVALID_FLAG IEEE_DIVIDE_BY_ZERO IEEE_UNDERFLOW_FLAG IEEE_DENORMAL
Note: The following floating-point exceptions are signalling: IEEE_INVALID_FLAG IEEE_DIVIDE_BY_ZERO IEEE_UNDERFLOW_FLAG IEEE_DENORMAL
Note: The following floating-point exceptions are signalling: IEEE_INVALID_FLAG IEEE_DIVIDE_BY_ZERO IEEE_UNDERFLOW_FLAG IEEE_DENORMAL
Note: The following floating-point exceptions are signalling: IEEE_INVALID_FLAG IEEE_DIVIDE_BY_ZERO IEEE_UNDERFLOW_FLAG IEEE_DENORMAL
Note: The following floating-point exceptions are signalling: IEEE_INVALID_FLAG IEEE_DIVIDE_BY_ZERO IEEE_UNDERFLOW_FLAG IEEE_DENORMAL
Note: The following floating-point exceptions are signalling: IEEE_INVALID_FLAG IEEE_DIVIDE_BY_ZERO IEEE_UNDERFLOW_FLAG IEEE_DENORMAL
Note: The following floating-point exceptions are signalling: IEEE_INVALID_FLAG IEEE_DIVIDE_BY_ZERO IEEE_UNDERFLOW_FLAG IEEE_DENORMAL
Note: The following floating-point exceptions are signalling: IEEE_INVALID_FLAG IEEE_DIVIDE_BY_ZERO IEEE_UNDERFLOW_FLAG IEEE_DENORMAL
Note: The following floating-point exceptions are signalling: IEEE_INVALID_FLAG IEEE_DIVIDE_BY_ZERO IEEE_UNDERFLOW_FLAG IEEE_DENORMAL
Note: The following floating-point exceptions are signalling: IEEE_INVALID_FLAG IEEE_DIVIDE_BY_ZERO IEEE_UNDERFLOW_FLAG IEEE_DENORMAL
Note: The following floating-point exceptions are signalling: IEEE_INVALID_FLAG IEEE_DIVIDE_BY_ZERO IEEE_UNDERFLOW_FLAG IEEE_DENORMAL
Note: The following floating-point exceptions are signalling: IEEE_INVALID_FLAG IEEE_DIVIDE_BY_ZERO IEEE_UNDERFLOW_FLAG IEEE_DENORMAL
Note: The following floating-point exceptions are signalling: IEEE_INVALID_FLAG IEEE_DIVIDE_BY_ZERO IEEE_UNDERFLOW_FLAG IEEE_DENORMAL
Note: The following floating-point exceptions are signalling: IEEE_INVALID_FLAG IEEE_DIVIDE_BY_ZERO IEEE_UNDERFLOW_FLAG IEEE_DENORMAL
Note: The following floating-point exceptions are signalling: IEEE_INVALID_FLAG IEEE_DIVIDE_BY_ZERO IEEE_UNDERFLOW_FLAG IEEE_DENORMAL
Note: The following floating-point exceptions are signalling: IEEE_INVALID_FLAG IEEE_DIVIDE_BY_ZERO IEEE_UNDERFLOW_FLAG IEEE_DENORMAL
Note: The following floating-point exceptions are signalling: IEEE_INVALID_FLAG IEEE_DIVIDE_BY_ZERO IEEE_UNDERFLOW_FLAG IEEE_DENORMAL
Note: The following floating-point exceptions are signalling: IEEE_INVALID_FLAG IEEE_DIVIDE_BY_ZERO IEEE_UNDERFLOW_FLAG IEEE_DENORMAL
Note: The following floating-point exceptions are signalling: IEEE_INVALID_FLAG IEEE_DIVIDE_BY_ZERO IEEE_UNDERFLOW_FLAG IEEE_DENORMAL
Note: The following floating-point exceptions are signalling: IEEE_INVALID_FLAG IEEE_DIVIDE_BY_ZERO IEEE_UNDERFLOW_FLAG IEEE_DENORMAL
Note: The following floating-point exceptions are signalling: IEEE_INVALID_FLAG IEEE_DIVIDE_BY_ZERO IEEE_UNDERFLOW_FLAG IEEE_DENORMAL
Note: The following floating-point exceptions are signalling: IEEE_INVALID_FLAG IEEE_DIVIDE_BY_ZERO IEEE_UNDERFLOW_FLAG IEEE_DENORMAL
Note: The following floating-point exceptions are signalling: IEEE_INVALID_FLAG IEEE_DIVIDE_BY_ZERO IEEE_UNDERFLOW_FLAG IEEE_DENORMAL
Note: The following floating-point exceptions are signalling: IEEE_INVALID_FLAG IEEE_DIVIDE_BY_ZERO IEEE_UNDERFLOW_FLAG IEEE_DENORMAL
Note: The following floating-point exceptions are signalling: IEEE_INVALID_FLAG IEEE_DIVIDE_BY_ZERO IEEE_UNDERFLOW_FLAG IEEE_DENORMAL
Note: The following floating-point exceptions are signalling: IEEE_INVALID_FLAG IEEE_DIVIDE_BY_ZERO IEEE_UNDERFLOW_FLAG IEEE_DENORMAL
Note: The following floating-point exceptions are signalling: IEEE_INVALID_FLAG IEEE_DIVIDE_BY_ZERO IEEE_UNDERFLOW_FLAG IEEE_DENORMAL
Note: The following floating-point exceptions are signalling: IEEE_INVALID_FLAG IEEE_DIVIDE_BY_ZERO IEEE_UNDERFLOW_FLAG IEEE_DENORMAL
Note: The following floating-point exceptions are signalling: IEEE_INVALID_FLAG IEEE_DIVIDE_BY_ZERO IEEE_UNDERFLOW_FLAG IEEE_DENORMAL
Note: The following floating-point exceptions are signalling: IEEE_INVALID_FLAG IEEE_DIVIDE_BY_ZERO IEEE_UNDERFLOW_FLAG IEEE_DENORMAL
Note: The following floating-point exceptions are signalling: IEEE_INVALID_FLAG IEEE_DIVIDE_BY_ZERO IEEE_UNDERFLOW_FLAG IEEE_DENORMAL
Note: The following floating-point exceptions are signalling: IEEE_INVALID_FLAG IEEE_DIVIDE_BY_ZERO IEEE_UNDERFLOW_FLAG IEEE_DENORMAL
Note: The following floating-point exceptions are signalling: IEEE_INVALID_FLAG IEEE_DIVIDE_BY_ZERO IEEE_UNDERFLOW_FLAG IEEE_DENORMAL
Note: The following floating-point exceptions are signalling: IEEE_INVALID_FLAG IEEE_DIVIDE_BY_ZERO IEEE_UNDERFLOW_FLAG IEEE_DENORMAL
Note: The following floating-point exceptions are signalling: IEEE_INVALID_FLAG IEEE_DIVIDE_BY_ZERO IEEE_UNDERFLOW_FLAG IEEE_DENORMAL
Note: The following floating-point exceptions are signalling: IEEE_INVALID_FLAG IEEE_DIVIDE_BY_ZERO IEEE_UNDERFLOW_FLAG IEEE_DENORMAL
Note: The following floating-point exceptions are signalling: IEEE_INVALID_FLAG IEEE_DIVIDE_BY_ZERO IEEE_UNDERFLOW_FLAG IEEE_DENORMAL
Note: The following floating-point exceptions are signalling: IEEE_INVALID_FLAG IEEE_DIVIDE_BY_ZERO IEEE_UNDERFLOW_FLAG IEEE_DENORMAL
Note: The following floating-point exceptions are signalling: IEEE_INVALID_FLAG IEEE_DIVIDE_BY_ZERO IEEE_UNDERFLOW_FLAG IEEE_DENORMAL
Note: The following floating-point exceptions are signalling: IEEE_INVALID_FLAG IEEE_DIVIDE_BY_ZERO IEEE_UNDERFLOW_FLAG IEEE_DENORMAL
Note: The following floating-point exceptions are signalling: IEEE_INVALID_FLAG IEEE_DIVIDE_BY_ZERO IEEE_UNDERFLOW_FLAG IEEE_DENORMAL
Note: The following floating-point exceptions are signalling: IEEE_INVALID_FLAG IEEE_DIVIDE_BY_ZERO IEEE_UNDERFLOW_FLAG IEEE_DENORMAL
Note: The following floating-point exceptions are signalling: IEEE_INVALID_FLAG IEEE_DIVIDE_BY_ZERO IEEE_UNDERFLOW_FLAG IEEE_DENORMAL
Note: The following floating-point exceptions are signalling: IEEE_INVALID_FLAG IEEE_DIVIDE_BY_ZERO IEEE_UNDERFLOW_FLAG IEEE_DENORMAL
Note: The following floating-point exceptions are signalling: IEEE_INVALID_FLAG IEEE_DIVIDE_BY_ZERO IEEE_UNDERFLOW_FLAG IEEE_DENORMAL
Note: The following floating-point exceptions are signalling: IEEE_INVALID_FLAG IEEE_DIVIDE_BY_ZERO IEEE_UNDERFLOW_FLAG IEEE_DENORMAL
Note: The following floating-point exceptions are signalling: IEEE_INVALID_FLAG IEEE_DIVIDE_BY_ZERO IEEE_UNDERFLOW_FLAG IEEE_DENORMAL
Note: The following floating-point exceptions are signalling: IEEE_INVALID_FLAG IEEE_DIVIDE_BY_ZERO IEEE_UNDERFLOW_FLAG IEEE_DENORMAL
Note: The following floating-point exceptions are signalling: IEEE_INVALID_FLAG IEEE_DIVIDE_BY_ZERO IEEE_UNDERFLOW_FLAG IEEE_DENORMAL
Note: The following floating-point exceptions are signalling: IEEE_INVALID_FLAG IEEE_DIVIDE_BY_ZERO IEEE_UNDERFLOW_FLAG IEEE_DENORMAL
Note: The following floating-point exceptions are signalling: IEEE_INVALID_FLAG IEEE_DIVIDE_BY_ZERO IEEE_UNDERFLOW_FLAG IEEE_DENORMAL
Note: The following floating-point exceptions are signalling: IEEE_INVALID_FLAG IEEE_DIVIDE_BY_ZERO IEEE_UNDERFLOW_FLAG IEEE_DENORMAL
Note: The following floating-point exceptions are signalling: IEEE_INVALID_FLAG IEEE_DIVIDE_BY_ZERO IEEE_UNDERFLOW_FLAG IEEE_DENORMAL
Note: The following floating-point exceptions are signalling: IEEE_INVALID_FLAG IEEE_DIVIDE_BY_ZERO IEEE_UNDERFLOW_FLAG IEEE_DENORMAL
Note: The following floating-point exceptions are signalling: IEEE_INVALID_FLAG IEEE_DIVIDE_BY_ZERO IEEE_UNDERFLOW_FLAG IEEE_DENORMAL
Note: The following floating-point exceptions are signalling: IEEE_INVALID_FLAG IEEE_DIVIDE_BY_ZERO IEEE_UNDERFLOW_FLAG IEEE_DENORMAL
Note: The following floating-point exceptions are signalling: IEEE_INVALID_FLAG IEEE_DIVIDE_BY_ZERO IEEE_UNDERFLOW_FLAG IEEE_DENORMAL
Note: The following floating-point exceptions are signalling: IEEE_INVALID_FLAG IEEE_DIVIDE_BY_ZERO IEEE_UNDERFLOW_FLAG IEEE_DENORMAL
Note: The following floating-point exceptions are signalling: IEEE_INVALID_FLAG IEEE_DIVIDE_BY_ZERO IEEE_UNDERFLOW_FLAG IEEE_DENORMAL
Note: The following floating-point exceptions are signalling: IEEE_INVALID_FLAG IEEE_DIVIDE_BY_ZERO IEEE_UNDERFLOW_FLAG IEEE_DENORMAL
Note: The following floating-point exceptions are signalling: IEEE_INVALID_FLAG IEEE_DIVIDE_BY_ZERO IEEE_UNDERFLOW_FLAG IEEE_DENORMAL
Note: The following floating-point exceptions are signalling: IEEE_INVALID_FLAG IEEE_DIVIDE_BY_ZERO IEEE_UNDERFLOW_FLAG IEEE_DENORMAL
Note: The following floating-point exceptions are signalling: IEEE_INVALID_FLAG IEEE_DIVIDE_BY_ZERO IEEE_UNDERFLOW_FLAG IEEE_DENORMAL
Note: The following floating-point exceptions are signalling: IEEE_INVALID_FLAG IEEE_DIVIDE_BY_ZERO IEEE_UNDERFLOW_FLAG IEEE_DENORMAL
Note: The following floating-point exceptions are signalling: IEEE_INVALID_FLAG IEEE_DIVIDE_BY_ZERO IEEE_UNDERFLOW_FLAG IEEE_DENORMAL
Note: The following floating-point exceptions are signalling: IEEE_INVALID_FLAG IEEE_DIVIDE_BY_ZERO IEEE_UNDERFLOW_FLAG IEEE_DENORMAL
Note: The following floating-point exceptions are signalling: IEEE_INVALID_FLAG IEEE_DIVIDE_BY_ZERO IEEE_UNDERFLOW_FLAG IEEE_DENORMAL
Note: The following floating-point exceptions are signalling: IEEE_INVALID_FLAG IEEE_DIVIDE_BY_ZERO IEEE_UNDERFLOW_FLAG IEEE_DENORMAL
Note: The following floating-point exceptions are signalling: IEEE_INVALID_FLAG IEEE_DIVIDE_BY_ZERO IEEE_UNDERFLOW_FLAG IEEE_DENORMAL
Note: The following floating-point exceptions are signalling: IEEE_INVALID_FLAG IEEE_DIVIDE_BY_ZERO IEEE_UNDERFLOW_FLAG IEEE_DENORMAL
Note: The following floating-point exceptions are signalling: IEEE_INVALID_FLAG IEEE_DIVIDE_BY_ZERO IEEE_UNDERFLOW_FLAG IEEE_DENORMAL
Note: The following floating-point exceptions are signalling: IEEE_INVALID_FLAG IEEE_DIVIDE_BY_ZERO IEEE_UNDERFLOW_FLAG IEEE_DENORMAL
Note: The following floating-point exceptions are signalling: IEEE_INVALID_FLAG IEEE_DIVIDE_BY_ZERO IEEE_UNDERFLOW_FLAG IEEE_DENORMAL
Note: The following floating-point exceptions are signalling: IEEE_INVALID_FLAG IEEE_DIVIDE_BY_ZERO IEEE_UNDERFLOW_FLAG IEEE_DENORMAL
Note: The following floating-point exceptions are signalling: IEEE_INVALID_FLAG IEEE_DIVIDE_BY_ZERO IEEE_UNDERFLOW_FLAG IEEE_DENORMAL
Note: The following floating-point exceptions are signalling: IEEE_INVALID_FLAG IEEE_DIVIDE_BY_ZERO IEEE_UNDERFLOW_FLAG IEEE_DENORMAL
Note: The following floating-point exceptions are signalling: IEEE_INVALID_FLAG IEEE_DIVIDE_BY_ZERO IEEE_UNDERFLOW_FLAG IEEE_DENORMAL
Note: The following floating-point exceptions are signalling: IEEE_INVALID_FLAG IEEE_DIVIDE_BY_ZERO IEEE_UNDERFLOW_FLAG IEEE_DENORMAL
Note: The following floating-point exceptions are signalling: IEEE_INVALID_FLAG IEEE_DIVIDE_BY_ZERO IEEE_UNDERFLOW_FLAG IEEE_DENORMAL
Note: The following floating-point exceptions are signalling: IEEE_INVALID_FLAG IEEE_DIVIDE_BY_ZERO IEEE_UNDERFLOW_FLAG IEEE_DENORMAL
Note: The following floating-point exceptions are signalling: IEEE_INVALID_FLAG IEEE_DIVIDE_BY_ZERO IEEE_UNDERFLOW_FLAG IEEE_DENORMAL
Note: The following floating-point exceptions are signalling: IEEE_INVALID_FLAG IEEE_DIVIDE_BY_ZERO IEEE_UNDERFLOW_FLAG IEEE_DENORMAL
Note: The following floating-point exceptions are signalling: IEEE_INVALID_FLAG IEEE_DIVIDE_BY_ZERO IEEE_UNDERFLOW_FLAG IEEE_DENORMAL
Note: The following floating-point exceptions are signalling: IEEE_INVALID_FLAG IEEE_DIVIDE_BY_ZERO IEEE_UNDERFLOW_FLAG IEEE_DENORMAL
Note: The following floating-point exceptions are signalling: IEEE_INVALID_FLAG IEEE_DIVIDE_BY_ZERO IEEE_UNDERFLOW_FLAG IEEE_DENORMAL
Note: The following floating-point exceptions are signalling: IEEE_INVALID_FLAG IEEE_DIVIDE_BY_ZERO IEEE_UNDERFLOW_FLAG IEEE_DENORMAL
Note: The following floating-point exceptions are signalling: IEEE_INVALID_FLAG IEEE_DIVIDE_BY_ZERO IEEE_UNDERFLOW_FLAG IEEE_DENORMAL
Note: The following floating-point exceptions are signalling: IEEE_INVALID_FLAG IEEE_DIVIDE_BY_ZERO IEEE_UNDERFLOW_FLAG IEEE_DENORMAL
Note: The following floating-point exceptions are signalling: IEEE_INVALID_FLAG IEEE_DIVIDE_BY_ZERO IEEE_UNDERFLOW_FLAG IEEE_DENORMAL
Note: The following floating-point exceptions are signalling: IEEE_INVALID_FLAG IEEE_DIVIDE_BY_ZERO IEEE_UNDERFLOW_FLAG IEEE_DENORMAL
Note: The following floating-point exceptions are signalling: IEEE_INVALID_FLAG IEEE_DIVIDE_BY_ZERO IEEE_UNDERFLOW_FLAG IEEE_DENORMAL
Note: The following floating-point exceptions are signalling: IEEE_INVALID_FLAG IEEE_DIVIDE_BY_ZERO IEEE_UNDERFLOW_FLAG IEEE_DENORMAL
Note: The following floating-point exceptions are signalling: IEEE_INVALID_FLAG IEEE_DIVIDE_BY_ZERO IEEE_UNDERFLOW_FLAG IEEE_DENORMAL
Note: The following floating-point exceptions are signalling: IEEE_INVALID_FLAG IEEE_DIVIDE_BY_ZERO IEEE_UNDERFLOW_FLAG IEEE_DENORMAL

JOB STATISTICS
==============
Job ID: 416931
Cluster: snellius
User/Group: srinidhi/srinidhi
State: COMPLETED (exit code 0)
Nodes: 1
Cores per node: 128
CPU Utilized: 13-16:18:08
CPU Efficiency: 98.530f 13-21:11:28 core-walltime
Job Wall-clock time: 02:36:11
Memory Utilized: 133.80 GB (estimated maximum)
Memory Efficiency: 57.090f 234.38 GB (1.83 GB/core)
