       N       E                     dE             d eps       ncg     rms          rms(c)
DAV:   1     0.232419988177E+04    0.23242E+04   -0.16474E+05   936   0.137E+03
DAV:   2    -0.407280635576E+03   -0.27315E+04   -0.25887E+04  1144   0.319E+02
DAV:   3    -0.722970888550E+03   -0.31569E+03   -0.31231E+03  1116   0.122E+02
DAV:   4    -0.734102290822E+03   -0.11131E+02   -0.11074E+02  1136   0.265E+01
DAV:   5    -0.734566617918E+03   -0.46433E+00   -0.46380E+00  1328   0.487E+00    0.719E+01
RMM:   6    -0.686302477191E+03    0.48264E+02   -0.11471E+02   936   0.170E+01    0.382E+01
RMM:   7    -0.678006815800E+03    0.82957E+01   -0.35478E+01   944   0.950E+00    0.115E+01
RMM:   8    -0.677539602710E+03    0.46721E+00   -0.26869E+00   944   0.335E+00    0.282E+00
RMM:   9    -0.677527975987E+03    0.11627E-01   -0.38829E-01   942   0.118E+00    0.721E-01
RMM:  10    -0.677533446861E+03   -0.54709E-02   -0.36785E-02   948   0.441E-01    0.394E-01
RMM:  11    -0.677540664067E+03   -0.72172E-02   -0.23112E-02   944   0.255E-01    0.141E-01
RMM:  12    -0.677541264760E+03   -0.60069E-03   -0.23589E-03   943   0.872E-02    0.785E-02
RMM:  13    -0.677541800775E+03   -0.53602E-03   -0.28056E-03   945   0.920E-02    0.523E-02
RMM:  14    -0.677541713497E+03    0.87278E-04   -0.69802E-04   939   0.422E-02    0.366E-02
RMM:  15    -0.677541649033E+03    0.64464E-04   -0.25203E-04   945   0.274E-02    0.125E-02
RMM:  16    -0.677541645174E+03    0.38587E-05   -0.25293E-05   948   0.881E-03    0.714E-03
RMM:  17    -0.677541644358E+03    0.81605E-06   -0.13548E-05   939   0.610E-03    0.373E-03
RMM:  18    -0.677541643637E+03    0.72148E-06   -0.23339E-06   906   0.257E-03    0.121E-03
RMM:  19    -0.677541643643E+03   -0.63446E-08   -0.46445E-07   737   0.115E-03
   1 F= -.68605362E+03 E0= -.68605362E+03  d E =-.686054E+03
       N       E                     dE             d eps       ncg     rms          rms(c)
DAV:   1    -0.677542920031E+03   -0.12764E-02   -0.81897E-02  1056   0.692E-01    0.101E-01
RMM:   2    -0.677543066247E+03   -0.14622E-03   -0.25056E-03   936   0.110E-01    0.545E-02
RMM:   3    -0.677543027202E+03    0.39045E-04   -0.12575E-04   941   0.266E-02    0.320E-02
RMM:   4    -0.677543015160E+03    0.12042E-04   -0.54043E-05   953   0.134E-02    0.995E-03
RMM:   5    -0.677543013862E+03    0.12976E-05   -0.29964E-06   948   0.394E-03    0.401E-03
RMM:   6    -0.677543013455E+03    0.40777E-06   -0.86641E-07   896   0.161E-03    0.120E-03
RMM:   7    -0.677543013379E+03    0.75495E-07   -0.78793E-08   584   0.710E-04
   2 F= -.68605373E+03 E0= -.68605373E+03  d E =-.114439E-03
       N       E                     dE             d eps       ncg     rms          rms(c)
DAV:   1    -0.677542596681E+03    0.41677E-03   -0.14876E-02  1048   0.295E-01    0.428E-02
RMM:   2    -0.677542623673E+03   -0.26992E-04   -0.43924E-04   936   0.466E-02    0.231E-02
RMM:   3    -0.677542617750E+03    0.59225E-05   -0.21819E-05   941   0.110E-02    0.135E-02
RMM:   4    -0.677542616814E+03    0.93612E-06   -0.92585E-06   951   0.556E-03    0.422E-03
RMM:   5    -0.677542616997E+03   -0.18258E-06   -0.48105E-07   777   0.163E-03    0.160E-03
RMM:   6    -0.677542617120E+03   -0.12370E-06   -0.14589E-07   584   0.751E-04    0.515E-04
RMM:   7    -0.677542617153E+03   -0.32989E-07   -0.29743E-08   577   0.490E-04
   3 F= -.68605387E+03 E0= -.68605387E+03  d E =-.253318E-03
       N       E                     dE             d eps       ncg     rms          rms(c)
DAV:   1    -0.677542747039E+03   -0.12992E-03   -0.40023E-02  1040   0.462E-01    0.658E-02
RMM:   2    -0.677542807038E+03   -0.59998E-04   -0.95078E-04   936   0.663E-02    0.338E-02
RMM:   3    -0.677542794251E+03    0.12786E-04   -0.42305E-05   938   0.155E-02    0.194E-02
RMM:   4    -0.677542790871E+03    0.33807E-05   -0.20083E-05   951   0.836E-03    0.449E-03
RMM:   5    -0.677542790614E+03    0.25626E-06   -0.87341E-07   916   0.214E-03    0.208E-03
RMM:   6    -0.677542790582E+03    0.31843E-07   -0.27333E-07   628   0.973E-04
   4 F= -.68605412E+03 E0= -.68605412E+03  d E =-.242343E-03
       N       E                     dE             d eps       ncg     rms          rms(c)
DAV:   1    -0.677542784617E+03    0.59972E-05   -0.57385E-04  1080   0.553E-02    0.781E-03
RMM:   2    -0.677542785318E+03   -0.70096E-06   -0.13632E-05   936   0.798E-03    0.403E-03
RMM:   3    -0.677542785093E+03    0.22494E-06   -0.59111E-07   798   0.185E-03    0.235E-03
RMM:   4    -0.677542785006E+03    0.86715E-07   -0.30357E-07   633   0.120E-03
   5 F= -.68605412E+03 E0= -.68605412E+03  d E =-.244957E-03
       N       E                     dE             d eps       ncg     rms          rms(c)
DAV:   1    -0.677542155753E+03    0.62934E-03   -0.19329E-02   976   0.321E-01    0.483E-02
RMM:   2    -0.677542164488E+03   -0.87355E-05   -0.48216E-04   936   0.487E-02    0.219E-02
RMM:   3    -0.677542157740E+03    0.67481E-05   -0.27719E-05   936   0.119E-02    0.114E-02
RMM:   4    -0.677542156658E+03    0.10818E-05   -0.72488E-06   959   0.497E-03    0.379E-03
RMM:   5    -0.677542156898E+03   -0.23960E-06   -0.39179E-07   680   0.147E-03    0.168E-03
RMM:   6    -0.677542157054E+03   -0.15618E-06   -0.12558E-07   581   0.717E-04    0.470E-04
RMM:   7    -0.677542157053E+03    0.74942E-09   -0.25332E-08   576   0.413E-04
   6 F= -.68605434E+03 E0= -.68605434E+03  d E =-.217417E-03
       N       E                     dE             d eps       ncg     rms          rms(c)
DAV:   1    -0.677540162367E+03    0.19947E-02   -0.13293E-01   976   0.842E-01    0.127E-01
RMM:   2    -0.677540225449E+03   -0.63082E-04   -0.33038E-03   936   0.127E-01    0.574E-02
RMM:   3    -0.677540178863E+03    0.46586E-04   -0.19064E-04   936   0.312E-02    0.298E-02
RMM:   4    -0.677540169612E+03    0.92510E-05   -0.49865E-05   959   0.130E-02    0.995E-03
RMM:   5    -0.677540169946E+03   -0.33380E-06   -0.29614E-06   943   0.386E-03    0.462E-03
RMM:   6    -0.677540170287E+03   -0.34116E-06   -0.74036E-07   874   0.146E-03    0.123E-03
RMM:   7    -0.677540170274E+03    0.13377E-07   -0.76162E-08   584   0.651E-04
   7 F= -.68605457E+03 E0= -.68605457E+03  d E =-.448880E-03
       N       E                     dE             d eps       ncg     rms          rms(c)
DAV:   1    -0.677539688817E+03    0.48147E-03   -0.53802E-03  1040   0.172E-01    0.280E-02
RMM:   2    -0.677539687981E+03    0.83553E-06   -0.14479E-04   936   0.271E-02    0.121E-02
RMM:   3    -0.677539685908E+03    0.20729E-05   -0.92005E-06   936   0.674E-03    0.630E-03
RMM:   4    -0.677539685758E+03    0.15049E-06   -0.21943E-06   948   0.269E-03    0.261E-03
RMM:   5    -0.677539685969E+03   -0.21105E-06   -0.12702E-07   589   0.881E-04    0.121E-03
RMM:   6    -0.677539686107E+03   -0.13798E-06   -0.48703E-08   576   0.538E-04    0.301E-04
RMM:   7    -0.677539686109E+03   -0.24447E-08   -0.14808E-08   568   0.359E-04
   8 F= -.68605469E+03 E0= -.68605469E+03  d E =-.123366E-03
       N       E                     dE             d eps       ncg     rms          rms(c)
DAV:   1    -0.677538203058E+03    0.14830E-02   -0.48415E-02   976   0.517E-01    0.844E-02
RMM:   2    -0.677538197850E+03    0.52081E-05   -0.13101E-03   936   0.818E-02    0.364E-02
RMM:   3    -0.677538178765E+03    0.19085E-04   -0.83829E-05   936   0.203E-02    0.189E-02
RMM:   4    -0.677538175496E+03    0.32689E-05   -0.19532E-05   962   0.806E-03    0.789E-03
RMM:   5    -0.677538176018E+03   -0.52215E-06   -0.13061E-06   930   0.253E-03    0.388E-03
RMM:   6    -0.677538176404E+03   -0.38582E-06   -0.29278E-07   631   0.109E-03    0.822E-04
RMM:   7    -0.677538176398E+03    0.64683E-08   -0.56073E-08   580   0.634E-04
   9 F= -.68605500E+03 E0= -.68605500E+03  d E =-.436890E-03
       N       E                     dE             d eps       ncg     rms          rms(c)
DAV:   1    -0.677535007567E+03    0.31688E-02   -0.19366E-01   960   0.103E+00    0.169E-01
RMM:   2    -0.677534989106E+03    0.18461E-04   -0.52451E-03   936   0.164E-01    0.727E-02
RMM:   3    -0.677534912364E+03    0.76742E-04   -0.33529E-04   936   0.406E-02    0.378E-02
RMM:   4    -0.677534897297E+03    0.15068E-04   -0.78251E-05   962   0.161E-02    0.158E-02
RMM:   5    -0.677534897953E+03   -0.65667E-06   -0.52346E-06   940   0.507E-03    0.777E-03
RMM:   6    -0.677534898652E+03   -0.69861E-06   -0.13185E-06   922   0.216E-03    0.170E-03
RMM:   7    -0.677534898613E+03    0.38461E-07   -0.11389E-07   585   0.755E-04
  10 F= -.68605538E+03 E0= -.68605538E+03  d E =-.808371E-03
       N       E                     dE             d eps       ncg     rms          rms(c)
DAV:   1    -0.677527761978E+03    0.71367E-02   -0.77463E-01   940   0.206E+00    0.339E-01
RMM:   2    -0.677527689523E+03    0.72456E-04   -0.21002E-02   936   0.327E-01    0.145E-01
RMM:   3    -0.677527382201E+03    0.30732E-03   -0.13390E-03   936   0.812E-02    0.757E-02
RMM:   4    -0.677527317801E+03    0.64400E-04   -0.31415E-04   962   0.323E-02    0.317E-02
RMM:   5    -0.677527317580E+03    0.22174E-06   -0.20873E-05   940   0.101E-02    0.156E-02
RMM:   6    -0.677527318668E+03   -0.10884E-05   -0.52715E-06   945   0.430E-03    0.341E-03
RMM:   7    -0.677527318518E+03    0.15007E-06   -0.52920E-07   762   0.147E-03    0.140E-03
RMM:   8    -0.677527318398E+03    0.11998E-06   -0.20824E-07   592   0.895E-04    0.529E-04
RMM:   9    -0.677527318443E+03   -0.45242E-07   -0.66571E-08   584   0.708E-04
  11 F= -.68605511E+03 E0= -.68605511E+03  d E =-.538252E-03
       N       E                     dE             d eps       ncg     rms          rms(c)
DAV:   1    -0.677532795368E+03   -0.54770E-02   -0.35400E-01   940   0.140E+00    0.227E-01
RMM:   2    -0.677532773826E+03    0.21542E-04   -0.95481E-03   936   0.221E-01    0.986E-02
RMM:   3    -0.677532630666E+03    0.14316E-03   -0.61364E-04   936   0.549E-02    0.509E-02
RMM:   4    -0.677532596975E+03    0.33691E-04   -0.14214E-04   962   0.218E-02    0.212E-02
RMM:   5    -0.677532593657E+03    0.33178E-05   -0.95260E-06   940   0.684E-03    0.105E-02
RMM:   6    -0.677532592211E+03    0.14462E-05   -0.23970E-06   936   0.292E-03    0.228E-03
RMM:   7    -0.677532592139E+03    0.71894E-07   -0.20829E-07   614   0.995E-04
  12 F= -.68605544E+03 E0= -.68605544E+03  d E =-.869536E-03
       N       E                     dE             d eps       ncg     rms          rms(c)
DAV:   1    -0.677531370921E+03    0.12213E-02   -0.36166E-02   976   0.446E-01    0.742E-02
RMM:   2    -0.677531363267E+03    0.76537E-05   -0.99597E-04   936   0.711E-02    0.320E-02
RMM:   3    -0.677531348424E+03    0.14843E-04   -0.66032E-05   936   0.181E-02    0.167E-02
RMM:   4    -0.677531346063E+03    0.23614E-05   -0.15386E-05   962   0.713E-03    0.702E-03
RMM:   5    -0.677531346550E+03   -0.48673E-06   -0.10766E-06   927   0.228E-03    0.328E-03
RMM:   6    -0.677531346867E+03   -0.31716E-06   -0.19050E-07   584   0.912E-04    0.776E-04
RMM:   7    -0.677531346873E+03   -0.66939E-08   -0.44180E-08   580   0.580E-04
  13 F= -.68605573E+03 E0= -.68605573E+03  d E =-.294231E-03
       N       E                     dE             d eps       ncg     rms          rms(c)
DAV:   1    -0.677527419448E+03    0.39274E-02   -0.32547E-01   940   0.134E+00    0.222E-01
RMM:   2    -0.677527361824E+03    0.57624E-04   -0.89692E-03   936   0.213E-01    0.958E-02
RMM:   3    -0.677527228223E+03    0.13360E-03   -0.59042E-04   936   0.541E-02    0.504E-02
RMM:   4    -0.677527201741E+03    0.26482E-04   -0.13972E-04   962   0.214E-02    0.212E-02
RMM:   5    -0.677527202261E+03   -0.52001E-06   -0.98717E-06   942   0.686E-03    0.987E-03
RMM:   6    -0.677527203018E+03   -0.75632E-06   -0.20490E-06   937   0.268E-03    0.239E-03
RMM:   7    -0.677527202984E+03    0.33906E-07   -0.19985E-07   618   0.994E-04
  14 F= -.68605621E+03 E0= -.68605621E+03  d E =-.772713E-03
       N       E                     dE             d eps       ncg     rms          rms(c)
DAV:   1    -0.677525787561E+03    0.14155E-02   -0.32414E-02   976   0.421E-01    0.699E-02
RMM:   2    -0.677525781145E+03    0.64162E-05   -0.88969E-04   936   0.669E-02    0.302E-02
RMM:   3    -0.677525767852E+03    0.13293E-04   -0.58438E-05   936   0.170E-02    0.159E-02
RMM:   4    -0.677525765703E+03    0.21493E-05   -0.13995E-05   962   0.676E-03    0.665E-03
RMM:   5    -0.677525766148E+03   -0.44575E-06   -0.99390E-07   926   0.217E-03    0.309E-03
RMM:   6    -0.677525766432E+03   -0.28352E-06   -0.18004E-07   584   0.864E-04    0.732E-04
RMM:   7    -0.677525766435E+03   -0.32887E-08   -0.41623E-08   581   0.531E-04
  15 F= -.68605623E+03 E0= -.68605623E+03  d E =-.796059E-03
       N       E                     dE             d eps       ncg     rms          rms(c)
DAV:   1    -0.677524196542E+03    0.15699E-02   -0.80081E-02   940   0.658E-01    0.109E-01
RMM:   2    -0.677524204860E+03   -0.83180E-05   -0.21821E-03   936   0.104E-01    0.470E-02
RMM:   3    -0.677524174101E+03    0.30759E-04   -0.13223E-04   937   0.261E-02    0.251E-02
RMM:   4    -0.677524167799E+03    0.63025E-05   -0.36923E-05   959   0.109E-02    0.918E-03
RMM:   5    -0.677524168271E+03   -0.47200E-06   -0.23456E-06   944   0.337E-03    0.436E-03
RMM:   6    -0.677524168649E+03   -0.37794E-06   -0.49586E-07   839   0.126E-03    0.121E-03
RMM:   7    -0.677524168665E+03   -0.15760E-07   -0.60432E-08   584   0.602E-04
  16 F= -.68605663E+03 E0= -.68605663E+03  d E =-.395645E-03
       N       E                     dE             d eps       ncg     rms          rms(c)
DAV:   1    -0.677520347273E+03    0.38214E-02   -0.36810E-01   940   0.141E+00    0.234E-01
RMM:   2    -0.677520390021E+03   -0.42747E-04   -0.10034E-02   936   0.222E-01    0.101E-01
RMM:   3    -0.677520248505E+03    0.14152E-03   -0.60669E-04   936   0.560E-02    0.539E-02
RMM:   4    -0.677520216754E+03    0.31752E-04   -0.17018E-04   961   0.235E-02    0.197E-02
RMM:   5    -0.677520216954E+03   -0.20091E-06   -0.10714E-05   943   0.719E-03    0.936E-03
RMM:   6    -0.677520217628E+03   -0.67338E-06   -0.23115E-06   937   0.269E-03    0.270E-03
RMM:   7    -0.677520217626E+03    0.19645E-08   -0.27353E-07   638   0.121E-03
  17 F= -.68605696E+03 E0= -.68605696E+03  d E =-.723270E-03
       N       E                     dE             d eps       ncg     rms          rms(c)
DAV:   1    -0.677518306180E+03    0.19114E-02   -0.16374E-01   940   0.928E-01    0.144E-01
RMM:   2    -0.677518371611E+03   -0.65431E-04   -0.41709E-03   936   0.142E-01    0.653E-02
RMM:   3    -0.677518308527E+03    0.63084E-04   -0.25382E-04   936   0.357E-02    0.351E-02
RMM:   4    -0.677518295638E+03    0.12890E-04   -0.73166E-05   958   0.155E-02    0.118E-02
RMM:   5    -0.677518295962E+03   -0.32414E-06   -0.44057E-06   946   0.477E-03    0.537E-03
RMM:   6    -0.677518296325E+03   -0.36365E-06   -0.97760E-07   886   0.171E-03    0.153E-03
RMM:   7    -0.677518296295E+03    0.30279E-07   -0.11369E-07   587   0.780E-04
  18 F= -.68605741E+03 E0= -.68605741E+03  d E =-.454345E-03
       N       E                     dE             d eps       ncg     rms          rms(c)
DAV:   1    -0.677515137736E+03    0.31586E-02   -0.29775E-01   940   0.125E+00    0.194E-01
RMM:   2    -0.677515257644E+03   -0.11991E-03   -0.75943E-03   936   0.192E-01    0.880E-02
RMM:   3    -0.677515143240E+03    0.11440E-03   -0.46216E-04   936   0.481E-02    0.473E-02
RMM:   4    -0.677515119282E+03    0.23957E-04   -0.13284E-04   958   0.209E-02    0.160E-02
RMM:   5    -0.677515119448E+03   -0.16595E-06   -0.79834E-06   946   0.642E-03    0.726E-03
RMM:   6    -0.677515119906E+03   -0.45730E-06   -0.17796E-06   925   0.230E-03    0.214E-03
RMM:   7    -0.677515119855E+03    0.50753E-07   -0.20759E-07   613   0.103E-03
  19 F= -.68605744E+03 E0= -.68605744E+03  d E =-.485347E-03
       N       E                     dE             d eps       ncg     rms          rms(c)
DAV:   1    -0.677516534044E+03   -0.14141E-02   -0.52459E-02   960   0.526E-01    0.815E-02
RMM:   2    -0.677516558247E+03   -0.24203E-04   -0.13343E-03   936   0.808E-02    0.370E-02
RMM:   3    -0.677516538258E+03    0.19989E-04   -0.81806E-05   936   0.202E-02    0.198E-02
RMM:   4    -0.677516533077E+03    0.51812E-05   -0.23094E-05   958   0.872E-03    0.667E-03
RMM:   5    -0.677516532351E+03    0.72606E-06   -0.13779E-06   937   0.268E-03    0.302E-03
RMM:   6    -0.677516532052E+03    0.29815E-06   -0.26673E-07   612   0.973E-04    0.835E-04
RMM:   7    -0.677516532047E+03    0.59008E-08   -0.45576E-08   582   0.508E-04
  20 F= -.68605751E+03 E0= -.68605751E+03  d E =-.550714E-03
       N       E                     dE             d eps       ncg     rms          rms(c)
DAV:   1    -0.677515040510E+03    0.14915E-02   -0.12412E-01   940   0.808E-01    0.116E-01
RMM:   2    -0.677515120664E+03   -0.80155E-04   -0.30035E-03   936   0.121E-01    0.553E-02
RMM:   3    -0.677515077325E+03    0.43339E-04   -0.16416E-04   936   0.291E-02    0.287E-02
RMM:   4    -0.677515068432E+03    0.88927E-05   -0.48749E-05   956   0.127E-02    0.849E-03
RMM:   5    -0.677515068730E+03   -0.29719E-06   -0.25633E-06   945   0.365E-03    0.397E-03
RMM:   6    -0.677515069028E+03   -0.29850E-06   -0.69829E-07   868   0.142E-03    0.115E-03
RMM:   7    -0.677515068994E+03    0.33833E-07   -0.67218E-08   584   0.633E-04
  21 F= -.68605793E+03 E0= -.68605793E+03  d E =-.419850E-03
       N       E                     dE             d eps       ncg     rms          rms(c)
DAV:   1    -0.677512842552E+03    0.22265E-02   -0.19465E-01   940   0.101E+00    0.145E-01
RMM:   2    -0.677512969307E+03   -0.12676E-03   -0.47109E-03   936   0.152E-01    0.692E-02
RMM:   3    -0.677512901378E+03    0.67929E-04   -0.25691E-04   936   0.364E-02    0.360E-02
RMM:   4    -0.677512887044E+03    0.14334E-04   -0.76875E-05   956   0.159E-02    0.107E-02
RMM:   5    -0.677512887262E+03   -0.21873E-06   -0.40524E-06   948   0.458E-03    0.499E-03
RMM:   6    -0.677512887607E+03   -0.34471E-06   -0.11202E-06   900   0.177E-03    0.145E-03
RMM:   7    -0.677512887552E+03    0.54650E-07   -0.10395E-07   584   0.771E-04
  22 F= -.68605810E+03 E0= -.68605810E+03  d E =-.598533E-03
       N       E                     dE             d eps       ncg     rms          rms(c)
DAV:   1    -0.677511186364E+03    0.17012E-02   -0.18982E-01   940   0.998E-01    0.141E-01
RMM:   2    -0.677511300022E+03   -0.11366E-03   -0.43691E-03   936   0.145E-01    0.668E-02
RMM:   3    -0.677511237812E+03    0.62210E-04   -0.24082E-04   936   0.354E-02    0.351E-02
RMM:   4    -0.677511225743E+03    0.12070E-04   -0.67922E-05   956   0.152E-02    0.112E-02
RMM:   5    -0.677511226092E+03   -0.34946E-06   -0.38932E-06   946   0.440E-03    0.493E-03
RMM:   6    -0.677511226404E+03   -0.31179E-06   -0.10438E-06   903   0.171E-03    0.131E-03
RMM:   7    -0.677511226329E+03    0.75383E-07   -0.92985E-08   584   0.712E-04
  23 F= -.68605859E+03 E0= -.68605859E+03  d E =-.482074E-03
       N       E                     dE             d eps       ncg     rms          rms(c)
DAV:   1    -0.677508707302E+03    0.25191E-02   -0.29172E-01   936   0.124E+00    0.175E-01
RMM:   2    -0.677508882503E+03   -0.17520E-03   -0.67184E-03   936   0.180E-01    0.828E-02
RMM:   3    -0.677508787062E+03    0.95441E-04   -0.37015E-04   936   0.439E-02    0.436E-02
RMM:   4    -0.677508768145E+03    0.18917E-04   -0.10447E-04   956   0.188E-02    0.139E-02
RMM:   5    -0.677508768394E+03   -0.24901E-06   -0.59838E-06   946   0.545E-03    0.611E-03
RMM:   6    -0.677508768743E+03   -0.34863E-06   -0.16059E-06   920   0.211E-03    0.166E-03
RMM:   7    -0.677508768638E+03    0.10489E-06   -0.14337E-07   586   0.882E-04    0.794E-04
RMM:   8    -0.677508768600E+03    0.37900E-07   -0.88652E-08   584   0.593E-04
  24 F= -.68605879E+03 E0= -.68605879E+03  d E =-.684764E-03
       N       E                     dE             d eps       ncg     rms          rms(c)
DAV:   1    -0.677507220675E+03    0.15480E-02   -0.12959E-01   940   0.831E-01    0.119E-01
RMM:   2    -0.677507272156E+03   -0.51482E-04   -0.29906E-03   936   0.121E-01    0.567E-02
RMM:   3    -0.677507229535E+03    0.42621E-04   -0.17689E-04   936   0.297E-02    0.284E-02
RMM:   4    -0.677507222390E+03    0.71447E-05   -0.41529E-05   956   0.120E-02    0.941E-03
RMM:   5    -0.677507222901E+03   -0.51049E-06   -0.28171E-06   944   0.371E-03    0.398E-03
RMM:   6    -0.677507223206E+03   -0.30503E-06   -0.55435E-07   851   0.135E-03    0.112E-03
RMM:   7    -0.677507223184E+03    0.21384E-07   -0.57388E-08   584   0.588E-04
  25 F= -.68605922E+03 E0= -.68605922E+03  d E =-.431738E-03
       N       E                     dE             d eps       ncg     rms          rms(c)
DAV:   1    -0.677502895383E+03    0.43278E-02   -0.73780E-01   936   0.198E+00    0.285E-01
RMM:   2    -0.677503191623E+03   -0.29624E-03   -0.17054E-02   936   0.290E-01    0.135E-01
RMM:   3    -0.677502949440E+03    0.24218E-03   -0.10067E-03   936   0.709E-02    0.678E-02
RMM:   4    -0.677502904743E+03    0.44697E-04   -0.23631E-04   956   0.286E-02    0.226E-02
RMM:   5    -0.677502904736E+03    0.70177E-08   -0.15981E-05   944   0.884E-03    0.953E-03
RMM:   6    -0.677502905341E+03   -0.60500E-06   -0.31794E-06   943   0.321E-03    0.277E-03
RMM:   7    -0.677502905251E+03    0.89804E-07   -0.31388E-07   650   0.131E-03
  26 F= -.68605963E+03 E0= -.68605963E+03  d E =-.839769E-03
       N       E                     dE             d eps       ncg     rms          rms(c)
DAV:   1    -0.677500556598E+03    0.23487E-02   -0.25714E-01   936   0.118E+00    0.174E-01
RMM:   2    -0.677500656957E+03   -0.10036E-03   -0.60821E-03   936   0.173E-01    0.813E-02
RMM:   3    -0.677500572585E+03    0.84372E-04   -0.36217E-04   937   0.424E-02    0.401E-02
RMM:   4    -0.677500557277E+03    0.15308E-04   -0.81449E-05   955   0.169E-02    0.129E-02
RMM:   5    -0.677500557603E+03   -0.32606E-06   -0.55230E-06   942   0.521E-03    0.559E-03
RMM:   6    -0.677500557998E+03   -0.39575E-06   -0.12636E-06   910   0.198E-03    0.162E-03
RMM:   7    -0.677500557961E+03    0.37129E-07   -0.11996E-07   584   0.845E-04
  27 F= -.68606017E+03 E0= -.68606017E+03  d E =-.542605E-03
       N       E                     dE             d eps       ncg     rms          rms(c)
DAV:   1    -0.677496618621E+03    0.39394E-02   -0.54636E-01   936   0.171E+00    0.254E-01
RMM:   2    -0.677496830881E+03   -0.21226E-03   -0.12940E-02   936   0.252E-01    0.119E-01
RMM:   3    -0.677496651484E+03    0.17940E-03   -0.77077E-04   937   0.619E-02    0.585E-02
RMM:   4    -0.677496617710E+03    0.33774E-04   -0.17287E-04   955   0.246E-02    0.189E-02
RMM:   5    -0.677496617606E+03    0.10377E-06   -0.11716E-05   943   0.760E-03    0.816E-03
RMM:   6    -0.677496618117E+03   -0.51100E-06   -0.26704E-06   940   0.287E-03    0.243E-03
RMM:   7    -0.677496618049E+03    0.68234E-07   -0.26443E-07   634   0.120E-03
  28 F= -.68606045E+03 E0= -.68606045E+03  d E =-.823488E-03
       N       E                     dE             d eps       ncg     rms          rms(c)
DAV:   1    -0.677495091255E+03    0.15269E-02   -0.14861E-01   936   0.889E-01    0.127E-01
RMM:   2    -0.677495162964E+03   -0.71709E-04   -0.34238E-03   936   0.128E-01    0.607E-02
RMM:   3    -0.677495116164E+03    0.46800E-04   -0.19701E-04   937   0.317E-02    0.305E-02
RMM:   4    -0.677495107601E+03    0.85628E-05   -0.48712E-05   955   0.131E-02    0.967E-03
RMM:   5    -0.677495107952E+03   -0.35051E-06   -0.31247E-06   947   0.391E-03    0.431E-03
RMM:   6    -0.677495108253E+03   -0.30068E-06   -0.73807E-07   873   0.148E-03    0.123E-03
RMM:   7    -0.677495108233E+03    0.19652E-07   -0.71519E-08   584   0.662E-04
  29 F= -.68606092E+03 E0= -.68606092E+03  d E =-.465629E-03
       N       E                     dE             d eps       ncg     rms          rms(c)
DAV:   1    -0.677489807953E+03    0.53003E-02   -0.13374E+00   936   0.267E+00    0.382E-01
RMM:   2    -0.677490452775E+03   -0.64482E-03   -0.30944E-02   936   0.386E-01    0.182E-01
RMM:   3    -0.677490032772E+03    0.42000E-03   -0.17785E-03   938   0.953E-02    0.919E-02
RMM:   4    -0.677489947563E+03    0.85209E-04   -0.43702E-04   954   0.393E-02    0.292E-02
RMM:   5    -0.677489945846E+03    0.17169E-05   -0.28096E-05   947   0.117E-02    0.130E-02
RMM:   6    -0.677489946370E+03   -0.52371E-06   -0.65988E-06   944   0.441E-03    0.379E-03
RMM:   7    -0.677489946221E+03    0.14907E-06   -0.69767E-07   855   0.186E-03    0.167E-03
RMM:   8    -0.677489946117E+03    0.10397E-06   -0.22345E-07   604   0.885E-04    0.507E-04
RMM:   9    -0.677489946134E+03   -0.16978E-07   -0.53263E-08   584   0.590E-04
  30 F= -.68606170E+03 E0= -.68606170E+03  d E =-.124434E-02
       N       E                     dE             d eps       ncg     rms          rms(c)
DAV:   1    -0.677487744628E+03    0.22015E-02   -0.18881E-01   936   0.100E+00    0.143E-01
RMM:   2    -0.677487833714E+03   -0.89086E-04   -0.43516E-03   936   0.145E-01    0.685E-02
RMM:   3    -0.677487774119E+03    0.59595E-04   -0.25160E-04   938   0.358E-02    0.344E-02
RMM:   4    -0.677487763084E+03    0.11035E-04   -0.61488E-05   954   0.147E-02    0.109E-02
RMM:   5    -0.677487763421E+03   -0.33675E-06   -0.39715E-06   947   0.441E-03    0.485E-03
RMM:   6    -0.677487763752E+03   -0.33095E-06   -0.93039E-07   894   0.166E-03    0.138E-03
RMM:   7    -0.677487763727E+03    0.25448E-07   -0.86111E-08   584   0.729E-04
  31 F= -.68606175E+03 E0= -.68606175E+03  d E =-.129925E-02
       N       E                     dE             d eps       ncg     rms          rms(c)
DAV:   1    -0.677485724998E+03    0.20388E-02   -0.41016E-01   936   0.146E+00    0.198E-01
RMM:   2    -0.677485999918E+03   -0.27492E-03   -0.88733E-03   936   0.206E-01    0.977E-02
RMM:   3    -0.677485884070E+03    0.11585E-03   -0.49368E-04   936   0.508E-02    0.512E-02
RMM:   4    -0.677485860493E+03    0.23577E-04   -0.13470E-04   956   0.219E-02    0.157E-02
RMM:   5    -0.677485860489E+03    0.35943E-08   -0.75666E-06   947   0.612E-03    0.736E-03
RMM:   6    -0.677485860896E+03   -0.40641E-06   -0.21298E-06   927   0.246E-03    0.190E-03
RMM:   7    -0.677485860796E+03    0.99870E-07   -0.15637E-07   588   0.970E-04
  32 F= -.68606243E+03 E0= -.68606243E+03  d E =-.681802E-03
       N       E                     dE             d eps       ncg     rms          rms(c)
DAV:   1    -0.677481791659E+03    0.40692E-02   -0.10388E+00   936   0.233E+00    0.316E-01
RMM:   2    -0.677482487819E+03   -0.69616E-03   -0.22512E-02   936   0.328E-01    0.156E-01
RMM:   3    -0.677482195375E+03    0.29244E-03   -0.12512E-03   936   0.810E-02    0.817E-02
RMM:   4    -0.677482133971E+03    0.61405E-04   -0.34160E-04   956   0.349E-02    0.251E-02
RMM:   5    -0.677482132934E+03    0.10370E-05   -0.19198E-05   947   0.975E-03    0.118E-02
RMM:   6    -0.677482133457E+03   -0.52378E-06   -0.53884E-06   941   0.392E-03    0.308E-03
RMM:   7    -0.677482133264E+03    0.19314E-06   -0.44738E-07   731   0.153E-03    0.143E-03
RMM:   8    -0.677482133167E+03    0.97272E-07   -0.19088E-07   586   0.839E-04
  33 F= -.68606283E+03 E0= -.68606283E+03  d E =-.107879E-02
       N       E                     dE             d eps       ncg     rms          rms(c)
DAV:   1    -0.677479951505E+03    0.21818E-02   -0.65430E-01   936   0.184E+00    0.230E-01
RMM:   2    -0.677480540756E+03   -0.58925E-03   -0.13393E-02   936   0.253E-01    0.119E-01
RMM:   3    -0.677480387485E+03    0.15327E-03   -0.69983E-04   936   0.620E-02    0.626E-02
RMM:   4    -0.677480354289E+03    0.33196E-04   -0.20167E-04   956   0.273E-02    0.167E-02
RMM:   5    -0.677480353979E+03    0.31026E-06   -0.95723E-06   949   0.706E-03    0.853E-03
RMM:   6    -0.677480354423E+03   -0.44418E-06   -0.38359E-06   938   0.327E-03    0.207E-03
RMM:   7    -0.677480354255E+03    0.16863E-06   -0.24382E-07   608   0.119E-03    0.107E-03
RMM:   8    -0.677480354214E+03    0.40771E-07   -0.12647E-07   584   0.745E-04
  34 F= -.68606364E+03 E0= -.68606364E+03  d E =-.808412E-03
       N       E                     dE             d eps       ncg     rms          rms(c)
DAV:   1    -0.677473607077E+03    0.67472E-02   -0.26290E+00   936   0.369E+00    0.462E-01
RMM:   2    -0.677475970198E+03   -0.23631E-02   -0.53975E-02   936   0.507E-01    0.238E-01
RMM:   3    -0.677475358908E+03    0.61129E-03   -0.28147E-03   936   0.124E-01    0.126E-01
RMM:   4    -0.677475221741E+03    0.13717E-03   -0.81179E-04   956   0.550E-02    0.338E-02
RMM:   5    -0.677475218454E+03    0.32868E-05   -0.38544E-05   950   0.142E-02    0.173E-02
RMM:   6    -0.677475218931E+03   -0.47658E-06   -0.15495E-05   944   0.658E-03    0.418E-03
RMM:   7    -0.677475218475E+03    0.45593E-06   -0.11608E-06   909   0.238E-03    0.202E-03
RMM:   8    -0.677475218386E+03    0.89145E-07   -0.33678E-07   687   0.105E-03
  35 F= -.68606371E+03 E0= -.68606371E+03  d E =-.883511E-03
       N       E                     dE             d eps       ncg     rms          rms(c)
DAV:   1    -0.677477459416E+03   -0.22409E-02   -0.53306E-01   936   0.166E+00    0.206E-01
RMM:   2    -0.677477948514E+03   -0.48910E-03   -0.10866E-02   936   0.228E-01    0.108E-01
RMM:   3    -0.677477823116E+03    0.12540E-03   -0.57092E-04   936   0.558E-02    0.563E-02
RMM:   4    -0.677477793242E+03    0.29874E-04   -0.16321E-04   956   0.245E-02    0.150E-02
RMM:   5    -0.677477791146E+03    0.20960E-05   -0.77229E-06   949   0.636E-03    0.759E-03
RMM:   6    -0.677477790401E+03    0.74448E-06   -0.30412E-06   933   0.290E-03    0.186E-03
RMM:   7    -0.677477790442E+03   -0.40323E-07   -0.18357E-07   591   0.105E-03
  36 F= -.68606394E+03 E0= -.68606394E+03  d E =-.110543E-02
       N       E                     dE             d eps       ncg     rms          rms(c)
DAV:   1    -0.677476119828E+03    0.16706E-02   -0.65749E-01   936   0.184E+00    0.218E-01
RMM:   2    -0.677476776581E+03   -0.65675E-03   -0.12987E-02   936   0.248E-01    0.116E-01
RMM:   3    -0.677476642052E+03    0.13453E-03   -0.66579E-04   936   0.606E-02    0.606E-02
RMM:   4    -0.677476612918E+03    0.29134E-04   -0.18442E-04   956   0.266E-02    0.143E-02
RMM:   5    -0.677476612655E+03    0.26313E-06   -0.86863E-06   953   0.674E-03    0.721E-03
RMM:   6    -0.677476612990E+03   -0.33506E-06   -0.32340E-06   931   0.304E-03    0.181E-03
RMM:   7    -0.677476612881E+03    0.10827E-06   -0.19650E-07   596   0.111E-03    0.943E-04
RMM:   8    -0.677476612868E+03    0.13773E-07   -0.89608E-08   584   0.663E-04
  37 F= -.68606481E+03 E0= -.68606481E+03  d E =-.876328E-03
       N       E                     dE             d eps       ncg     rms          rms(c)
DAV:   1    -0.677471754450E+03    0.48584E-02   -0.22350E+00   936   0.339E+00    0.403E-01
RMM:   2    -0.677473988380E+03   -0.22339E-02   -0.44249E-02   936   0.458E-01    0.215E-01
RMM:   3    -0.677473533836E+03    0.45454E-03   -0.22624E-03   936   0.112E-01    0.112E-01
RMM:   4    -0.677473431850E+03    0.10199E-03   -0.62978E-04   956   0.492E-02    0.265E-02
RMM:   5    -0.677473429623E+03    0.22271E-05   -0.29728E-05   954   0.125E-02    0.134E-02
RMM:   6    -0.677473429884E+03   -0.26043E-06   -0.11166E-05   942   0.567E-03    0.337E-03
RMM:   7    -0.677473429621E+03    0.26284E-06   -0.80420E-07   878   0.206E-03    0.166E-03
RMM:   8    -0.677473429584E+03    0.37140E-07   -0.20462E-07   593   0.880E-04
  38 F= -.68606544E+03 E0= -.68606544E+03  d E =-.150052E-02
       N       E                     dE             d eps       ncg     rms          rms(c)
DAV:   1    -0.677471501913E+03    0.19277E-02   -0.83812E-01   936   0.208E+00    0.242E-01
RMM:   2    -0.677472393339E+03   -0.89143E-03   -0.16316E-02   936   0.278E-01    0.130E-01
RMM:   3    -0.677472236816E+03    0.15652E-03   -0.79573E-04   936   0.670E-02    0.674E-02
RMM:   4    -0.677472201726E+03    0.35090E-04   -0.22810E-04   956   0.299E-02    0.143E-02
RMM:   5    -0.677472201008E+03    0.71847E-06   -0.10153E-05   954   0.729E-03    0.770E-03
RMM:   6    -0.677472201338E+03   -0.33021E-06   -0.37190E-06   933   0.332E-03    0.206E-03
RMM:   7    -0.677472201259E+03    0.78580E-07   -0.23622E-07   608   0.126E-03
  39 F= -.68606640E+03 E0= -.68606640E+03  d E =-.958813E-03
       N       E                     dE             d eps       ncg     rms          rms(c)
DAV:   1    -0.677467370222E+03    0.48311E-02   -0.22030E+00   936   0.337E+00    0.394E-01
RMM:   2    -0.677469711677E+03   -0.23415E-02   -0.42966E-02   936   0.450E-01    0.211E-01
RMM:   3    -0.677469302671E+03    0.40901E-03   -0.20922E-03   936   0.109E-01    0.109E-01
RMM:   4    -0.677469208362E+03    0.94308E-04   -0.60047E-04   956   0.486E-02    0.234E-02
RMM:   5    -0.677469205728E+03    0.26344E-05   -0.26723E-05   954   0.118E-02    0.126E-02
RMM:   6    -0.677469206055E+03   -0.32689E-06   -0.98735E-06   939   0.542E-03    0.338E-03
RMM:   7    -0.677469205905E+03    0.14964E-06   -0.72712E-07   894   0.205E-03    0.163E-03
RMM:   8    -0.677469205880E+03    0.25251E-07   -0.15584E-07   585   0.810E-04
  40 F= -.68606697E+03 E0= -.68606697E+03  d E =-.153038E-02
       N       E                     dE             d eps       ncg     rms          rms(c)
DAV:   1    -0.677467770140E+03    0.14358E-02   -0.74943E-01   936   0.197E+00    0.220E-01
RMM:   2    -0.677468569243E+03   -0.79910E-03   -0.13953E-02   936   0.257E-01    0.121E-01
RMM:   3    -0.677468432650E+03    0.13659E-03   -0.68891E-04   939   0.625E-02    0.634E-02
RMM:   4    -0.677468403460E+03    0.29190E-04   -0.19673E-04   956   0.278E-02    0.149E-02
RMM:   5    -0.677468402824E+03    0.63692E-06   -0.86739E-06   953   0.669E-03    0.805E-03
RMM:   6    -0.677468403183E+03   -0.35893E-06   -0.36207E-06   940   0.327E-03    0.204E-03
RMM:   7    -0.677468403051E+03    0.13150E-06   -0.23545E-07   605   0.123E-03    0.104E-03
RMM:   8    -0.677468403033E+03    0.18386E-07   -0.93679E-08   584   0.745E-04
  41 F= -.68606777E+03 E0= -.68606777E+03  d E =-.801812E-03
       N       E                     dE             d eps       ncg     rms          rms(c)
DAV:   1    -0.677465184923E+03    0.32181E-02   -0.14339E+00   936   0.272E+00    0.305E-01
RMM:   2    -0.677466713951E+03   -0.15290E-02   -0.26725E-02   936   0.355E-01    0.167E-01
RMM:   3    -0.677466453817E+03    0.26013E-03   -0.13180E-03   939   0.864E-02    0.879E-02
RMM:   4    -0.677466397042E+03    0.56775E-04   -0.37700E-04   956   0.386E-02    0.207E-02
RMM:   5    -0.677466395438E+03    0.16037E-05   -0.16629E-05   954   0.926E-03    0.112E-02
RMM:   6    -0.677466395844E+03   -0.40562E-06   -0.69397E-06   940   0.452E-03    0.283E-03
RMM:   7    -0.677466395646E+03    0.19806E-06   -0.50415E-07   799   0.170E-03    0.135E-03
RMM:   8    -0.677466395622E+03    0.23967E-07   -0.12548E-07   584   0.753E-04
  42 F= -.68606800E+03 E0= -.68606800E+03  d E =-.102817E-02
       N       E                     dE             d eps       ncg     rms          rms(c)
DAV:   1    -0.677466945920E+03   -0.55027E-03   -0.10229E-01   972   0.727E-01    0.811E-02
RMM:   2    -0.677467056795E+03   -0.11088E-03   -0.18974E-03   936   0.950E-02    0.446E-02
RMM:   3    -0.677467038210E+03    0.18586E-04   -0.93832E-05   938   0.230E-02    0.233E-02
RMM:   4    -0.677467033535E+03    0.46744E-05   -0.26667E-05   956   0.102E-02    0.545E-03
RMM:   5    -0.677467033050E+03    0.48466E-06   -0.11812E-06   928   0.248E-03    0.284E-03
RMM:   6    -0.677467032835E+03    0.21521E-06   -0.45982E-07   791   0.120E-03    0.740E-04
RMM:   7    -0.677467032857E+03   -0.21817E-07   -0.37408E-08   584   0.520E-04
  43 F= -.68606803E+03 E0= -.68606803E+03  d E =-.106726E-02
       N       E                     dE             d eps       ncg     rms          rms(c)
DAV:   1    -0.677466148756E+03    0.88408E-03   -0.60285E-01   936   0.176E+00    0.194E-01
RMM:   2    -0.677466813467E+03   -0.66471E-03   -0.11053E-02   936   0.228E-01    0.110E-01
RMM:   3    -0.677466708069E+03    0.10540E-03   -0.52378E-04   940   0.552E-02    0.600E-02
RMM:   4    -0.677466683451E+03    0.24618E-04   -0.16353E-04   956   0.253E-02    0.139E-02
RMM:   5    -0.677466683010E+03    0.44153E-06   -0.74657E-06   951   0.612E-03    0.736E-03
RMM:   6    -0.677466683285E+03   -0.27521E-06   -0.23836E-06   932   0.273E-03    0.209E-03
RMM:   7    -0.677466683235E+03    0.49800E-07   -0.16690E-07   594   0.107E-03
  44 F= -.68606872E+03 E0= -.68606872E+03  d E =-.682384E-03
       N       E                     dE             d eps       ncg     rms          rms(c)
DAV:   1    -0.677465705300E+03    0.97799E-03   -0.35636E-01   936   0.136E+00    0.149E-01
RMM:   2    -0.677466098261E+03   -0.39296E-03   -0.65338E-03   936   0.175E-01    0.843E-02
RMM:   3    -0.677466035972E+03    0.62289E-04   -0.30965E-04   940   0.424E-02    0.461E-02
RMM:   4    -0.677466021667E+03    0.14304E-04   -0.96915E-05   956   0.194E-02    0.107E-02
RMM:   5    -0.677466021513E+03    0.15357E-06   -0.44285E-06   953   0.471E-03    0.566E-03
RMM:   6    -0.677466021747E+03   -0.23332E-06   -0.14047E-06   908   0.210E-03    0.161E-03
RMM:   7    -0.677466021713E+03    0.33491E-07   -0.97221E-08   584   0.827E-04
  45 F= -.68606885E+03 E0= -.68606885E+03  d E =-.818574E-03
       N       E                     dE             d eps       ncg     rms          rms(c)
DAV:   1    -0.677465234711E+03    0.78704E-03   -0.42857E-01   936   0.149E+00    0.159E-01
RMM:   2    -0.677465713587E+03   -0.47888E-03   -0.79525E-03   936   0.192E-01    0.924E-02
RMM:   3    -0.677465635793E+03    0.77794E-04   -0.39917E-04   939   0.471E-02    0.489E-02
RMM:   4    -0.677465618725E+03    0.17067E-04   -0.11110E-04   956   0.209E-02    0.109E-02
RMM:   5    -0.677465618363E+03    0.36224E-06   -0.54890E-06   951   0.531E-03    0.548E-03
RMM:   6    -0.677465618552E+03   -0.18940E-06   -0.17138E-06   912   0.225E-03    0.152E-03
RMM:   7    -0.677465618508E+03    0.44369E-07   -0.11599E-07   585   0.866E-04
  46 F= -.68606937E+03 E0= -.68606937E+03  d E =-.515515E-03
       N       E                     dE             d eps       ncg     rms          rms(c)
DAV:   1    -0.677464664672E+03    0.95388E-03   -0.30890E-01   936   0.127E+00    0.135E-01
RMM:   2    -0.677465009538E+03   -0.34487E-03   -0.57300E-03   936   0.163E-01    0.784E-02
RMM:   3    -0.677464953304E+03    0.56235E-04   -0.28711E-04   938   0.400E-02    0.415E-02
RMM:   4    -0.677464941173E+03    0.12131E-04   -0.80477E-05   956   0.179E-02    0.923E-03
RMM:   5    -0.677464940967E+03    0.20596E-06   -0.40138E-06   951   0.454E-03    0.467E-03
RMM:   6    -0.677464941140E+03   -0.17289E-06   -0.12366E-06   907   0.191E-03    0.130E-03
RMM:   7    -0.677464941103E+03    0.37158E-07   -0.85380E-08   584   0.744E-04
  47 F= -.68606947E+03 E0= -.68606947E+03  d E =-.621118E-03
       N       E                     dE             d eps       ncg     rms          rms(c)
DAV:   1    -0.677464079428E+03    0.86171E-03   -0.42262E-01   936   0.149E+00    0.168E-01
RMM:   2    -0.677464550011E+03   -0.47058E-03   -0.78841E-03   936   0.193E-01    0.937E-02
RMM:   3    -0.677464472378E+03    0.77633E-04   -0.40029E-04   940   0.471E-02    0.484E-02
RMM:   4    -0.677464454700E+03    0.17678E-04   -0.11137E-04   956   0.209E-02    0.952E-03
RMM:   5    -0.677464454275E+03    0.42529E-06   -0.50669E-06   953   0.521E-03    0.511E-03
RMM:   6    -0.677464454432E+03   -0.15681E-06   -0.17593E-06   912   0.233E-03    0.145E-03
RMM:   7    -0.677464454410E+03    0.22137E-07   -0.11668E-07   584   0.869E-04
  48 F= -.68606996E+03 E0= -.68606996E+03  d E =-.484600E-03
       N       E                     dE             d eps       ncg     rms          rms(c)
DAV:   1    -0.677463860817E+03    0.59362E-03   -0.12765E-01   952   0.816E-01    0.922E-02
RMM:   2    -0.677464002779E+03   -0.14196E-03   -0.23800E-03   936   0.106E-01    0.515E-02
RMM:   3    -0.677463979356E+03    0.23423E-04   -0.12088E-04   940   0.259E-02    0.266E-02
RMM:   4    -0.677463974272E+03    0.50840E-05   -0.33707E-05   956   0.115E-02    0.522E-03
RMM:   5    -0.677463974229E+03    0.43095E-07   -0.15311E-06   939   0.286E-03    0.278E-03
RMM:   6    -0.677463974334E+03   -0.10442E-06   -0.51707E-07   814   0.128E-03    0.798E-04
RMM:   7    -0.677463974328E+03    0.58972E-08   -0.42118E-08   584   0.537E-04
  49 F= -.68607001E+03 E0= -.68607001E+03  d E =-.540079E-03
       N       E                     dE             d eps       ncg     rms          rms(c)
DAV:   1    -0.677463737871E+03    0.23646E-03   -0.20400E-01   936   0.103E+00    0.120E-01
RMM:   2    -0.677464006808E+03   -0.26894E-03   -0.39585E-03   936   0.137E-01    0.665E-02
RMM:   3    -0.677463970929E+03    0.35880E-04   -0.18398E-04   936   0.323E-02    0.365E-02
RMM:   4    -0.677463961185E+03    0.97434E-05   -0.63630E-05   956   0.153E-02    0.619E-03
RMM:   5    -0.677463960849E+03    0.33641E-06   -0.25426E-06   952   0.382E-03    0.343E-03
RMM:   6    -0.677463960898E+03   -0.48720E-07   -0.83421E-07   898   0.160E-03
  50 F= -.68607041E+03 E0= -.68607041E+03  d E =-.393991E-03
       N       E                     dE             d eps       ncg     rms          rms(c)
DAV:   1    -0.677463587902E+03    0.37295E-03   -0.12412E-01   936   0.803E-01    0.938E-02
RMM:   2    -0.677463751544E+03   -0.16364E-03   -0.24075E-03   936   0.107E-01    0.518E-02
RMM:   3    -0.677463729941E+03    0.21604E-04   -0.11219E-04   937   0.252E-02    0.285E-02
RMM:   4    -0.677463724126E+03    0.58141E-05   -0.38718E-05   956   0.120E-02    0.482E-03
RMM:   5    -0.677463723944E+03    0.18216E-06   -0.15455E-06   942   0.298E-03    0.268E-03
RMM:   6    -0.677463723986E+03   -0.41859E-07   -0.50696E-07   813   0.127E-03
  51 F= -.68607049E+03 E0= -.68607049E+03  d E =-.476390E-03
       N       E                     dE             d eps       ncg     rms          rms(c)
DAV:   1    -0.677463740165E+03   -0.16220E-04   -0.14859E-01   936   0.879E-01    0.987E-02
RMM:   2    -0.677463948333E+03   -0.20817E-03   -0.28851E-03   936   0.117E-01    0.557E-02
RMM:   3    -0.677463924073E+03    0.24260E-04   -0.12192E-04   937   0.272E-02    0.321E-02
RMM:   4    -0.677463915995E+03    0.80787E-05   -0.53000E-05   958   0.138E-02    0.523E-03
RMM:   5    -0.677463915522E+03    0.47282E-06   -0.17576E-06   941   0.314E-03    0.305E-03
RMM:   6    -0.677463915530E+03   -0.87566E-08   -0.79981E-07   892   0.153E-03
  52 F= -.68607084E+03 E0= -.68607084E+03  d E =-.354077E-03
       N       E                     dE             d eps       ncg     rms          rms(c)
DAV:   1    -0.677463486568E+03    0.42895E-03   -0.28593E-01   936   0.122E+00    0.137E-01
RMM:   2    -0.677463887020E+03   -0.40045E-03   -0.55492E-03   936   0.162E-01    0.773E-02
RMM:   3    -0.677463840332E+03    0.46688E-04   -0.23461E-04   937   0.377E-02    0.445E-02
RMM:   4    -0.677463824764E+03    0.15568E-04   -0.10188E-04   958   0.191E-02    0.725E-03
RMM:   5    -0.677463823809E+03    0.95470E-06   -0.33815E-06   945   0.436E-03    0.424E-03
RMM:   6    -0.677463823794E+03    0.14435E-07   -0.15378E-06   913   0.211E-03    0.123E-03
RMM:   7    -0.677463823774E+03    0.20642E-07   -0.77459E-08   584   0.712E-04
  53 F= -.68607098E+03 E0= -.68607098E+03  d E =-.490242E-03
       N       E                     dE             d eps       ncg     rms          rms(c)
DAV:   1    -0.677463878987E+03   -0.55193E-04   -0.19770E-01   936   0.101E+00    0.114E-01
RMM:   2    -0.677464143293E+03   -0.26431E-03   -0.37273E-03   936   0.132E-01    0.646E-02
RMM:   3    -0.677464112751E+03    0.30541E-04   -0.16290E-04   939   0.308E-02    0.373E-02
RMM:   4    -0.677464102765E+03    0.99867E-05   -0.68801E-05   958   0.155E-02    0.636E-03
RMM:   5    -0.677464102183E+03    0.58212E-06   -0.27125E-06   941   0.380E-03    0.359E-03
RMM:   6    -0.677464102213E+03   -0.29875E-07   -0.71851E-07   878   0.149E-03
  54 F= -.68607133E+03 E0= -.68607133E+03  d E =-.353309E-03
       N       E                     dE             d eps       ncg     rms          rms(c)
DAV:   1    -0.677463928093E+03    0.17409E-03   -0.20902E-01   936   0.104E+00    0.117E-01
RMM:   2    -0.677464207850E+03   -0.27976E-03   -0.39392E-03   936   0.136E-01    0.665E-02
RMM:   3    -0.677464175766E+03    0.32083E-04   -0.17239E-04   939   0.317E-02    0.384E-02
RMM:   4    -0.677464165272E+03    0.10495E-04   -0.72773E-05   958   0.160E-02    0.654E-03
RMM:   5    -0.677464164650E+03    0.62188E-06   -0.28648E-06   941   0.390E-03    0.370E-03
RMM:   6    -0.677464164679E+03   -0.29711E-07   -0.77682E-07   889   0.154E-03
  55 F= -.68607148E+03 E0= -.68607148E+03  d E =-.494487E-03
       N       E                     dE             d eps       ncg     rms          rms(c)
DAV:   1    -0.677464252940E+03   -0.88290E-04   -0.57995E-02   960   0.552E-01    0.604E-02
RMM:   2    -0.677464325897E+03   -0.72957E-04   -0.10813E-03   936   0.706E-02    0.361E-02
RMM:   3    -0.677464316600E+03    0.92965E-05   -0.53540E-05   938   0.172E-02    0.200E-02
RMM:   4    -0.677464314594E+03    0.20065E-05   -0.19342E-05   960   0.854E-03    0.433E-03
RMM:   5    -0.677464314442E+03    0.15123E-06   -0.16583E-06   925   0.264E-03    0.207E-03
RMM:   6    -0.677464314457E+03   -0.14577E-07   -0.14597E-07   590   0.869E-04
  56 F= -.68607178E+03 E0= -.68607178E+03  d E =-.299695E-03
       N       E                     dE             d eps       ncg     rms          rms(c)
DAV:   1    -0.677464248182E+03    0.66260E-04   -0.33753E-02   968   0.421E-01    0.460E-02
RMM:   2    -0.677464290527E+03   -0.42344E-04   -0.62992E-04   936   0.538E-02    0.275E-02
RMM:   3    -0.677464285165E+03    0.53615E-05   -0.31181E-05   938   0.131E-02    0.153E-02
RMM:   4    -0.677464284069E+03    0.10964E-05   -0.11277E-05   960   0.652E-03    0.330E-03
RMM:   5    -0.677464283989E+03    0.79774E-07   -0.95283E-07   855   0.201E-03
  57 F= -.68607186E+03 E0= -.68607186E+03  d E =-.383823E-03
       N       E                     dE             d eps       ncg     rms          rms(c)
DAV:   1    -0.677464399259E+03   -0.11519E-03   -0.51169E-02   936   0.520E-01    0.624E-02
RMM:   2    -0.677464460574E+03   -0.61315E-04   -0.89893E-04   936   0.644E-02    0.327E-02
RMM:   3    -0.677464452968E+03    0.76061E-05   -0.44654E-05   945   0.159E-02    0.188E-02
RMM:   4    -0.677464451030E+03    0.19375E-05   -0.14767E-05   953   0.744E-03    0.414E-03
RMM:   5    -0.677464450933E+03    0.97196E-07   -0.11544E-06   904   0.226E-03    0.201E-03
RMM:   6    -0.677464450956E+03   -0.22625E-07   -0.12939E-07   588   0.795E-04
  58 F= -.68607214E+03 E0= -.68607214E+03  d E =-.283550E-03
       N       E                     dE             d eps       ncg     rms          rms(c)
DAV:   1    -0.677464328587E+03    0.12235E-03   -0.10171E-01   936   0.732E-01    0.879E-02
RMM:   2    -0.677464450142E+03   -0.12155E-03   -0.17885E-03   936   0.907E-02    0.459E-02
RMM:   3    -0.677464434896E+03    0.15246E-04   -0.88620E-05   945   0.223E-02    0.264E-02
RMM:   4    -0.677464430845E+03    0.40511E-05   -0.29521E-05   954   0.105E-02    0.585E-03
RMM:   5    -0.677464430602E+03    0.24319E-06   -0.23329E-06   941   0.319E-03    0.284E-03
RMM:   6    -0.677464430622E+03   -0.20525E-07   -0.25310E-07   619   0.108E-03
  59 F= -.68607229E+03 E0= -.68607229E+03  d E =-.428385E-03
       N       E                     dE             d eps       ncg     rms          rms(c)
DAV:   1    -0.677464440998E+03   -0.10396E-04   -0.49165E-02   940   0.509E-01    0.572E-02
RMM:   2    -0.677464499689E+03   -0.58691E-04   -0.84496E-04   936   0.621E-02    0.325E-02
RMM:   3    -0.677464492417E+03    0.72720E-05   -0.39955E-05   943   0.147E-02    0.184E-02
RMM:   4    -0.677464490637E+03    0.17795E-05   -0.12781E-05   951   0.687E-03    0.381E-03
RMM:   5    -0.677464490636E+03    0.17026E-08   -0.86681E-07   884   0.204E-03
  60 F= -.68607252E+03 E0= -.68607252E+03  d E =-.235255E-03
       N       E                     dE             d eps       ncg     rms          rms(c)
DAV:   1    -0.677464302843E+03    0.18779E-03   -0.92264E-02   936   0.697E-01    0.784E-02
RMM:   2    -0.677464413629E+03   -0.11079E-03   -0.15868E-03   936   0.852E-02    0.446E-02
RMM:   3    -0.677464399978E+03    0.13651E-04   -0.75285E-05   944   0.203E-02    0.253E-02
RMM:   4    -0.677464396542E+03    0.34362E-05   -0.23886E-05   955   0.941E-03    0.526E-03
RMM:   5    -0.677464396489E+03    0.52343E-07   -0.16453E-06   937   0.276E-03    0.245E-03
RMM:   6    -0.677464396534E+03   -0.44551E-07   -0.19033E-07   594   0.929E-04
  61 F= -.68607267E+03 E0= -.68607267E+03  d E =-.381785E-03
       N       E                     dE             d eps       ncg     rms          rms(c)
DAV:   1    -0.677464340425E+03    0.56065E-04   -0.50619E-03  1008   0.163E-01    0.184E-02
RMM:   2    -0.677464346452E+03   -0.60275E-05   -0.87240E-05   936   0.199E-02    0.104E-02
RMM:   3    -0.677464345730E+03    0.72180E-06   -0.41444E-06   943   0.472E-03    0.590E-03
RMM:   4    -0.677464345611E+03    0.11922E-06   -0.13207E-06   936   0.221E-03    0.114E-03
RMM:   5    -0.677464345631E+03   -0.20093E-07   -0.73951E-08   583   0.684E-04
  62 F= -.68607268E+03 E0= -.68607268E+03  d E =-.387333E-03
       N       E                     dE             d eps       ncg     rms          rms(c)
DAV:   1    -0.677464421633E+03   -0.76022E-04   -0.34923E-02   936   0.429E-01    0.640E-02
RMM:   2    -0.677464471671E+03   -0.50038E-04   -0.67483E-04   936   0.561E-02    0.277E-02
RMM:   3    -0.677464465658E+03    0.60128E-05   -0.29709E-05   941   0.129E-02    0.149E-02
RMM:   4    -0.677464464292E+03    0.13661E-05   -0.95110E-06   951   0.588E-03    0.293E-03
RMM:   5    -0.677464464295E+03   -0.21573E-08   -0.43571E-07   708   0.159E-03
  63 F= -.68607289E+03 E0= -.68607289E+03  d E =-.216840E-03
       N       E                     dE             d eps       ncg     rms          rms(c)
DAV:   1    -0.677464323984E+03    0.14031E-03   -0.11580E-01   936   0.781E-01    0.116E-01
RMM:   2    -0.677464490290E+03   -0.16631E-03   -0.22415E-03   936   0.102E-01    0.504E-02
RMM:   3    -0.677464470097E+03    0.20192E-04   -0.98612E-05   941   0.236E-02    0.272E-02
RMM:   4    -0.677464465178E+03    0.49190E-05   -0.31704E-05   952   0.107E-02    0.535E-03
RMM:   5    -0.677464465094E+03    0.84514E-07   -0.15953E-06   944   0.289E-03    0.268E-03
RMM:   6    -0.677464465161E+03   -0.67284E-07   -0.33551E-07   684   0.112E-03
  64 F= -.68607307E+03 E0= -.68607307E+03  d E =-.397054E-03
       N       E                     dE             d eps       ncg     rms          rms(c)
DAV:   1    -0.677464575608E+03   -0.11051E-03   -0.54494E-02   936   0.538E-01    0.638E-02
RMM:   2    -0.677464656971E+03   -0.81363E-04   -0.11152E-03   936   0.724E-02    0.337E-02
RMM:   3    -0.677464646956E+03    0.10015E-04   -0.47160E-05   940   0.165E-02    0.196E-02
RMM:   4    -0.677464643701E+03    0.32543E-05   -0.18884E-05   949   0.810E-03    0.357E-03
RMM:   5    -0.677464643513E+03    0.18838E-06   -0.97426E-07   927   0.224E-03    0.183E-03
RMM:   6    -0.677464643494E+03    0.18827E-07   -0.18323E-07   588   0.872E-04
  65 F= -.68607330E+03 E0= -.68607330E+03  d E =-.223551E-03
       N       E                     dE             d eps       ncg     rms          rms(c)
DAV:   1    -0.677464635119E+03    0.83934E-05   -0.76448E-03   992   0.202E-01    0.239E-02
RMM:   2    -0.677464646424E+03   -0.11305E-04   -0.15638E-04   936   0.271E-02    0.126E-02
RMM:   3    -0.677464644978E+03    0.14461E-05   -0.66226E-06   940   0.618E-03    0.735E-03
RMM:   4    -0.677464644490E+03    0.48793E-06   -0.26691E-06   943   0.304E-03    0.134E-03
RMM:   5    -0.677464644463E+03    0.26925E-07   -0.11436E-07   588   0.860E-04
  66 F= -.68607331E+03 E0= -.68607331E+03  d E =-.241600E-03
       N       E                     dE             d eps       ncg     rms          rms(c)
DAV:   1    -0.677464754014E+03   -0.10952E-03   -0.53036E-02   936   0.529E-01    0.663E-02
RMM:   2    -0.677464832699E+03   -0.78685E-04   -0.10688E-03   936   0.705E-02    0.356E-02
RMM:   3    -0.677464823210E+03    0.94888E-05   -0.44867E-05   938   0.163E-02    0.213E-02
RMM:   4    -0.677464820011E+03    0.31985E-05   -0.19813E-05   951   0.817E-03    0.402E-03
RMM:   5    -0.677464819687E+03    0.32435E-06   -0.10021E-06   913   0.220E-03    0.209E-03
RMM:   6    -0.677464819623E+03    0.64105E-07   -0.16120E-07   590   0.826E-04
  67 F= -.68607351E+03 E0= -.68607351E+03  d E =-.196092E-03
       N       E                     dE             d eps       ncg     rms          rms(c)
DAV:   1    -0.677464791191E+03    0.28496E-04   -0.53794E-02   936   0.532E-01    0.666E-02
RMM:   2    -0.677464870854E+03   -0.79663E-04   -0.10832E-03   936   0.710E-02    0.358E-02
RMM:   3    -0.677464861229E+03    0.96254E-05   -0.45508E-05   938   0.164E-02    0.214E-02
RMM:   4    -0.677464857988E+03    0.32409E-05   -0.20112E-05   950   0.823E-03    0.405E-03
RMM:   5    -0.677464857659E+03    0.32861E-06   -0.10169E-06   916   0.222E-03    0.211E-03
RMM:   6    -0.677464857594E+03    0.65520E-07   -0.16666E-07   593   0.836E-04
  68 F= -.68607357E+03 E0= -.68607357E+03  d E =-.255448E-03
       N       E                     dE             d eps       ncg     rms          rms(c)
DAV:   1    -0.677464926497E+03   -0.68838E-04   -0.45998E-02   936   0.492E-01    0.630E-02
RMM:   2    -0.677464990885E+03   -0.64388E-04   -0.93309E-04   936   0.647E-02    0.339E-02
RMM:   3    -0.677464981773E+03    0.91123E-05   -0.42561E-05   945   0.155E-02    0.192E-02
RMM:   4    -0.677464979242E+03    0.25314E-05   -0.15605E-05   954   0.737E-03    0.423E-03
RMM:   5    -0.677464979066E+03    0.17523E-06   -0.13025E-06   903   0.230E-03    0.164E-03
RMM:   6    -0.677464979045E+03    0.20987E-07   -0.10458E-07   585   0.741E-04
  69 F= -.68607376E+03 E0= -.68607376E+03  d E =-.187182E-03
       N       E                     dE             d eps       ncg     rms          rms(c)
DAV:   1    -0.677464923350E+03    0.55717E-04   -0.46232E-02   936   0.493E-01    0.632E-02
RMM:   2    -0.677464987993E+03   -0.64643E-04   -0.93837E-04   936   0.649E-02    0.340E-02
RMM:   3    -0.677464978846E+03    0.91465E-05   -0.42811E-05   945   0.156E-02    0.193E-02
RMM:   4    -0.677464976306E+03    0.25398E-05   -0.15729E-05   954   0.740E-03    0.424E-03
RMM:   5    -0.677464976129E+03    0.17676E-06   -0.13110E-06   903   0.230E-03    0.165E-03
RMM:   6    -0.677464976109E+03    0.20817E-07   -0.10583E-07   585   0.745E-04
  70 F= -.68607382E+03 E0= -.68607382E+03  d E =-.250304E-03
       N       E                     dE             d eps       ncg     rms          rms(c)
DAV:   1    -0.677464801996E+03    0.17413E-03   -0.72528E-02   936   0.620E-01    0.984E-02
RMM:   2    -0.677464909131E+03   -0.10714E-03   -0.15522E-03   936   0.813E-02    0.450E-02
RMM:   3    -0.677464894643E+03    0.14488E-04   -0.69983E-05   947   0.197E-02    0.270E-02
RMM:   4    -0.677464891293E+03    0.33503E-05   -0.27788E-05   946   0.978E-03    0.619E-03
RMM:   5    -0.677464891056E+03    0.23673E-06   -0.28314E-06   933   0.324E-03    0.299E-03
RMM:   6    -0.677464891099E+03   -0.42521E-07   -0.17898E-07   594   0.101E-03
  71 F= -.68607403E+03 E0= -.68607403E+03  d E =-.211277E-03
       N       E                     dE             d eps       ncg     rms          rms(c)
DAV:   1    -0.677464701649E+03    0.18941E-03   -0.28688E-02   956   0.390E-01    0.619E-02
RMM:   2    -0.677464743813E+03   -0.42164E-04   -0.61325E-04   936   0.511E-02    0.283E-02
RMM:   3    -0.677464738145E+03    0.56679E-05   -0.27726E-05   948   0.124E-02    0.170E-02
RMM:   4    -0.677464736911E+03    0.12344E-05   -0.11036E-05   946   0.616E-03    0.389E-03
RMM:   5    -0.677464736854E+03    0.56883E-07   -0.11004E-06   823   0.204E-03    0.188E-03
RMM:   6    -0.677464736893E+03   -0.38810E-07   -0.81739E-08   583   0.703E-04
  72 F= -.68607406E+03 E0= -.68607406E+03  d E =-.243535E-03
       N       E                     dE             d eps       ncg     rms          rms(c)
DAV:   1    -0.677464374298E+03    0.36256E-03   -0.84674E-02   936   0.670E-01    0.915E-02
RMM:   2    -0.677464484247E+03   -0.10995E-03   -0.17625E-03   936   0.878E-02    0.477E-02
RMM:   3    -0.677464467578E+03    0.16668E-04   -0.84301E-05   943   0.219E-02    0.294E-02
RMM:   4    -0.677464463343E+03    0.42359E-05   -0.33359E-05   951   0.109E-02    0.704E-03
RMM:   5    -0.677464463208E+03    0.13406E-06   -0.39019E-06   940   0.371E-03    0.336E-03
RMM:   6    -0.677464463219E+03   -0.10339E-07   -0.21292E-07   620   0.111E-03
  73 F= -.68607425E+03 E0= -.68607425E+03  d E =-.183083E-03
       N       E                     dE             d eps       ncg     rms          rms(c)
DAV:   1    -0.677464281012E+03    0.18220E-03   -0.13786E-02  1008   0.270E-01    0.370E-02
RMM:   2    -0.677464298639E+03   -0.17627E-04   -0.28638E-04   936   0.354E-02    0.192E-02
RMM:   3    -0.677464296040E+03    0.25994E-05   -0.13736E-05   943   0.882E-03    0.118E-02
RMM:   4    -0.677464295527E+03    0.51282E-06   -0.54367E-06   951   0.439E-03    0.279E-03
RMM:   5    -0.677464295565E+03   -0.37871E-07   -0.59770E-07   718   0.149E-03
  74 F= -.68607426E+03 E0= -.68607426E+03  d E =-.199864E-03
       N       E                     dE             d eps       ncg     rms          rms(c)
DAV:   1    -0.677464012154E+03    0.28337E-03   -0.53535E-02   936   0.535E-01    0.751E-02
RMM:   2    -0.677464092773E+03   -0.80619E-04   -0.11177E-03   936   0.709E-02    0.364E-02
RMM:   3    -0.677464083059E+03    0.97140E-05   -0.49494E-05   942   0.171E-02    0.201E-02
RMM:   4    -0.677464081153E+03    0.19067E-05   -0.15277E-05   957   0.755E-03    0.470E-03
RMM:   5    -0.677464081127E+03    0.25266E-07   -0.14427E-06   926   0.242E-03    0.191E-03
RMM:   6    -0.677464081156E+03   -0.28958E-07   -0.95019E-08   587   0.741E-04
  75 F= -.68607444E+03 E0= -.68607444E+03  d E =-.172729E-03
       N       E                     dE             d eps       ncg     rms          rms(c)
DAV:   1    -0.677463835842E+03    0.24529E-03   -0.23200E-02   936   0.352E-01    0.494E-02
RMM:   2    -0.677463870924E+03   -0.35082E-04   -0.48616E-04   936   0.467E-02    0.239E-02
RMM:   3    -0.677463866830E+03    0.40934E-05   -0.21448E-05   942   0.112E-02    0.132E-02
RMM:   4    -0.677463866142E+03    0.68820E-06   -0.67188E-06   957   0.500E-03    0.309E-03
RMM:   5    -0.677463866150E+03   -0.83237E-08   -0.60295E-07   734   0.160E-03
  76 F= -.68607448E+03 E0= -.68607448E+03  d E =-.212480E-03
       N       E                     dE             d eps       ncg     rms          rms(c)
DAV:   1    -0.677463925167E+03   -0.59025E-04   -0.58383E-02   936   0.557E-01    0.608E-02
RMM:   2    -0.677464011320E+03   -0.86153E-04   -0.11753E-03   936   0.724E-02    0.348E-02
RMM:   3    -0.677464001388E+03    0.99327E-05   -0.51864E-05   944   0.173E-02    0.205E-02
RMM:   4    -0.677463998672E+03    0.27153E-05   -0.19202E-05   955   0.837E-03    0.482E-03
RMM:   5    -0.677463998401E+03    0.27110E-06   -0.18317E-06   921   0.262E-03    0.196E-03
RMM:   6    -0.677463998380E+03    0.21209E-07   -0.12736E-07   589   0.838E-04
  77 F= -.68607465E+03 E0= -.68607465E+03  d E =-.177764E-03
       N       E                     dE             d eps       ncg     rms          rms(c)
DAV:   1    -0.677463968635E+03    0.29766E-04   -0.29297E-02   936   0.395E-01    0.430E-02
RMM:   2    -0.677464011701E+03   -0.43066E-04   -0.59012E-04   936   0.513E-02    0.246E-02
RMM:   3    -0.677464006711E+03    0.49896E-05   -0.26034E-05   944   0.122E-02    0.145E-02
RMM:   4    -0.677464005359E+03    0.13525E-05   -0.96961E-06   954   0.595E-03    0.341E-03
RMM:   5    -0.677464005223E+03    0.13541E-06   -0.89358E-07   804   0.186E-03    0.138E-03
RMM:   6    -0.677464005216E+03    0.75379E-08   -0.78875E-08   582   0.675E-04
  78 F= -.68607469E+03 E0= -.68607469E+03  d E =-.216851E-03
       N       E                     dE             d eps       ncg     rms          rms(c)
DAV:   1    -0.677464459505E+03   -0.45428E-03   -0.49372E-02   936   0.509E-01    0.609E-02
RMM:   2    -0.677464531008E+03   -0.71503E-04   -0.10147E-03   936   0.675E-02    0.315E-02
RMM:   3    -0.677464522953E+03    0.80552E-05   -0.44519E-05   936   0.162E-02    0.183E-02
RMM:   4    -0.677464520122E+03    0.28312E-05   -0.15159E-05   959   0.779E-03    0.458E-03
RMM:   5    -0.677464519915E+03    0.20678E-06   -0.12996E-06   880   0.229E-03    0.193E-03
RMM:   6    -0.677464519858E+03    0.56829E-07   -0.85173E-08   585   0.713E-04
  79 F= -.68607483E+03 E0= -.68607483E+03  d E =-.133471E-03
       N       E                     dE             d eps       ncg     rms          rms(c)
DAV:   1    -0.677464723830E+03   -0.20392E-03   -0.13326E-02   976   0.265E-01    0.317E-02
RMM:   2    -0.677464743115E+03   -0.19285E-04   -0.27431E-04   936   0.351E-02    0.163E-02
RMM:   3    -0.677464740903E+03    0.22129E-05   -0.12057E-05   936   0.843E-03    0.950E-03
RMM:   4    -0.677464740048E+03    0.85458E-06   -0.41128E-06   955   0.406E-03    0.237E-03
RMM:   5    -0.677464739970E+03    0.78071E-07   -0.32497E-07   666   0.120E-03
  80 F= -.68607485E+03 E0= -.68607485E+03  d E =-.155733E-03
       N       E                     dE             d eps       ncg     rms          rms(c)
DAV:   1    -0.677465264948E+03   -0.52490E-03   -0.54865E-02   936   0.534E-01    0.747E-02
RMM:   2    -0.677465355358E+03   -0.90410E-04   -0.11908E-03   936   0.718E-02    0.341E-02
RMM:   3    -0.677465346110E+03    0.92482E-05   -0.49616E-05   940   0.169E-02    0.192E-02
RMM:   4    -0.677465343248E+03    0.28614E-05   -0.15973E-05   960   0.781E-03    0.460E-03
RMM:   5    -0.677465342997E+03    0.25114E-06   -0.11052E-06   900   0.219E-03    0.190E-03
RMM:   6    -0.677465342943E+03    0.53868E-07   -0.10094E-07   584   0.718E-04
  81 F= -.68607499E+03 E0= -.68607499E+03  d E =-.139746E-03
       N       E                     dE             d eps       ncg     rms          rms(c)
DAV:   1    -0.677465549957E+03   -0.20696E-03   -0.10718E-02   972   0.236E-01    0.330E-02
RMM:   2    -0.677465567706E+03   -0.17749E-04   -0.23326E-04   936   0.318E-02    0.150E-02
RMM:   3    -0.677465565877E+03    0.18294E-05   -0.97149E-06   940   0.749E-03    0.849E-03
RMM:   4    -0.677465565229E+03    0.64781E-06   -0.31430E-06   952   0.346E-03    0.203E-03
RMM:   5    -0.677465565151E+03    0.77707E-07   -0.19271E-07   610   0.990E-04
  82 F= -.68607501E+03 E0= -.68607501E+03  d E =-.157296E-03
       N       E                     dE             d eps       ncg     rms          rms(c)
DAV:   1    -0.677465964976E+03   -0.39975E-03   -0.41674E-02   936   0.464E-01    0.580E-02
RMM:   2    -0.677466034911E+03   -0.69935E-04   -0.91221E-04   936   0.618E-02    0.297E-02
RMM:   3    -0.677466028504E+03    0.64073E-05   -0.35114E-05   941   0.139E-02    0.181E-02
RMM:   4    -0.677466026071E+03    0.24326E-05   -0.14148E-05   957   0.699E-03    0.404E-03
RMM:   5    -0.677466025793E+03    0.27794E-06   -0.12453E-06   832   0.217E-03    0.177E-03
RMM:   6    -0.677466025742E+03    0.50841E-07   -0.81429E-08   582   0.702E-04
  83 F= -.68607513E+03 E0= -.68607513E+03  d E =-.122429E-03
       N       E                     dE             d eps       ncg     rms          rms(c)
DAV:   1    -0.677466324315E+03   -0.29852E-03   -0.35877E-02   936   0.430E-01    0.539E-02
RMM:   2    -0.677466384411E+03   -0.60096E-04   -0.78626E-04   936   0.574E-02    0.275E-02
RMM:   3    -0.677466378878E+03    0.55330E-05   -0.30243E-05   941   0.129E-02    0.168E-02
RMM:   4    -0.677466376743E+03    0.21346E-05   -0.12303E-05   957   0.650E-03    0.375E-03
RMM:   5    -0.677466376495E+03    0.24782E-06   -0.10736E-06   796   0.202E-03    0.165E-03
RMM:   6    -0.677466376449E+03    0.46766E-07   -0.76094E-08   582   0.694E-04
  84 F= -.68607516E+03 E0= -.68607516E+03  d E =-.159495E-03
       N       E                     dE             d eps       ncg     rms          rms(c)
DAV:   1    -0.677466605176E+03   -0.22868E-03   -0.58822E-02   936   0.548E-01    0.719E-02
RMM:   2    -0.677466708236E+03   -0.10306E-03   -0.13315E-03   936   0.743E-02    0.356E-02
RMM:   3    -0.677466698789E+03    0.94467E-05   -0.52020E-05   938   0.171E-02    0.216E-02
RMM:   4    -0.677466695876E+03    0.29132E-05   -0.23999E-05   955   0.915E-03    0.525E-03
RMM:   5    -0.677466695376E+03    0.49979E-06   -0.24431E-06   895   0.283E-03    0.238E-03
RMM:   6    -0.677466695330E+03    0.46060E-07   -0.13280E-07   594   0.890E-04
  85 F= -.68607528E+03 E0= -.68607528E+03  d E =-.116975E-03
       N       E                     dE             d eps       ncg     rms          rms(c)
DAV:   1    -0.677466759049E+03   -0.63672E-04   -0.57789E-03   976   0.172E-01    0.226E-02
RMM:   2    -0.677466769277E+03   -0.10229E-04   -0.13123E-04   936   0.233E-02    0.111E-02
RMM:   3    -0.677466768380E+03    0.89778E-06   -0.51219E-06   938   0.535E-03    0.676E-03
RMM:   4    -0.677466768073E+03    0.30657E-06   -0.23795E-06   948   0.288E-03    0.164E-03
RMM:   5    -0.677466768006E+03    0.67477E-07   -0.22060E-07   632   0.901E-04
  86 F= -.68607529E+03 E0= -.68607529E+03  d E =-.126431E-03
       N       E                     dE             d eps       ncg     rms          rms(c)
DAV:   1    -0.677466917517E+03   -0.14944E-03   -0.45372E-02   936   0.481E-01    0.568E-02
RMM:   2    -0.677466991209E+03   -0.73692E-04   -0.10042E-03   936   0.644E-02    0.313E-02
RMM:   3    -0.677466983322E+03    0.78864E-05   -0.40367E-05   940   0.145E-02    0.192E-02
RMM:   4    -0.677466981012E+03    0.23103E-05   -0.19906E-05   953   0.807E-03    0.476E-03
RMM:   5    -0.677466980619E+03    0.39330E-06   -0.21812E-06   889   0.271E-03    0.200E-03
RMM:   6    -0.677466980587E+03    0.31636E-07   -0.10977E-07   591   0.800E-04
  87 F= -.68607540E+03 E0= -.68607540E+03  d E =-.111071E-03
       N       E                     dE             d eps       ncg     rms          rms(c)
DAV:   1    -0.677467023269E+03   -0.42651E-04   -0.71767E-03   972   0.191E-01    0.226E-02
RMM:   2    -0.677467034885E+03   -0.11616E-04   -0.15907E-04   936   0.256E-02    0.124E-02
RMM:   3    -0.677467033664E+03    0.12210E-05   -0.64001E-06   940   0.575E-03    0.760E-03
RMM:   4    -0.677467033298E+03    0.36652E-06   -0.31667E-06   945   0.321E-03    0.188E-03
RMM:   5    -0.677467033227E+03    0.70489E-07   -0.31913E-07   661   0.108E-03
  88 F= -.68607541E+03 E0= -.68607541E+03  d E =-.123448E-03
       N       E                     dE             d eps       ncg     rms          rms(c)
DAV:   1    -0.677467158916E+03   -0.12562E-03   -0.49305E-02   936   0.502E-01    0.557E-02
RMM:   2    -0.677467239888E+03   -0.80972E-04   -0.10983E-03   936   0.671E-02    0.327E-02
RMM:   3    -0.677467231747E+03    0.81416E-05   -0.42896E-05   940   0.153E-02    0.204E-02
RMM:   4    -0.677467229393E+03    0.23537E-05   -0.22496E-05   952   0.868E-03    0.526E-03
RMM:   5    -0.677467228871E+03    0.52230E-06   -0.27978E-06   918   0.297E-03    0.197E-03
RMM:   6    -0.677467228849E+03    0.21926E-07   -0.11720E-07   591   0.838E-04
  89 F= -.68607553E+03 E0= -.68607553E+03  d E =-.114413E-03
       N       E                     dE             d eps       ncg     rms          rms(c)
DAV:   1    -0.677467278033E+03   -0.49162E-04   -0.23520E-02   936   0.347E-01    0.385E-02
RMM:   2    -0.677467316458E+03   -0.38426E-04   -0.52435E-04   936   0.464E-02    0.225E-02
RMM:   3    -0.677467312598E+03    0.38607E-05   -0.20478E-05   940   0.105E-02    0.140E-02
RMM:   4    -0.677467311470E+03    0.11276E-05   -0.10760E-05   952   0.600E-03    0.361E-03
RMM:   5    -0.677467311223E+03    0.24716E-06   -0.12956E-06   812   0.204E-03    0.134E-03
RMM:   6    -0.677467311216E+03    0.66248E-08   -0.65284E-08   581   0.634E-04
  90 F= -.68607556E+03 E0= -.68607556E+03  d E =-.140821E-03
       N       E                     dE             d eps       ncg     rms          rms(c)
DAV:   1    -0.677467469008E+03   -0.15778E-03   -0.41286E-02   936   0.458E-01    0.499E-02
RMM:   2    -0.677467532892E+03   -0.63885E-04   -0.88283E-04   936   0.603E-02    0.288E-02
RMM:   3    -0.677467526750E+03    0.61417E-05   -0.35216E-05   939   0.139E-02    0.177E-02
RMM:   4    -0.677467524976E+03    0.17746E-05   -0.16343E-05   960   0.762E-03    0.443E-03
RMM:   5    -0.677467524673E+03    0.30307E-06   -0.20675E-06   866   0.251E-03    0.185E-03
RMM:   6    -0.677467524644E+03    0.29147E-07   -0.89392E-08   584   0.745E-04
  91 F= -.68607567E+03 E0= -.68607567E+03  d E =-.110732E-03
       N       E                     dE             d eps       ncg     rms          rms(c)
DAV:   1    -0.677467631662E+03   -0.10699E-03   -0.57117E-02   936   0.539E-01    0.587E-02
RMM:   2    -0.677467719823E+03   -0.88161E-04   -0.12212E-03   936   0.709E-02    0.339E-02
RMM:   3    -0.677467711327E+03    0.84963E-05   -0.48760E-05   939   0.163E-02    0.208E-02
RMM:   4    -0.677467708862E+03    0.24649E-05   -0.22598E-05   960   0.896E-03    0.520E-03
RMM:   5    -0.677467708442E+03    0.42011E-06   -0.28511E-06   903   0.294E-03    0.217E-03
RMM:   6    -0.677467708401E+03    0.40774E-07   -0.12035E-07   593   0.848E-04
  92 F= -.68607573E+03 E0= -.68607573E+03  d E =-.173857E-03
       N       E                     dE             d eps       ncg     rms          rms(c)
DAV:   1    -0.677467743442E+03   -0.35001E-04   -0.58622E-03   992   0.173E-01    0.188E-02
RMM:   2    -0.677467752465E+03   -0.90223E-05   -0.12516E-04   936   0.227E-02    0.108E-02
RMM:   3    -0.677467751641E+03    0.82322E-06   -0.50326E-06   940   0.522E-03    0.663E-03
RMM:   4    -0.677467751406E+03    0.23526E-06   -0.23137E-06   947   0.287E-03    0.165E-03
RMM:   5    -0.677467751363E+03    0.43041E-07   -0.26403E-07   644   0.962E-04
  93 F= -.68607573E+03 E0= -.68607573E+03  d E =-.178181E-03
       N       E                     dE             d eps       ncg     rms          rms(c)
DAV:   1    -0.677467985869E+03   -0.23446E-03   -0.63388E-02   936   0.565E-01    0.692E-02
RMM:   2    -0.677468084309E+03   -0.98440E-04   -0.12921E-03   936   0.733E-02    0.352E-02
RMM:   3    -0.677468074422E+03    0.98873E-05   -0.51652E-05   940   0.167E-02    0.201E-02
RMM:   4    -0.677468071882E+03    0.25400E-05   -0.18780E-05   961   0.819E-03    0.452E-03
RMM:   5    -0.677468071582E+03    0.30014E-06   -0.15712E-06   881   0.239E-03    0.187E-03
RMM:   6    -0.677468071537E+03    0.45118E-07   -0.99673E-08   586   0.727E-04
  94 F= -.68607584E+03 E0= -.68607584E+03  d E =-.107727E-03
       N       E                     dE             d eps       ncg     rms          rms(c)
DAV:   1    -0.677468185986E+03   -0.11440E-03   -0.21615E-02   936   0.330E-01    0.404E-02
RMM:   2    -0.677468219533E+03   -0.33548E-04   -0.44156E-04   936   0.428E-02    0.205E-02
RMM:   3    -0.677468216190E+03    0.33435E-05   -0.17645E-05   940   0.974E-03    0.117E-02
RMM:   4    -0.677468215307E+03    0.88309E-06   -0.64565E-06   957   0.479E-03    0.263E-03
RMM:   5    -0.677468215185E+03    0.12159E-06   -0.51676E-07   707   0.141E-03    0.108E-03
RMM:   6    -0.677468215165E+03    0.19892E-07   -0.46467E-08   577   0.523E-04
  95 F= -.68607586E+03 E0= -.68607586E+03  d E =-.127440E-03
       N       E                     dE             d eps       ncg     rms          rms(c)
DAV:   1    -0.677468611826E+03   -0.39664E-03   -0.39015E-02   936   0.441E-01    0.532E-02
RMM:   2    -0.677468672078E+03   -0.60252E-04   -0.77818E-04   936   0.568E-02    0.274E-02
RMM:   3    -0.677468665804E+03    0.62742E-05   -0.31231E-05   941   0.131E-02    0.158E-02
RMM:   4    -0.677468663849E+03    0.19544E-05   -0.10887E-05   949   0.622E-03    0.378E-03
RMM:   5    -0.677468663646E+03    0.20320E-06   -0.90827E-07   811   0.191E-03    0.171E-03
RMM:   6    -0.677468663593E+03    0.53027E-07   -0.72477E-08   582   0.648E-04
  96 F= -.68607596E+03 E0= -.68607596E+03  d E =-.970384E-04
       N       E                     dE             d eps       ncg     rms          rms(c)
DAV:   1    -0.677468966813E+03   -0.30317E-03   -0.31800E-02   936   0.398E-01    0.480E-02
RMM:   2    -0.677469015971E+03   -0.49158E-04   -0.63483E-04   936   0.513E-02    0.247E-02
RMM:   3    -0.677469010851E+03    0.51201E-05   -0.25460E-05   941   0.118E-02    0.143E-02
RMM:   4    -0.677469009227E+03    0.16244E-05   -0.88961E-06   949   0.562E-03    0.342E-03
RMM:   5    -0.677469009052E+03    0.17502E-06   -0.73271E-07   756   0.172E-03    0.155E-03
RMM:   6    -0.677469009005E+03    0.46937E-07   -0.66380E-08   580   0.646E-04
  97 F= -.68607599E+03 E0= -.68607599E+03  d E =-.125352E-03
       N       E                     dE             d eps       ncg     rms          rms(c)
DAV:   1    -0.677469303469E+03   -0.29442E-03   -0.33206E-02   936   0.406E-01    0.448E-02
RMM:   2    -0.677469352686E+03   -0.49217E-04   -0.64863E-04   936   0.519E-02    0.251E-02
RMM:   3    -0.677469347586E+03    0.51008E-05   -0.26299E-05   941   0.119E-02    0.148E-02
RMM:   4    -0.677469345904E+03    0.16820E-05   -0.10052E-05   949   0.595E-03    0.303E-03
RMM:   5    -0.677469345770E+03    0.13342E-06   -0.73511E-07   746   0.174E-03    0.139E-03
RMM:   6    -0.677469345747E+03    0.23254E-07   -0.58476E-08   579   0.616E-04
  98 F= -.68607607E+03 E0= -.68607607E+03  d E =-.790701E-04
       N       E                     dE             d eps       ncg     rms          rms(c)
DAV:   1    -0.677469561441E+03   -0.21567E-03   -0.25358E-02   936   0.355E-01    0.392E-02
RMM:   2    -0.677469599027E+03   -0.37585E-04   -0.49574E-04   936   0.454E-02    0.220E-02
RMM:   3    -0.677469595113E+03    0.39137E-05   -0.20125E-05   942   0.104E-02    0.130E-02
RMM:   4    -0.677469593801E+03    0.13119E-05   -0.76883E-06   949   0.520E-03    0.265E-03
RMM:   5    -0.677469593696E+03    0.10474E-06   -0.55506E-07   716   0.152E-03    0.121E-03
RMM:   6    -0.677469593677E+03    0.19107E-07   -0.48031E-08   578   0.571E-04
  99 F= -.68607609E+03 E0= -.68607609E+03  d E =-.101989E-03
       N       E                     dE             d eps       ncg     rms          rms(c)
DAV:   1    -0.677469547132E+03    0.46564E-04   -0.26112E-02   936   0.363E-01    0.433E-02
RMM:   2    -0.677469588768E+03   -0.41635E-04   -0.54015E-04   936   0.475E-02    0.234E-02
RMM:   3    -0.677469584702E+03    0.40660E-05   -0.21234E-05   937   0.108E-02    0.139E-02
RMM:   4    -0.677469583686E+03    0.10157E-05   -0.89160E-06   954   0.564E-03    0.313E-03
RMM:   5    -0.677469583599E+03    0.87468E-07   -0.80861E-07   756   0.168E-03
 100 F= -.68607616E+03 E0= -.68607616E+03  d E =-.761766E-04
       N       E                     dE             d eps       ncg     rms          rms(c)
DAV:   1    -0.677469501933E+03    0.81753E-04   -0.22185E-02   956   0.335E-01    0.398E-02
RMM:   2    -0.677469537560E+03   -0.35626E-04   -0.45802E-04   936   0.437E-02    0.216E-02
RMM:   3    -0.677469534191E+03    0.33681E-05   -0.18041E-05   937   0.996E-03    0.128E-02
RMM:   4    -0.677469533366E+03    0.82507E-06   -0.74934E-06   954   0.518E-03    0.286E-03
RMM:   5    -0.677469533297E+03    0.69474E-07   -0.66682E-07   731   0.153E-03
 101 F= -.68607619E+03 E0= -.68607619E+03  d E =-.105526E-03
       N       E                     dE             d eps       ncg     rms          rms(c)
DAV:   1    -0.677469220532E+03    0.31283E-03   -0.25291E-02   936   0.361E-01    0.471E-02
RMM:   2    -0.677469254301E+03   -0.33769E-04   -0.55483E-04   936   0.485E-02    0.252E-02
RMM:   3    -0.677469248933E+03    0.53676E-05   -0.25198E-05   936   0.117E-02    0.146E-02
RMM:   4    -0.677469247827E+03    0.11063E-05   -0.10305E-05   953   0.613E-03    0.389E-03
RMM:   5    -0.677469247774E+03    0.52889E-07   -0.10486E-06   827   0.193E-03    0.158E-03
RMM:   6    -0.677469247810E+03   -0.36336E-07   -0.87899E-08   584   0.668E-04
 102 F= -.68607627E+03 E0= -.68607627E+03  d E =-.737608E-04
       N       E                     dE             d eps       ncg     rms          rms(c)
DAV:   1    -0.677469062854E+03    0.18492E-03   -0.67786E-03   976   0.187E-01    0.243E-02
RMM:   2    -0.677469071679E+03   -0.88258E-05   -0.14879E-04   936   0.251E-02    0.129E-02
RMM:   3    -0.677469070217E+03    0.14623E-05   -0.67499E-06   936   0.604E-03    0.753E-03
RMM:   4    -0.677469069955E+03    0.26150E-06   -0.27895E-06   948   0.318E-03    0.200E-03
RMM:   5    -0.677469069972E+03   -0.16189E-07   -0.26596E-07   649   0.101E-03
 103 F= -.68607628E+03 E0= -.68607628E+03  d E =-.819494E-04
       N       E                     dE             d eps       ncg     rms          rms(c)
DAV:   1    -0.677468649416E+03    0.42054E-03   -0.19229E-02   936   0.315E-01    0.396E-02
RMM:   2    -0.677468671291E+03   -0.21875E-04   -0.39605E-04   936   0.411E-02    0.213E-02
RMM:   3    -0.677468667522E+03    0.37697E-05   -0.19055E-05   939   0.101E-02    0.120E-02
RMM:   4    -0.677468666983E+03    0.53918E-06   -0.72269E-06   958   0.514E-03    0.312E-03
RMM:   5    -0.677468666975E+03    0.74106E-08   -0.66368E-07   746   0.158E-03
 104 F= -.68607633E+03 E0= -.68607633E+03  d E =-.512823E-04
       N       E                     dE             d eps       ncg     rms          rms(c)
DAV:   1    -0.677468247412E+03    0.41957E-03   -0.16525E-02   936   0.292E-01    0.367E-02
RMM:   2    -0.677468266351E+03   -0.18939E-04   -0.34043E-04   936   0.381E-02    0.198E-02
RMM:   3    -0.677468263135E+03    0.32162E-05   -0.16386E-05   939   0.939E-03    0.112E-02
RMM:   4    -0.677468262701E+03    0.43376E-06   -0.61796E-06   954   0.476E-03    0.290E-03
RMM:   5    -0.677468262705E+03   -0.40600E-08   -0.57042E-07   726   0.149E-03
 105 F= -.68607634E+03 E0= -.68607634E+03  d E =-.679729E-04
       N       E                     dE             d eps       ncg     rms          rms(c)
DAV:   1    -0.677467933851E+03    0.32885E-03   -0.16933E-02   936   0.296E-01    0.460E-02
RMM:   2    -0.677467955819E+03   -0.21968E-04   -0.35949E-04   936   0.393E-02    0.209E-02
RMM:   3    -0.677467952028E+03    0.37905E-05   -0.17560E-05   941   0.956E-03    0.110E-02
RMM:   4    -0.677467951473E+03    0.55525E-06   -0.54296E-06   951   0.447E-03    0.265E-03
RMM:   5    -0.677467951507E+03   -0.34262E-07   -0.37988E-07   688   0.133E-03
 106 F= -.68607640E+03 E0= -.68607640E+03  d E =-.575880E-04
       N       E                     dE             d eps       ncg     rms          rms(c)
DAV:   1    -0.677467657938E+03    0.29354E-03   -0.10659E-02   956   0.235E-01    0.364E-02
RMM:   2    -0.677467671712E+03   -0.13774E-04   -0.22649E-04   936   0.312E-02    0.166E-02
RMM:   3    -0.677467669339E+03    0.23725E-05   -0.11076E-05   940   0.761E-03    0.875E-03
RMM:   4    -0.677467669031E+03    0.30807E-06   -0.34572E-06   948   0.357E-03    0.212E-03
RMM:   5    -0.677467669065E+03   -0.34113E-07   -0.23210E-07   627   0.107E-03
 107 F= -.68607641E+03 E0= -.68607641E+03  d E =-.677354E-04
       N       E                     dE             d eps       ncg     rms          rms(c)
DAV:   1    -0.677467407438E+03    0.26159E-03   -0.18521E-02   936   0.307E-01    0.386E-02
RMM:   2    -0.677467430587E+03   -0.23149E-04   -0.35611E-04   936   0.390E-02    0.201E-02
RMM:   3    -0.677467427313E+03    0.32738E-05   -0.16548E-05   936   0.947E-03    0.109E-02
RMM:   4    -0.677467426684E+03    0.62969E-06   -0.51306E-06   957   0.441E-03    0.258E-03
RMM:   5    -0.677467426733E+03   -0.48785E-07   -0.35277E-07   675   0.123E-03
 108 F= -.68607646E+03 E0= -.68607646E+03  d E =-.529593E-04
       N       E                     dE             d eps       ncg     rms          rms(c)
DAV:   1    -0.677467022559E+03    0.40413E-03   -0.33121E-02   936   0.411E-01    0.515E-02
RMM:   2    -0.677467064270E+03   -0.41711E-04   -0.63775E-04   936   0.521E-02    0.268E-02
RMM:   3    -0.677467058476E+03    0.57937E-05   -0.29539E-05   936   0.126E-02    0.146E-02
RMM:   4    -0.677467057270E+03    0.12059E-05   -0.92209E-06   957   0.591E-03    0.345E-03
RMM:   5    -0.677467057309E+03   -0.38948E-07   -0.66559E-07   776   0.165E-03
 109 F= -.68607649E+03 E0= -.68607649E+03  d E =-.784597E-04
       N       E                     dE             d eps       ncg     rms          rms(c)
DAV:   1    -0.677466777680E+03    0.27959E-03   -0.23709E-02   936   0.348E-01    0.382E-02
RMM:   2    -0.677466808640E+03   -0.30960E-04   -0.44570E-04   936   0.447E-02    0.213E-02
RMM:   3    -0.677466804762E+03    0.38781E-05   -0.19710E-05   939   0.103E-02    0.118E-02
RMM:   4    -0.677466803902E+03    0.85997E-06   -0.66491E-06   953   0.494E-03    0.240E-03
RMM:   5    -0.677466803967E+03   -0.65556E-07   -0.22657E-07   604   0.119E-03
 110 F= -.68607655E+03 E0= -.68607655E+03  d E =-.601816E-04
       N       E                     dE             d eps       ncg     rms          rms(c)
DAV:   1    -0.677466644457E+03    0.15944E-03   -0.60842E-03   972   0.176E-01    0.194E-02
RMM:   2    -0.677466652431E+03   -0.79740E-05   -0.11532E-04   936   0.227E-02    0.108E-02
RMM:   3    -0.677466651411E+03    0.10205E-05   -0.50793E-06   938   0.520E-03    0.603E-03
RMM:   4    -0.677466651246E+03    0.16445E-06   -0.17373E-06   945   0.250E-03    0.123E-03
RMM:   5    -0.677466651294E+03   -0.48061E-07   -0.59013E-08   583   0.627E-04
 111 F= -.68607656E+03 E0= -.68607656E+03  d E =-.662679E-04
       N       E                     dE             d eps       ncg     rms          rms(c)
DAV:   1    -0.677466389406E+03    0.26184E-03   -0.17353E-02   936   0.296E-01    0.343E-02
RMM:   2    -0.677466411979E+03   -0.22573E-04   -0.32797E-04   936   0.382E-02    0.180E-02
RMM:   3    -0.677466409255E+03    0.27239E-05   -0.14572E-05   937   0.883E-03    0.100E-02
RMM:   4    -0.677466408706E+03    0.54893E-06   -0.48654E-06   951   0.418E-03    0.215E-03
RMM:   5    -0.677466408768E+03   -0.61704E-07   -0.16067E-07   592   0.101E-03
 112 F= -.68607661E+03 E0= -.68607661E+03  d E =-.509941E-04
       N       E                     dE             d eps       ncg     rms          rms(c)
DAV:   1    -0.677465661116E+03    0.74759E-03   -0.84871E-02   936   0.655E-01    0.759E-02
RMM:   2    -0.677465771771E+03   -0.11066E-03   -0.16050E-03   936   0.846E-02    0.397E-02
RMM:   3    -0.677465758395E+03    0.13376E-04   -0.71387E-05   937   0.196E-02    0.221E-02
RMM:   4    -0.677465755095E+03    0.33001E-05   -0.23786E-05   954   0.926E-03    0.477E-03
RMM:   5    -0.677465755160E+03   -0.65011E-07   -0.95515E-07   920   0.221E-03
 113 F= -.68607660E+03 E0= -.68607660E+03  d E =-.467592E-04
       N       E                     dE             d eps       ncg     rms          rms(c)
DAV:   1    -0.677466087228E+03   -0.33213E-03   -0.22310E-02   936   0.336E-01    0.388E-02
RMM:   2    -0.677466115960E+03   -0.28733E-04   -0.41705E-04   936   0.433E-02    0.202E-02
RMM:   3    -0.677466112415E+03    0.35450E-05   -0.18493E-05   937   0.998E-03    0.112E-02
RMM:   4    -0.677466111157E+03    0.12585E-05   -0.60807E-06   950   0.470E-03    0.237E-03
RMM:   5    -0.677466111018E+03    0.13880E-06   -0.20077E-07   603   0.112E-03    0.122E-03
RMM:   6    -0.677466110947E+03    0.71450E-07   -0.11542E-07   576   0.681E-04
 114 F= -.68607663E+03 E0= -.68607663E+03  d E =-.692326E-04
       N       E                     dE             d eps       ncg     rms          rms(c)
DAV:   1    -0.677465863720E+03    0.24730E-03   -0.15145E-02   936   0.278E-01    0.334E-02
RMM:   2    -0.677465885168E+03   -0.21448E-04   -0.30115E-04   936   0.366E-02    0.175E-02
RMM:   3    -0.677465882861E+03    0.23067E-05   -0.13185E-05   936   0.866E-03    0.971E-03
RMM:   4    -0.677465882334E+03    0.52722E-06   -0.42927E-06   950   0.412E-03    0.192E-03
RMM:   5    -0.677465882377E+03   -0.43416E-07   -0.16215E-07   597   0.995E-04
 115 F= -.68607668E+03 E0= -.68607668E+03  d E =-.565553E-04
       N       E                     dE             d eps       ncg     rms          rms(c)
DAV:   1    -0.677465500152E+03    0.38218E-03   -0.24695E-02   936   0.355E-01    0.426E-02
RMM:   2    -0.677465535451E+03   -0.35299E-04   -0.49350E-04   936   0.468E-02    0.224E-02
RMM:   3    -0.677465531759E+03    0.36920E-05   -0.21738E-05   937   0.111E-02    0.125E-02
RMM:   4    -0.677465530854E+03    0.90519E-06   -0.70497E-06   952   0.530E-03    0.248E-03
RMM:   5    -0.677465530901E+03   -0.47337E-07   -0.27999E-07   633   0.127E-03
 116 F= -.68607669E+03 E0= -.68607669E+03  d E =-.690615E-04
       N       E                     dE             d eps       ncg     rms          rms(c)
DAV:   1    -0.677465643451E+03   -0.11260E-03   -0.23287E-03   976   0.109E-01    0.131E-02
RMM:   2    -0.677465646646E+03   -0.31953E-05   -0.45763E-05   936   0.143E-02    0.681E-03
RMM:   3    -0.677465646279E+03    0.36753E-06   -0.20003E-06   936   0.338E-03    0.375E-03
RMM:   4    -0.677465646094E+03    0.18445E-06   -0.63828E-07   873   0.160E-03    0.700E-04
RMM:   5    -0.677465646065E+03    0.29591E-07   -0.28572E-08   551   0.439E-04
 117 F= -.68607670E+03 E0= -.68607670E+03  d E =-.722339E-04
       N       E                     dE             d eps       ncg     rms          rms(c)
DAV:   1    -0.677465516453E+03    0.12964E-03   -0.15085E-02   936   0.276E-01    0.298E-02
RMM:   2    -0.677465536864E+03   -0.20411E-04   -0.28705E-04   936   0.353E-02    0.169E-02
RMM:   3    -0.677465534653E+03    0.22105E-05   -0.12808E-05   939   0.823E-03    0.974E-03
RMM:   4    -0.677465534026E+03    0.62737E-06   -0.45312E-06   953   0.404E-03    0.182E-03
RMM:   5    -0.677465534031E+03   -0.53515E-08   -0.18284E-07   604   0.102E-03
 118 F= -.68607675E+03 E0= -.68607675E+03  d E =-.563693E-04
       N       E                     dE             d eps       ncg     rms          rms(c)
DAV:   1    -0.677465215875E+03    0.31815E-03   -0.44553E-02   936   0.474E-01    0.513E-02
RMM:   2    -0.677465277104E+03   -0.61229E-04   -0.85113E-04   936   0.607E-02    0.292E-02
RMM:   3    -0.677465270735E+03    0.63686E-05   -0.38013E-05   940   0.141E-02    0.168E-02
RMM:   4    -0.677465268823E+03    0.19125E-05   -0.13413E-05   958   0.693E-03    0.314E-03
RMM:   5    -0.677465268787E+03    0.35263E-07   -0.60435E-07   779   0.172E-03
 119 F= -.68607678E+03 E0= -.68607678E+03  d E =-.803771E-04
       N       E                     dE             d eps       ncg     rms          rms(c)
DAV:   1    -0.677465338890E+03   -0.70068E-04   -0.25918E-03   940   0.114E-01    0.123E-02
RMM:   2    -0.677465342411E+03   -0.35206E-05   -0.48647E-05   936   0.146E-02    0.692E-03
RMM:   3    -0.677465342062E+03    0.34866E-06   -0.21686E-06   939   0.341E-03    0.395E-03
RMM:   4    -0.677465341917E+03    0.14558E-06   -0.76161E-07   891   0.167E-03    0.734E-04
RMM:   5    -0.677465341893E+03    0.24218E-07   -0.33550E-08   550   0.468E-04
 120 F= -.68607678E+03 E0= -.68607678E+03  d E =-.835459E-04
       N       E                     dE             d eps       ncg     rms          rms(c)
DAV:   1    -0.677465268710E+03    0.73207E-04   -0.18566E-02   936   0.305E-01    0.350E-02
RMM:   2    -0.677465294260E+03   -0.25551E-04   -0.35331E-04   936   0.393E-02    0.188E-02
RMM:   3    -0.677465291640E+03    0.26203E-05   -0.15279E-05   942   0.888E-03    0.109E-02
RMM:   4    -0.677465290861E+03    0.77926E-06   -0.59284E-06   958   0.450E-03    0.200E-03
RMM:   5    -0.677465290836E+03    0.24935E-07   -0.26273E-07   642   0.116E-03
 121 F= -.68607684E+03 E0= -.68607684E+03  d E =-.576590E-04
       N       E                     dE             d eps       ncg     rms          rms(c)
DAV:   1    -0.677465178869E+03    0.11199E-03   -0.18857E-02   936   0.308E-01    0.354E-02
RMM:   2    -0.677465205246E+03   -0.26377E-04   -0.36072E-04   936   0.396E-02    0.191E-02
RMM:   3    -0.677465202637E+03    0.26081E-05   -0.15582E-05   942   0.894E-03    0.110E-02
RMM:   4    -0.677465201867E+03    0.77061E-06   -0.60382E-06   958   0.454E-03    0.202E-03
RMM:   5    -0.677465201842E+03    0.24469E-07   -0.26900E-07   644   0.117E-03
 122 F= -.68607686E+03 E0= -.68607686E+03  d E =-.782183E-04
       N       E                     dE             d eps       ncg     rms          rms(c)
DAV:   1    -0.677465199964E+03    0.19031E-05   -0.15332E-02   936   0.279E-01    0.306E-02
RMM:   2    -0.677465221307E+03   -0.21343E-04   -0.29185E-04   936   0.359E-02    0.173E-02
RMM:   3    -0.677465219252E+03    0.20551E-05   -0.12611E-05   947   0.810E-03    0.102E-02
RMM:   4    -0.677465218585E+03    0.66677E-06   -0.47043E-06   955   0.407E-03    0.179E-03
RMM:   5    -0.677465218575E+03    0.95242E-08   -0.19029E-07   608   0.102E-03
 123 F= -.68607691E+03 E0= -.68607691E+03  d E =-.519073E-04
       N       E                     dE             d eps       ncg     rms          rms(c)
DAV:   1    -0.677465165847E+03    0.52738E-04   -0.25947E-02   936   0.363E-01    0.397E-02
RMM:   2    -0.677465202033E+03   -0.36187E-04   -0.49443E-04   936   0.467E-02    0.225E-02
RMM:   3    -0.677465198557E+03    0.34761E-05   -0.21323E-05   946   0.105E-02    0.133E-02
RMM:   4    -0.677465197406E+03    0.11511E-05   -0.79735E-06   956   0.529E-03    0.234E-03
RMM:   5    -0.677465197377E+03    0.29635E-07   -0.34732E-07   678   0.133E-03
 124 F= -.68607694E+03 E0= -.68607694E+03  d E =-.766286E-04
       N       E                     dE             d eps       ncg     rms          rms(c)
DAV:   1    -0.677465239622E+03   -0.42216E-04   -0.17340E-02   936   0.297E-01    0.316E-02
RMM:   2    -0.677465263031E+03   -0.23409E-04   -0.30848E-04   936   0.367E-02    0.178E-02
RMM:   3    -0.677465260965E+03    0.20664E-05   -0.13262E-05   952   0.827E-03    0.103E-02
RMM:   4    -0.677465260215E+03    0.74995E-06   -0.48838E-06   951   0.411E-03    0.158E-03
RMM:   5    -0.677465260188E+03    0.27412E-07   -0.14419E-07   592   0.955E-04
 125 F= -.68607699E+03 E0= -.68607699E+03  d E =-.519918E-04
       N       E                     dE             d eps       ncg     rms          rms(c)
DAV:   1    -0.677465272943E+03   -0.12728E-04   -0.18368E-02   936   0.305E-01    0.325E-02
RMM:   2    -0.677465297716E+03   -0.24773E-04   -0.32700E-04   936   0.378E-02    0.183E-02
RMM:   3    -0.677465295482E+03    0.22341E-05   -0.14044E-05   951   0.851E-03    0.106E-02
RMM:   4    -0.677465294677E+03    0.80534E-06   -0.52163E-06   952   0.424E-03    0.164E-03
RMM:   5    -0.677465294646E+03    0.30668E-07   -0.15649E-07   595   0.986E-04
 126 F= -.68607701E+03 E0= -.68607701E+03  d E =-.753808E-04
       N       E                     dE             d eps       ncg     rms          rms(c)
DAV:   1    -0.677465268742E+03    0.25935E-04   -0.22017E-02   936   0.334E-01    0.370E-02
RMM:   2    -0.677465298691E+03   -0.29949E-04   -0.39594E-04   936   0.420E-02    0.205E-02
RMM:   3    -0.677465295950E+03    0.27408E-05   -0.17431E-05   945   0.967E-03    0.115E-02
RMM:   4    -0.677465295099E+03    0.85124E-06   -0.62104E-06   957   0.469E-03    0.175E-03
RMM:   5    -0.677465295072E+03    0.26368E-07   -0.18578E-07   600   0.107E-03
 127 F= -.68607708E+03 E0= -.68607708E+03  d E =-.639623E-04
       N       E                     dE             d eps       ncg     rms          rms(c)
DAV:   1    -0.677465260825E+03    0.34273E-04   -0.75364E-03   956   0.196E-01    0.217E-02
RMM:   2    -0.677465271186E+03   -0.10360E-04   -0.13643E-04   936   0.247E-02    0.120E-02
RMM:   3    -0.677465270251E+03    0.93490E-06   -0.60019E-06   944   0.565E-03    0.679E-03
RMM:   4    -0.677465269976E+03    0.27478E-06   -0.21506E-06   942   0.275E-03    0.103E-03
RMM:   5    -0.677465269973E+03    0.28958E-08   -0.64951E-08   580   0.664E-04
 128 F= -.68607709E+03 E0= -.68607709E+03  d E =-.759993E-04
       N       E                     dE             d eps       ncg     rms          rms(c)
DAV:   1    -0.677465113202E+03    0.15677E-03   -0.23962E-02   936   0.348E-01    0.379E-02
RMM:   2    -0.677465143324E+03   -0.30123E-04   -0.41996E-04   936   0.436E-02    0.211E-02
RMM:   3    -0.677465139999E+03    0.33249E-05   -0.19562E-05   937   0.103E-02    0.116E-02
RMM:   4    -0.677465139134E+03    0.86579E-06   -0.67060E-06   961   0.492E-03    0.205E-03
RMM:   5    -0.677465139149E+03   -0.15949E-07   -0.21268E-07   610   0.112E-03
 129 F= -.68607714E+03 E0= -.68607714E+03  d E =-.557156E-04
       N       E                     dE             d eps       ncg     rms          rms(c)
DAV:   1    -0.677464882449E+03    0.25668E-03   -0.37353E-02   936   0.435E-01    0.473E-02
RMM:   2    -0.677464929538E+03   -0.47089E-04   -0.65578E-04   936   0.545E-02    0.263E-02
RMM:   3    -0.677464924322E+03    0.52165E-05   -0.30615E-05   937   0.128E-02    0.145E-02
RMM:   4    -0.677464922930E+03    0.13921E-05   -0.10489E-05   961   0.613E-03    0.258E-03
RMM:   5    -0.677464922940E+03   -0.98989E-08   -0.35781E-07   672   0.140E-03
 130 F= -.68607716E+03 E0= -.68607716E+03  d E =-.724243E-04
       N       E                     dE             d eps       ncg     rms          rms(c)
DAV:   1    -0.677464758026E+03    0.16490E-03   -0.11766E-02   952   0.244E-01    0.260E-02
RMM:   2    -0.677464771958E+03   -0.13932E-04   -0.19989E-04   936   0.301E-02    0.149E-02
RMM:   3    -0.677464770447E+03    0.15110E-05   -0.92647E-06   944   0.708E-03    0.808E-03
RMM:   4    -0.677464770122E+03    0.32465E-06   -0.29852E-06   953   0.331E-03    0.133E-03
RMM:   5    -0.677464770157E+03   -0.35030E-07   -0.86466E-08   584   0.747E-04
 131 F= -.68607719E+03 E0= -.68607719E+03  d E =-.345600E-04
       N       E                     dE             d eps       ncg     rms          rms(c)
DAV:   1    -0.677464448941E+03    0.32118E-03   -0.34658E-02   936   0.419E-01    0.446E-02
RMM:   2    -0.677464489643E+03   -0.40702E-04   -0.58689E-04   936   0.517E-02    0.255E-02
RMM:   3    -0.677464485111E+03    0.45324E-05   -0.27144E-05   943   0.122E-02    0.138E-02
RMM:   4    -0.677464483948E+03    0.11631E-05   -0.87386E-06   959   0.568E-03    0.228E-03
RMM:   5    -0.677464483991E+03   -0.42670E-07   -0.27364E-07   633   0.124E-03
 132 F= -.68607723E+03 E0= -.68607723E+03  d E =-.700120E-04
       N       E                     dE             d eps       ncg     rms          rms(c)
DAV:   1    -0.677463686041E+03    0.79791E-03   -0.13862E-01   936   0.838E-01    0.892E-02
RMM:   2    -0.677463848686E+03   -0.16264E-03   -0.23470E-03   936   0.103E-01    0.511E-02
RMM:   3    -0.677463830382E+03    0.18304E-04   -0.10861E-04   944   0.243E-02    0.276E-02
RMM:   4    -0.677463825150E+03    0.52319E-05   -0.34883E-05   959   0.114E-02    0.457E-03
RMM:   5    -0.677463825174E+03   -0.24684E-07   -0.12819E-06   942   0.249E-03    0.265E-03
RMM:   6    -0.677463825263E+03   -0.88472E-07   -0.52676E-07   803   0.132E-03
 133 F= -.68607721E+03 E0= -.68607721E+03  d E =-.546511E-04
       N       E                     dE             d eps       ncg     rms          rms(c)
DAV:   1    -0.677464190780E+03   -0.36561E-03   -0.51658E-02   936   0.512E-01    0.544E-02
RMM:   2    -0.677464251107E+03   -0.60326E-04   -0.87167E-04   936   0.631E-02    0.311E-02
RMM:   3    -0.677464244069E+03    0.70374E-05   -0.40280E-05   944   0.148E-02    0.168E-02
RMM:   4    -0.677464241578E+03    0.24910E-05   -0.12845E-05   959   0.690E-03    0.276E-03
RMM:   5    -0.677464241426E+03    0.15281E-06   -0.42799E-07   711   0.151E-03    0.157E-03
RMM:   6    -0.677464241328E+03    0.97447E-07   -0.19658E-07   596   0.899E-04
 134 F= -.68607724E+03 E0= -.68607724E+03  d E =-.778496E-04
       N       E                     dE             d eps       ncg     rms          rms(c)
DAV:   1    -0.677464126366E+03    0.11506E-03   -0.18050E-02   936   0.302E-01    0.348E-02
RMM:   2    -0.677464147924E+03   -0.21558E-04   -0.30851E-04   936   0.374E-02    0.189E-02
RMM:   3    -0.677464145338E+03    0.25856E-05   -0.14288E-05   940   0.863E-03    0.996E-03
RMM:   4    -0.677464144773E+03    0.56561E-06   -0.43311E-06   954   0.399E-03    0.173E-03
RMM:   5    -0.677464144790E+03   -0.17659E-07   -0.14146E-07   596   0.946E-04
 135 F= -.68607731E+03 E0= -.68607731E+03  d E =-.679063E-04
       N       E                     dE             d eps       ncg     rms          rms(c)
DAV:   1    -0.677463927544E+03    0.21723E-03   -0.32392E-02   936   0.404E-01    0.466E-02
RMM:   2    -0.677463966484E+03   -0.38939E-04   -0.55650E-04   936   0.503E-02    0.254E-02
RMM:   3    -0.677463961806E+03    0.46776E-05   -0.25901E-05   939   0.116E-02    0.134E-02
RMM:   4    -0.677463960736E+03    0.10695E-05   -0.79094E-06   955   0.538E-03    0.235E-03
RMM:   5    -0.677463960746E+03   -0.93387E-08   -0.27482E-07   625   0.128E-03
 136 F= -.68607734E+03 E0= -.68607734E+03  d E =-.104215E-03
       N       E                     dE             d eps       ncg     rms          rms(c)
DAV:   1    -0.677464065159E+03   -0.10442E-03   -0.15344E-02   936   0.278E-01    0.336E-02
RMM:   2    -0.677464083588E+03   -0.18428E-04   -0.26041E-04   936   0.344E-02    0.175E-02
RMM:   3    -0.677464081076E+03    0.25117E-05   -0.12364E-05   944   0.787E-03    0.930E-03
RMM:   4    -0.677464080380E+03    0.69540E-06   -0.38577E-06   949   0.372E-03    0.164E-03
RMM:   5    -0.677464080368E+03    0.12016E-07   -0.13980E-07   591   0.947E-04
 137 F= -.68607740E+03 E0= -.68607740E+03  d E =-.560233E-04
       N       E                     dE             d eps       ncg     rms          rms(c)
DAV:   1    -0.677464161110E+03   -0.80729E-04   -0.35732E-02   936   0.424E-01    0.513E-02
RMM:   2    -0.677464204082E+03   -0.42972E-04   -0.60411E-04   936   0.524E-02    0.267E-02
RMM:   3    -0.677464198408E+03    0.56741E-05   -0.28661E-05   944   0.120E-02    0.142E-02
RMM:   4    -0.677464196879E+03    0.15293E-05   -0.88830E-06   949   0.564E-03    0.248E-03
RMM:   5    -0.677464196842E+03    0.36922E-07   -0.35379E-07   674   0.144E-03
 138 F= -.68607742E+03 E0= -.68607742E+03  d E =-.754756E-04
       N       E                     dE             d eps       ncg     rms          rms(c)
DAV:   1    -0.677464173323E+03    0.23556E-04   -0.21547E-03   976   0.104E-01    0.125E-02
RMM:   2    -0.677464175956E+03   -0.26336E-05   -0.35610E-05   936   0.128E-02    0.649E-03
RMM:   3    -0.677464175685E+03    0.27099E-06   -0.16584E-06   938   0.291E-03    0.340E-03
RMM:   4    -0.677464175640E+03    0.45824E-07   -0.50334E-07   817   0.136E-03
 139 F= -.68607742E+03 E0= -.68607742E+03  d E =-.781461E-04
       N       E                     dE             d eps       ncg     rms          rms(c)
DAV:   1    -0.677464366331E+03   -0.19065E-03   -0.21805E-02   936   0.331E-01    0.354E-02
RMM:   2    -0.677464392719E+03   -0.26388E-04   -0.36163E-04   936   0.406E-02    0.204E-02
RMM:   3    -0.677464389295E+03    0.34243E-05   -0.17255E-05   942   0.937E-03    0.107E-02
RMM:   4    -0.677464388424E+03    0.87108E-06   -0.55313E-06   952   0.442E-03    0.178E-03
RMM:   5    -0.677464388349E+03    0.74408E-07   -0.20034E-07   606   0.109E-03
 140 F= -.68607748E+03 E0= -.68607748E+03  d E =-.556175E-04
       N       E                     dE             d eps       ncg     rms          rms(c)
DAV:   1    -0.677464500009E+03   -0.11159E-03   -0.11194E-02   936   0.237E-01    0.254E-02
RMM:   2    -0.677464513781E+03   -0.13771E-04   -0.18744E-04   936   0.292E-02    0.147E-02
RMM:   3    -0.677464512038E+03    0.17426E-05   -0.89811E-06   942   0.672E-03    0.776E-03
RMM:   4    -0.677464511582E+03    0.45630E-06   -0.28747E-06   947   0.318E-03    0.129E-03
RMM:   5    -0.677464511534E+03    0.47708E-07   -0.10243E-07   584   0.800E-04
 141 F= -.68607749E+03 E0= -.68607749E+03  d E =-.662738E-04
       N       E                     dE             d eps       ncg     rms          rms(c)
DAV:   1    -0.677464670051E+03   -0.15847E-03   -0.21424E-02   936   0.329E-01    0.349E-02
RMM:   2    -0.677464695537E+03   -0.25487E-04   -0.34881E-04   936   0.398E-02    0.205E-02
RMM:   3    -0.677464692468E+03    0.30690E-05   -0.16910E-05   937   0.911E-03    0.104E-02
RMM:   4    -0.677464691836E+03    0.63285E-06   -0.49320E-06   959   0.422E-03    0.166E-03
RMM:   5    -0.677464691775E+03    0.60398E-07   -0.18099E-07   601   0.105E-03
 142 F= -.68607754E+03 E0= -.68607754E+03  d E =-.551664E-04
       N       E                     dE             d eps       ncg     rms          rms(c)
DAV:   1    -0.677464778276E+03   -0.86440E-04   -0.88854E-03   940   0.212E-01    0.225E-02
RMM:   2    -0.677464788859E+03   -0.10583E-04   -0.14531E-04   936   0.257E-02    0.132E-02
RMM:   3    -0.677464787587E+03    0.12719E-05   -0.70978E-06   937   0.588E-03    0.673E-03
RMM:   4    -0.677464787328E+03    0.25874E-06   -0.20481E-06   946   0.272E-03    0.107E-03
RMM:   5    -0.677464787298E+03    0.30217E-07   -0.75610E-08   584   0.709E-04
 143 F= -.68607756E+03 E0= -.68607756E+03  d E =-.702732E-04
       N       E                     dE             d eps       ncg     rms          rms(c)
DAV:   1    -0.677464755177E+03    0.32151E-04   -0.87414E-03   936   0.212E-01    0.236E-02
RMM:   2    -0.677464765793E+03   -0.10615E-04   -0.15036E-04   936   0.265E-02    0.136E-02
RMM:   3    -0.677464764466E+03    0.13267E-05   -0.76521E-06   940   0.638E-03    0.692E-03
RMM:   4    -0.677464764301E+03    0.16541E-06   -0.21407E-06   952   0.287E-03    0.132E-03
RMM:   5    -0.677464764320E+03   -0.18994E-07   -0.89772E-08   584   0.754E-04
 144 F= -.68607761E+03 E0= -.68607761E+03  d E =-.495416E-04
       N       E                     dE             d eps       ncg     rms          rms(c)
DAV:   1    -0.677464702541E+03    0.61760E-04   -0.79694E-03   940   0.203E-01    0.225E-02
RMM:   2    -0.677464712268E+03   -0.97273E-05   -0.13717E-04   936   0.253E-02    0.130E-02
RMM:   3    -0.677464711059E+03    0.12090E-05   -0.70047E-06   941   0.608E-03    0.662E-03
RMM:   4    -0.677464710916E+03    0.14329E-06   -0.19401E-06   948   0.272E-03    0.124E-03
RMM:   5    -0.677464710937E+03   -0.21028E-07   -0.83181E-08   584   0.733E-04
 145 F= -.68607762E+03 E0= -.68607762E+03  d E =-.654353E-04
       N       E                     dE             d eps       ncg     rms          rms(c)
DAV:   1    -0.677464668079E+03    0.42837E-04   -0.69035E-03   936   0.188E-01    0.225E-02
RMM:   2    -0.677464675447E+03   -0.73678E-05   -0.11186E-04   936   0.226E-02    0.122E-02
RMM:   3    -0.677464674431E+03    0.10164E-05   -0.56080E-06   942   0.532E-03    0.658E-03
RMM:   4    -0.677464674305E+03    0.12552E-06   -0.18893E-06   941   0.256E-03    0.124E-03
RMM:   5    -0.677464674314E+03   -0.93278E-08   -0.86712E-08   579   0.723E-04
 146 F= -.68607766E+03 E0= -.68607766E+03  d E =-.365295E-04
       N       E                     dE             d eps       ncg     rms          rms(c)
DAV:   1    -0.677464535990E+03    0.13832E-03   -0.27073E-02   936   0.371E-01    0.445E-02
RMM:   2    -0.677464564347E+03   -0.28357E-04   -0.43843E-04   936   0.448E-02    0.241E-02
RMM:   3    -0.677464560159E+03    0.41884E-05   -0.21984E-05   942   0.106E-02    0.130E-02
RMM:   4    -0.677464559420E+03    0.73918E-06   -0.74277E-06   955   0.507E-03    0.251E-03
RMM:   5    -0.677464559402E+03    0.17266E-07   -0.37239E-07   678   0.137E-03
 147 F= -.68607769E+03 E0= -.68607769E+03  d E =-.664911E-04
       N       E                     dE             d eps       ncg     rms          rms(c)
DAV:   1    -0.677464685025E+03   -0.12561E-03   -0.10624E-02   940   0.229E-01    0.271E-02
RMM:   2    -0.677464695163E+03   -0.10138E-04   -0.16782E-04   936   0.278E-02    0.157E-02
RMM:   3    -0.677464693060E+03    0.21032E-05   -0.95467E-06   939   0.660E-03    0.784E-03
RMM:   4    -0.677464692627E+03    0.43321E-06   -0.26505E-06   945   0.306E-03    0.163E-03
RMM:   5    -0.677464692591E+03    0.35572E-07   -0.14914E-07   596   0.932E-04
 148 F= -.68607774E+03 E0= -.68607774E+03  d E =-.479600E-04
       N       E                     dE             d eps       ncg     rms          rms(c)
DAV:   1    -0.677464759805E+03   -0.67178E-04   -0.48707E-03   972   0.155E-01    0.183E-02
RMM:   2    -0.677464764407E+03   -0.46017E-05   -0.77014E-05   936   0.188E-02    0.106E-02
RMM:   3    -0.677464763419E+03    0.98749E-06   -0.44020E-06   940   0.446E-03    0.531E-03
RMM:   4    -0.677464763199E+03    0.21974E-06   -0.11983E-06   911   0.207E-03    0.111E-03
RMM:   5    -0.677464763179E+03    0.20049E-07   -0.70798E-08   580   0.670E-04
 149 F= -.68607775E+03 E0= -.68607775E+03  d E =-.608245E-04
       N       E                     dE             d eps       ncg     rms          rms(c)
DAV:   1    -0.677464955363E+03   -0.19216E-03   -0.60351E-03   940   0.177E-01    0.227E-02
RMM:   2    -0.677464961831E+03   -0.64679E-05   -0.11087E-04   936   0.229E-02    0.124E-02
RMM:   3    -0.677464960163E+03    0.16679E-05   -0.63702E-06   941   0.555E-03    0.608E-03
RMM:   4    -0.677464959747E+03    0.41642E-06   -0.15918E-06   938   0.244E-03    0.150E-03
RMM:   5    -0.677464959674E+03    0.72469E-07   -0.84549E-08   580   0.718E-04
 150 F= -.68607779E+03 E0= -.68607779E+03  d E =-.422140E-04
       N       E                     dE             d eps       ncg     rms          rms(c)
DAV:   1    -0.677465087295E+03   -0.12755E-03   -0.37291E-03   956   0.139E-01    0.179E-02
RMM:   2    -0.677465091285E+03   -0.39896E-05   -0.68847E-05   936   0.180E-02    0.977E-03
RMM:   3    -0.677465090233E+03    0.10516E-05   -0.39731E-06   941   0.437E-03    0.480E-03
RMM:   4    -0.677465089950E+03    0.28290E-06   -0.98763E-07   920   0.192E-03    0.113E-03
RMM:   5    -0.677465089896E+03    0.53707E-07   -0.56024E-08   580   0.598E-04
 151 F= -.68607780E+03 E0= -.68607780E+03  d E =-.512069E-04
       N       E                     dE             d eps       ncg     rms          rms(c)
DAV:   1    -0.677465175125E+03   -0.85175E-04   -0.36743E-03   940   0.137E-01    0.161E-02
RMM:   2    -0.677465178734E+03   -0.36093E-05   -0.61037E-05   936   0.169E-02    0.952E-03
RMM:   3    -0.677465177881E+03    0.85342E-06   -0.32357E-06   936   0.399E-03    0.470E-03
RMM:   4    -0.677465177668E+03    0.21300E-06   -0.89617E-07   918   0.184E-03    0.911E-04
RMM:   5    -0.677465177633E+03    0.35056E-07   -0.45442E-08   580   0.543E-04
 152 F= -.68607783E+03 E0= -.68607783E+03  d E =-.275607E-04
       N       E                     dE             d eps       ncg     rms          rms(c)
DAV:   1    -0.677465301869E+03   -0.12420E-03   -0.12800E-02   936   0.255E-01    0.301E-02
RMM:   2    -0.677465314642E+03   -0.12773E-04   -0.21254E-04   936   0.315E-02    0.177E-02
RMM:   3    -0.677465311755E+03    0.28876E-05   -0.11281E-05   936   0.745E-03    0.874E-03
RMM:   4    -0.677465311135E+03    0.61915E-06   -0.31439E-06   954   0.342E-03    0.183E-03
RMM:   5    -0.677465311051E+03    0.84598E-07   -0.14774E-07   590   0.920E-04
 153 F= -.68607785E+03 E0= -.68607785E+03  d E =-.486747E-04
       N       E                     dE             d eps       ncg     rms          rms(c)
DAV:   1    -0.677465199634E+03    0.11150E-03   -0.54347E-03   940   0.165E-01    0.210E-02
RMM:   2    -0.677465205997E+03   -0.63638E-05   -0.95425E-05   936   0.210E-02    0.113E-02
RMM:   3    -0.677465205064E+03    0.93310E-06   -0.44893E-06   939   0.468E-03    0.569E-03
RMM:   4    -0.677465204994E+03    0.70388E-07   -0.13632E-06   931   0.220E-03    0.119E-03
RMM:   5    -0.677465205012E+03   -0.18426E-07   -0.79621E-08   580   0.673E-04
 154 F= -.68607789E+03 E0= -.68607789E+03  d E =-.358269E-04
       N       E                     dE             d eps       ncg     rms          rms(c)
DAV:   1    -0.677464978414E+03    0.22658E-03   -0.14888E-02   936   0.273E-01    0.346E-02
RMM:   2    -0.677464995703E+03   -0.17289E-04   -0.26098E-04   936   0.346E-02    0.186E-02
RMM:   3    -0.677464993000E+03    0.27027E-05   -0.12239E-05   939   0.773E-03    0.942E-03
RMM:   4    -0.677464992653E+03    0.34737E-06   -0.37687E-06   953   0.365E-03    0.199E-03
RMM:   5    -0.677464992674E+03   -0.21624E-07   -0.23117E-07   622   0.106E-03
 155 F= -.68607791E+03 E0= -.68607791E+03  d E =-.583186E-04
       N       E                     dE             d eps       ncg     rms          rms(c)
DAV:   1    -0.677464833235E+03    0.15942E-03   -0.66731E-03   936   0.184E-01    0.224E-02
RMM:   2    -0.677464840400E+03   -0.71645E-05   -0.11463E-04   936   0.232E-02    0.125E-02
RMM:   3    -0.677464839236E+03    0.11637E-05   -0.56022E-06   940   0.537E-03    0.680E-03
RMM:   4    -0.677464839170E+03    0.65589E-07   -0.19282E-06   932   0.259E-03    0.146E-03
RMM:   5    -0.677464839223E+03   -0.52689E-07   -0.87708E-08   581   0.721E-04
 156 F= -.68607794E+03 E0= -.68607794E+03  d E =-.373090E-04
       N       E                     dE             d eps       ncg     rms          rms(c)
DAV:   1    -0.677464502583E+03    0.33659E-03   -0.21817E-02   936   0.332E-01    0.404E-02
RMM:   2    -0.677464525808E+03   -0.23225E-04   -0.37457E-04   936   0.418E-02    0.226E-02
RMM:   3    -0.677464521780E+03    0.40279E-05   -0.18274E-05   940   0.970E-03    0.122E-02
RMM:   4    -0.677464521248E+03    0.53222E-06   -0.63603E-06   952   0.468E-03    0.265E-03
RMM:   5    -0.677464521316E+03   -0.68736E-07   -0.30732E-07   657   0.125E-03
 157 F= -.68607797E+03 E0= -.68607797E+03  d E =-.643312E-04
       N       E                     dE             d eps       ncg     rms          rms(c)
DAV:   1    -0.677464433191E+03    0.88056E-04   -0.95695E-03   936   0.219E-01    0.250E-02
RMM:   2    -0.677464444048E+03   -0.10857E-04   -0.16406E-04   936   0.269E-02    0.149E-02
RMM:   3    -0.677464442348E+03    0.17003E-05   -0.82097E-06   938   0.623E-03    0.772E-03
RMM:   4    -0.677464442165E+03    0.18264E-06   -0.24633E-06   937   0.292E-03    0.161E-03
RMM:   5    -0.677464442200E+03   -0.34863E-07   -0.12672E-07   585   0.858E-04
 158 F= -.68607801E+03 E0= -.68607801E+03  d E =-.403328E-04
       N       E                     dE             d eps       ncg     rms          rms(c)
DAV:   1    -0.677464325564E+03    0.11660E-03   -0.97420E-03   936   0.221E-01    0.252E-02
RMM:   2    -0.677464336567E+03   -0.11002E-04   -0.16692E-04   936   0.272E-02    0.150E-02
RMM:   3    -0.677464334830E+03    0.17363E-05   -0.83779E-06   938   0.629E-03    0.777E-03
RMM:   4    -0.677464334638E+03    0.19262E-06   -0.24943E-06   937   0.294E-03    0.163E-03
RMM:   5    -0.677464334673E+03   -0.34885E-07   -0.12953E-07   587   0.865E-04
 159 F= -.68607803E+03 E0= -.68607803E+03  d E =-.533283E-04
       N       E                     dE             d eps       ncg     rms          rms(c)
DAV:   1    -0.677464356315E+03   -0.21677E-04   -0.12959E-02   936   0.253E-01    0.288E-02
RMM:   2    -0.677464370722E+03   -0.14407E-04   -0.21790E-04   936   0.305E-02    0.174E-02
RMM:   3    -0.677464368373E+03    0.23490E-05   -0.10910E-05   942   0.691E-03    0.840E-03
RMM:   4    -0.677464368017E+03    0.35577E-06   -0.30888E-06   945   0.329E-03    0.162E-03
RMM:   5    -0.677464367977E+03    0.40105E-07   -0.25949E-07   643   0.107E-03
 160 F= -.68607807E+03 E0= -.68607807E+03  d E =-.483077E-04
       N       E                     dE             d eps       ncg     rms          rms(c)
DAV:   1    -0.677464363190E+03    0.48276E-05   -0.10372E-02   936   0.227E-01    0.258E-02
RMM:   2    -0.677464374711E+03   -0.11521E-04   -0.17410E-04   936   0.273E-02    0.156E-02
RMM:   3    -0.677464372840E+03    0.18711E-05   -0.87683E-06   943   0.619E-03    0.750E-03
RMM:   4    -0.677464372562E+03    0.27756E-06   -0.24424E-06   941   0.292E-03    0.144E-03
RMM:   5    -0.677464372528E+03    0.34168E-07   -0.19754E-07   613   0.957E-04
 161 F= -.68607809E+03 E0= -.68607809E+03  d E =-.662897E-04
       N       E                     dE             d eps       ncg     rms          rms(c)
DAV:   1    -0.677464551111E+03   -0.17855E-03   -0.15733E-02   936   0.280E-01    0.316E-02
RMM:   2    -0.677464567045E+03   -0.15933E-04   -0.25922E-04   936   0.342E-02    0.189E-02
RMM:   3    -0.677464563534E+03    0.35102E-05   -0.14223E-05   940   0.791E-03    0.918E-03
RMM:   4    -0.677464562816E+03    0.71840E-06   -0.37136E-06   952   0.360E-03    0.197E-03
RMM:   5    -0.677464562730E+03    0.85740E-07   -0.21805E-07   614   0.109E-03
 162 F= -.68607815E+03 E0= -.68607815E+03  d E =-.535873E-04
       N       E                     dE             d eps       ncg     rms          rms(c)
DAV:   1    -0.677464692678E+03   -0.12986E-03   -0.14902E-02   936   0.273E-01    0.308E-02
RMM:   2    -0.677464707817E+03   -0.15139E-04   -0.24638E-04   936   0.334E-02    0.184E-02
RMM:   3    -0.677464704487E+03    0.33304E-05   -0.13559E-05   940   0.771E-03    0.896E-03
RMM:   4    -0.677464703802E+03    0.68496E-06   -0.35316E-06   952   0.351E-03    0.194E-03
RMM:   5    -0.677464703718E+03    0.84176E-07   -0.20953E-07   611   0.107E-03
 163 F= -.68607815E+03 E0= -.68607815E+03  d E =-.616836E-04
       N       E                     dE             d eps       ncg     rms          rms(c)
DAV:   1    -0.677464661698E+03    0.42104E-04   -0.15476E-03   972   0.878E-02    0.991E-03
RMM:   2    -0.677464663363E+03   -0.16651E-05   -0.25247E-05   936   0.107E-02    0.587E-03
RMM:   3    -0.677464663101E+03    0.26270E-06   -0.13556E-06   934   0.247E-03    0.286E-03
RMM:   4    -0.677464663099E+03    0.14406E-08   -0.34766E-07   686   0.114E-03
 164 F= -.68607816E+03 E0= -.68607816E+03  d E =-.639229E-04
       N       E                     dE             d eps       ncg     rms          rms(c)
DAV:   1    -0.677464792816E+03   -0.12971E-03   -0.11363E-02   936   0.237E-01    0.269E-02
RMM:   2    -0.677464804259E+03   -0.11443E-04   -0.17839E-04   936   0.284E-02    0.153E-02
RMM:   3    -0.677464802096E+03    0.21629E-05   -0.90607E-06   937   0.645E-03    0.745E-03
RMM:   4    -0.677464801630E+03    0.46538E-06   -0.25299E-06   948   0.299E-03    0.139E-03
RMM:   5    -0.677464801589E+03    0.41306E-07   -0.11009E-07   589   0.813E-04
 165 F= -.68607820E+03 E0= -.68607820E+03  d E =-.399956E-04
       N       E                     dE             d eps       ncg     rms          rms(c)
DAV:   1    -0.677464958623E+03   -0.15699E-03   -0.28070E-02   936   0.372E-01    0.423E-02
RMM:   2    -0.677464987513E+03   -0.28890E-04   -0.44339E-04   936   0.448E-02    0.242E-02
RMM:   3    -0.677464982302E+03    0.52102E-05   -0.22516E-05   937   0.101E-02    0.118E-02
RMM:   4    -0.677464981241E+03    0.10611E-05   -0.62672E-06   952   0.470E-03    0.221E-03
RMM:   5    -0.677464981158E+03    0.82771E-07   -0.30522E-07   652   0.129E-03
 166 F= -.68607822E+03 E0= -.68607822E+03  d E =-.646768E-04
       N       E                     dE             d eps       ncg     rms          rms(c)
DAV:   1    -0.677464968972E+03    0.12269E-04   -0.15049E-02   936   0.272E-01    0.319E-02
RMM:   2    -0.677464986179E+03   -0.17206E-04   -0.24690E-04   936   0.331E-02    0.180E-02
RMM:   3    -0.677464983752E+03    0.24264E-05   -0.11329E-05   939   0.745E-03    0.917E-03
RMM:   4    -0.677464983328E+03    0.42389E-06   -0.34956E-06   952   0.349E-03    0.171E-03
RMM:   5    -0.677464983335E+03   -0.62792E-08   -0.17041E-07   601   0.945E-04
 167 F= -.68607827E+03 E0= -.68607827E+03  d E =-.526967E-04
       N       E                     dE             d eps       ncg     rms          rms(c)
DAV:   1    -0.677464808251E+03    0.17508E-03   -0.79182E-02   936   0.623E-01    0.732E-02
RMM:   2    -0.677464898798E+03   -0.90548E-04   -0.12971E-03   936   0.758E-02    0.413E-02
RMM:   3    -0.677464885741E+03    0.13058E-04   -0.59306E-05   939   0.171E-02    0.211E-02
RMM:   4    -0.677464883178E+03    0.25625E-05   -0.18464E-05   956   0.802E-03    0.394E-03
RMM:   5    -0.677464883113E+03    0.65585E-07   -0.10662E-06   925   0.215E-03    0.195E-03
RMM:   6    -0.677464883153E+03   -0.40360E-07   -0.13378E-07   592   0.783E-04
 168 F= -.68607829E+03 E0= -.68607829E+03  d E =-.684253E-04
       N       E                     dE             d eps       ncg     rms          rms(c)
DAV:   1    -0.677464930232E+03   -0.47119E-04   -0.13071E-02   936   0.253E-01    0.298E-02
RMM:   2    -0.677464945253E+03   -0.15021E-04   -0.21376E-04   936   0.308E-02    0.168E-02
RMM:   3    -0.677464943007E+03    0.22455E-05   -0.97354E-06   939   0.695E-03    0.852E-03
RMM:   4    -0.677464942450E+03    0.55729E-06   -0.30285E-06   951   0.325E-03    0.158E-03
RMM:   5    -0.677464942386E+03    0.63592E-07   -0.14433E-07   595   0.881E-04
 169 F= -.68607830E+03 E0= -.68607830E+03  d E =-.804977E-04
       N       E                     dE             d eps       ncg     rms          rms(c)
DAV:   1    -0.677464839846E+03    0.10260E-03   -0.13156E-02   936   0.254E-01    0.294E-02
RMM:   2    -0.677464853677E+03   -0.13831E-04   -0.21949E-04   936   0.315E-02    0.169E-02
RMM:   3    -0.677464851329E+03    0.23477E-05   -0.10413E-05   939   0.725E-03    0.883E-03
RMM:   4    -0.677464851004E+03    0.32536E-06   -0.35779E-06   952   0.351E-03    0.174E-03
RMM:   5    -0.677464851039E+03   -0.35317E-07   -0.14845E-07   592   0.924E-04
 170 F= -.68607835E+03 E0= -.68607835E+03  d E =-.477430E-04
       N       E                     dE             d eps       ncg     rms          rms(c)
DAV:   1    -0.677464644381E+03    0.20662E-03   -0.29892E-02   936   0.382E-01    0.443E-02
RMM:   2    -0.677464676511E+03   -0.32130E-04   -0.50048E-04   936   0.475E-02    0.255E-02
RMM:   3    -0.677464671209E+03    0.53019E-05   -0.23850E-05   939   0.109E-02    0.134E-02
RMM:   4    -0.677464670364E+03    0.84569E-06   -0.81521E-06   960   0.530E-03    0.264E-03
RMM:   5    -0.677464670394E+03   -0.29882E-07   -0.36787E-07   678   0.137E-03
 171 F= -.68607838E+03 E0= -.68607838E+03  d E =-.765944E-04
       N       E                     dE             d eps       ncg     rms          rms(c)
DAV:   1    -0.677464488820E+03    0.18154E-03   -0.19450E-02   936   0.310E-01    0.355E-02
RMM:   2    -0.677464509792E+03   -0.20973E-04   -0.33065E-04   936   0.391E-02    0.203E-02
RMM:   3    -0.677464506458E+03    0.33340E-05   -0.15932E-05   938   0.891E-03    0.103E-02
RMM:   4    -0.677464506073E+03    0.38508E-06   -0.52278E-06   956   0.426E-03    0.198E-03
RMM:   5    -0.677464506109E+03   -0.35470E-07   -0.22263E-07   617   0.111E-03
 172 F= -.68607843E+03 E0= -.68607843E+03  d E =-.563407E-04
       N       E                     dE             d eps       ncg     rms          rms(c)
DAV:   1    -0.677464304634E+03    0.20144E-03   -0.17149E-02   936   0.291E-01    0.333E-02
RMM:   2    -0.677464323157E+03   -0.18522E-04   -0.29196E-04   936   0.367E-02    0.191E-02
RMM:   3    -0.677464320225E+03    0.29318E-05   -0.14064E-05   938   0.836E-03    0.969E-03
RMM:   4    -0.677464319899E+03    0.32596E-06   -0.46037E-06   954   0.399E-03    0.186E-03
RMM:   5    -0.677464319934E+03   -0.35303E-07   -0.19580E-07   609   0.105E-03
 173 F= -.68607845E+03 E0= -.68607845E+03  d E =-.773540E-04
       N       E                     dE             d eps       ncg     rms          rms(c)
DAV:   1    -0.677464246231E+03    0.73668E-04   -0.16299E-02   936   0.284E-01    0.336E-02
RMM:   2    -0.677464262971E+03   -0.16740E-04   -0.27233E-04   936   0.349E-02    0.194E-02
RMM:   3    -0.677464260377E+03    0.25936E-05   -0.13724E-05   943   0.801E-03    0.998E-03
RMM:   4    -0.677464259921E+03    0.45635E-06   -0.41846E-06   953   0.381E-03    0.188E-03
RMM:   5    -0.677464259922E+03   -0.12515E-08   -0.23338E-07   625   0.109E-03
 174 F= -.68607851E+03 E0= -.68607851E+03  d E =-.545762E-04
       N       E                     dE             d eps       ncg     rms          rms(c)
DAV:   1    -0.677463966134E+03    0.29379E-03   -0.74990E-02   936   0.608E-01    0.721E-02
RMM:   2    -0.677464042918E+03   -0.76783E-04   -0.12523E-03   936   0.750E-02    0.415E-02
RMM:   3    -0.677464030729E+03    0.12188E-04   -0.63143E-05   943   0.172E-02    0.214E-02
RMM:   4    -0.677464028216E+03    0.25132E-05   -0.19254E-05   958   0.818E-03    0.404E-03
RMM:   5    -0.677464028147E+03    0.68922E-07   -0.12293E-06   903   0.231E-03    0.183E-03
RMM:   6    -0.677464028169E+03   -0.21864E-07   -0.15624E-07   594   0.815E-04
 175 F= -.68607852E+03 E0= -.68607852E+03  d E =-.687081E-04
       N       E                     dE             d eps       ncg     rms          rms(c)
DAV:   1    -0.677464129187E+03   -0.10104E-03   -0.12037E-02   940   0.244E-01    0.289E-02
RMM:   2    -0.677464141533E+03   -0.12345E-04   -0.20063E-04   936   0.301E-02    0.166E-02
RMM:   3    -0.677464139411E+03    0.21219E-05   -0.10061E-05   942   0.690E-03    0.857E-03
RMM:   4    -0.677464138810E+03    0.60109E-06   -0.30992E-06   949   0.328E-03    0.162E-03
RMM:   5    -0.677464138755E+03    0.54340E-07   -0.17157E-07   605   0.952E-04
 176 F= -.68607854E+03 E0= -.68607854E+03  d E =-.807402E-04
       N       E                     dE             d eps       ncg     rms          rms(c)
DAV:   1    -0.677464136211E+03    0.25993E-05   -0.12432E-02   936   0.247E-01    0.298E-02
RMM:   2    -0.677464148546E+03   -0.12335E-04   -0.20014E-04   936   0.298E-02    0.165E-02
RMM:   3    -0.677464146278E+03    0.22678E-05   -0.96011E-06   943   0.681E-03    0.864E-03
RMM:   4    -0.677464145748E+03    0.52984E-06   -0.32725E-06   942   0.337E-03    0.153E-03
RMM:   5    -0.677464145749E+03   -0.14406E-08   -0.13844E-07   590   0.903E-04
 177 F= -.68607858E+03 E0= -.68607858E+03  d E =-.426329E-04
       N       E                     dE             d eps       ncg     rms          rms(c)
DAV:   1    -0.677464068457E+03    0.77291E-04   -0.52647E-02   936   0.509E-01    0.615E-02
RMM:   2    -0.677464122607E+03   -0.54151E-04   -0.85102E-04   936   0.615E-02    0.342E-02
RMM:   3    -0.677464113442E+03    0.91652E-05   -0.40859E-05   943   0.140E-02    0.179E-02
RMM:   4    -0.677464111261E+03    0.21814E-05   -0.13877E-05   955   0.692E-03    0.317E-03
RMM:   5    -0.677464111204E+03    0.56687E-07   -0.68852E-07   815   0.182E-03
 178 F= -.68607862E+03 E0= -.68607862E+03  d E =-.813715E-04
       N       E                     dE             d eps       ncg     rms          rms(c)
DAV:   1    -0.677464108084E+03    0.31769E-05   -0.24093E-02   936   0.342E-01    0.387E-02
RMM:   2    -0.677464134335E+03   -0.26251E-04   -0.38658E-04   936   0.414E-02    0.229E-02
RMM:   3    -0.677464130259E+03    0.40758E-05   -0.17700E-05   938   0.911E-03    0.121E-02
RMM:   4    -0.677464129444E+03    0.81495E-06   -0.64446E-06   951   0.456E-03    0.210E-03
RMM:   5    -0.677464129441E+03    0.33760E-08   -0.28642E-07   645   0.122E-03
 179 F= -.68607868E+03 E0= -.68607868E+03  d E =-.624704E-04
       N       E                     dE             d eps       ncg     rms          rms(c)
DAV:   1    -0.677464089241E+03    0.40203E-04   -0.25253E-02   936   0.350E-01    0.396E-02
RMM:   2    -0.677464116646E+03   -0.27404E-04   -0.40498E-04   936   0.424E-02    0.233E-02
RMM:   3    -0.677464112328E+03    0.43175E-05   -0.18571E-05   938   0.931E-03    0.124E-02
RMM:   4    -0.677464111463E+03    0.86486E-06   -0.67613E-06   952   0.466E-03    0.216E-03
RMM:   5    -0.677464111457E+03    0.58390E-08   -0.30388E-07   655   0.124E-03
 180 F= -.68607871E+03 E0= -.68607871E+03  d E =-.897633E-04
       N       E                     dE             d eps       ncg     rms          rms(c)
DAV:   1    -0.677463986420E+03    0.12504E-03   -0.23714E-02   936   0.340E-01    0.451E-02
RMM:   2    -0.677464011983E+03   -0.25562E-04   -0.39274E-04   936   0.421E-02    0.228E-02
RMM:   3    -0.677464007850E+03    0.41333E-05   -0.19028E-05   937   0.953E-03    0.114E-02
RMM:   4    -0.677464007206E+03    0.64400E-06   -0.57161E-06   951   0.437E-03    0.211E-03
RMM:   5    -0.677464007252E+03   -0.46104E-07   -0.23413E-07   618   0.116E-03
 181 F= -.68607877E+03 E0= -.68607877E+03  d E =-.614140E-04
       N       E                     dE             d eps       ncg     rms          rms(c)
DAV:   1    -0.677463911771E+03    0.95434E-04   -0.85954E-03   940   0.205E-01    0.272E-02
RMM:   2    -0.677463921007E+03   -0.92362E-05   -0.14287E-04   936   0.254E-02    0.138E-02
RMM:   3    -0.677463919534E+03    0.14731E-05   -0.69494E-06   937   0.575E-03    0.688E-03
RMM:   4    -0.677463919355E+03    0.17959E-06   -0.20767E-06   939   0.264E-03    0.127E-03
RMM:   5    -0.677463919392E+03   -0.37522E-07   -0.82451E-08   583   0.725E-04
 182 F= -.68607878E+03 E0= -.68607878E+03  d E =-.732672E-04
       N       E                     dE             d eps       ncg     rms          rms(c)
DAV:   1    -0.677463606285E+03    0.31307E-03   -0.25494E-02   936   0.355E-01    0.415E-02
RMM:   2    -0.677463631200E+03   -0.24916E-04   -0.41692E-04   936   0.437E-02    0.233E-02
RMM:   3    -0.677463626914E+03    0.42858E-05   -0.20029E-05   937   0.101E-02    0.118E-02
RMM:   4    -0.677463626312E+03    0.60246E-06   -0.61620E-06   957   0.468E-03    0.228E-03
RMM:   5    -0.677463626376E+03   -0.64261E-07   -0.24222E-07   613   0.116E-03
 183 F= -.68607884E+03 E0= -.68607884E+03  d E =-.585853E-04
       N       E                     dE             d eps       ncg     rms          rms(c)
DAV:   1    -0.677463291971E+03    0.33434E-03   -0.23093E-02   936   0.338E-01    0.395E-02
RMM:   2    -0.677463314674E+03   -0.22703E-04   -0.37845E-04   936   0.416E-02    0.222E-02
RMM:   3    -0.677463310768E+03    0.39054E-05   -0.18196E-05   937   0.958E-03    0.112E-02
RMM:   4    -0.677463310242E+03    0.52620E-06   -0.56151E-06   957   0.446E-03    0.218E-03
RMM:   5    -0.677463310306E+03   -0.64163E-07   -0.21997E-07   605   0.111E-03
 184 F= -.68607886E+03 E0= -.68607886E+03  d E =-.771264E-04
       N       E                     dE             d eps       ncg     rms          rms(c)
DAV:   1    -0.677462889555E+03    0.42069E-03   -0.32830E-02   936   0.401E-01    0.506E-02
RMM:   2    -0.677462916434E+03   -0.26878E-04   -0.52296E-04   936   0.492E-02    0.273E-02
RMM:   3    -0.677462910146E+03    0.62875E-05   -0.28782E-05   937   0.118E-02    0.134E-02
RMM:   4    -0.677462909283E+03    0.86313E-06   -0.77497E-06   956   0.526E-03    0.277E-03
RMM:   5    -0.677462909389E+03   -0.10574E-06   -0.35534E-07   678   0.136E-03    0.129E-03
RMM:   6    -0.677462909470E+03   -0.81171E-07   -0.14249E-07   584   0.783E-04
 185 F= -.68607890E+03 E0= -.68607890E+03  d E =-.478050E-04
       N       E                     dE             d eps       ncg     rms          rms(c)
DAV:   1    -0.677462743581E+03    0.16581E-03   -0.44646E-03   976   0.148E-01    0.187E-02
RMM:   2    -0.677462747080E+03   -0.34986E-05   -0.71340E-05   936   0.183E-02    0.101E-02
RMM:   3    -0.677462746254E+03    0.82624E-06   -0.39606E-06   937   0.439E-03    0.493E-03
RMM:   4    -0.677462746229E+03    0.24800E-07   -0.10468E-06   909   0.194E-03    0.969E-04
RMM:   5    -0.677462746280E+03   -0.51306E-07   -0.48403E-08   576   0.565E-04
 186 F= -.68607891E+03 E0= -.68607891E+03  d E =-.501533E-04
       N       E                     dE             d eps       ncg     rms          rms(c)
DAV:   1    -0.677462395750E+03    0.35048E-03   -0.28536E-02   936   0.371E-01    0.459E-02
RMM:   2    -0.677462416801E+03   -0.21051E-04   -0.44302E-04   936   0.451E-02    0.261E-02
RMM:   3    -0.677462411283E+03    0.55182E-05   -0.26067E-05   938   0.110E-02    0.126E-02
RMM:   4    -0.677462410649E+03    0.63379E-06   -0.67267E-06   952   0.482E-03    0.292E-03
RMM:   5    -0.677462410763E+03   -0.11350E-06   -0.39202E-07   693   0.139E-03    0.128E-03
RMM:   6    -0.677462410823E+03   -0.60660E-07   -0.91403E-08   578   0.665E-04
 187 F= -.68607896E+03 E0= -.68607896E+03  d E =-.572114E-04
       N       E                     dE             d eps       ncg     rms          rms(c)
DAV:   1    -0.677461849130E+03    0.56163E-03   -0.58089E-02   936   0.530E-01    0.654E-02
RMM:   2    -0.677461892086E+03   -0.42956E-04   -0.90245E-04   936   0.645E-02    0.372E-02
RMM:   3    -0.677461880846E+03    0.11240E-04   -0.53132E-05   938   0.157E-02    0.179E-02
RMM:   4    -0.677461879343E+03    0.15034E-05   -0.13726E-05   956   0.688E-03    0.417E-03
RMM:   5    -0.677461879480E+03   -0.13709E-06   -0.85947E-07   873   0.197E-03    0.184E-03
RMM:   6    -0.677461879557E+03   -0.76743E-07   -0.14019E-07   588   0.771E-04
 188 F= -.68607899E+03 E0= -.68607899E+03  d E =-.864902E-04
       N       E                     dE             d eps       ncg     rms          rms(c)
DAV:   1    -0.677461626296E+03    0.25318E-03   -0.21227E-02   936   0.320E-01    0.392E-02
RMM:   2    -0.677461641453E+03   -0.15157E-04   -0.32563E-04   936   0.384E-02    0.227E-02
RMM:   3    -0.677461637252E+03    0.42005E-05   -0.18867E-05   938   0.931E-03    0.112E-02
RMM:   4    -0.677461636723E+03    0.52923E-06   -0.53876E-06   953   0.428E-03    0.263E-03
RMM:   5    -0.677461636814E+03   -0.90928E-07   -0.31089E-07   653   0.124E-03
 189 F= -.68607905E+03 E0= -.68607905E+03  d E =-.569451E-04
       N       E                     dE             d eps       ncg     rms          rms(c)
DAV:   1    -0.677461044217E+03    0.59251E-03   -0.83826E-02   936   0.635E-01    0.779E-02
RMM:   2    -0.677461105355E+03   -0.61138E-04   -0.12855E-03   936   0.763E-02    0.452E-02
RMM:   3    -0.677461088802E+03    0.16554E-04   -0.74465E-05   938   0.185E-02    0.223E-02
RMM:   4    -0.677461086261E+03    0.25405E-05   -0.21189E-05   956   0.849E-03    0.523E-03
RMM:   5    -0.677461086360E+03   -0.98480E-07   -0.13665E-06   925   0.245E-03    0.235E-03
RMM:   6    -0.677461086438E+03   -0.78129E-07   -0.22080E-07   604   0.923E-04
 190 F= -.68607910E+03 E0= -.68607910E+03  d E =-.102457E-03
       N       E                     dE             d eps       ncg     rms          rms(c)
DAV:   1    -0.677460802141E+03    0.28422E-03   -0.29241E-02   936   0.375E-01    0.489E-02
RMM:   2    -0.677460823660E+03   -0.21519E-04   -0.44852E-04   936   0.452E-02    0.265E-02
RMM:   3    -0.677460817995E+03    0.56642E-05   -0.25396E-05   936   0.109E-02    0.133E-02
RMM:   4    -0.677460817134E+03    0.86180E-06   -0.72575E-06   953   0.497E-03    0.290E-03
RMM:   5    -0.677460817217E+03   -0.82884E-07   -0.37142E-07   681   0.137E-03
 191 F= -.68607915E+03 E0= -.68607915E+03  d E =-.571173E-04
       N       E                     dE             d eps       ncg     rms          rms(c)
DAV:   1    -0.677460400513E+03    0.41662E-03   -0.45681E-02   936   0.468E-01    0.612E-02
RMM:   2    -0.677460434616E+03   -0.34103E-04   -0.70151E-04   936   0.565E-02    0.332E-02
RMM:   3    -0.677460425764E+03    0.88527E-05   -0.39751E-05   936   0.136E-02    0.166E-02
RMM:   4    -0.677460424347E+03    0.14169E-05   -0.11343E-05   957   0.622E-03    0.364E-03
RMM:   5    -0.677460424436E+03   -0.89072E-07   -0.62034E-07   815   0.170E-03
 192 F= -.68607917E+03 E0= -.68607917E+03  d E =-.722088E-04
       N       E                     dE             d eps       ncg     rms          rms(c)
DAV:   1    -0.677460186203E+03    0.23814E-03   -0.16649E-02   956   0.282E-01    0.344E-02
RMM:   2    -0.677460198597E+03   -0.12394E-04   -0.24868E-04   936   0.338E-02    0.198E-02
RMM:   3    -0.677460195615E+03    0.29819E-05   -0.14011E-05   937   0.811E-03    0.949E-03
RMM:   4    -0.677460195316E+03    0.29937E-06   -0.37213E-06   948   0.358E-03    0.197E-03
RMM:   5    -0.677460195393E+03   -0.77624E-07   -0.17127E-07   598   0.101E-03
 193 F= -.68607921E+03 E0= -.68607921E+03  d E =-.372056E-04
       N       E                     dE             d eps       ncg     rms          rms(c)
DAV:   1    -0.677459362268E+03    0.83305E-03   -0.14976E-01   936   0.846E-01    0.103E-01
RMM:   2    -0.677459474445E+03   -0.11218E-03   -0.22336E-03   936   0.102E-01    0.592E-02
RMM:   3    -0.677459447107E+03    0.27338E-04   -0.12505E-04   936   0.242E-02    0.284E-02
RMM:   4    -0.677459442779E+03    0.43276E-05   -0.33280E-05   957   0.107E-02    0.590E-03
RMM:   5    -0.677459442866E+03   -0.86522E-07   -0.18112E-06   940   0.292E-03    0.282E-03
RMM:   6    -0.677459442984E+03   -0.11792E-06   -0.47375E-07   776   0.119E-03    0.867E-04
RMM:   7    -0.677459442965E+03    0.19209E-07   -0.44247E-08   583   0.530E-04
 194 F= -.68607925E+03 E0= -.68607925E+03  d E =-.834906E-04
       N       E                     dE             d eps       ncg     rms          rms(c)
DAV:   1    -0.677459233536E+03    0.20945E-03   -0.14667E-02   952   0.266E-01    0.363E-02
RMM:   2    -0.677459246098E+03   -0.12562E-04   -0.23518E-04   936   0.331E-02    0.196E-02
RMM:   3    -0.677459243140E+03    0.29580E-05   -0.13266E-05   939   0.784E-03    0.934E-03
RMM:   4    -0.677459242819E+03    0.32107E-06   -0.35452E-06   943   0.343E-03    0.184E-03
RMM:   5    -0.677459242883E+03   -0.64018E-07   -0.17598E-07   596   0.101E-03
 195 F= -.68607931E+03 E0= -.68607931E+03  d E =-.598457E-04
       N       E                     dE             d eps       ncg     rms          rms(c)
DAV:   1    -0.677458921054E+03    0.32177E-03   -0.24125E-02   936   0.341E-01    0.466E-02
RMM:   2    -0.677458941918E+03   -0.20864E-04   -0.38772E-04   936   0.425E-02    0.252E-02
RMM:   3    -0.677458937053E+03    0.48645E-05   -0.21938E-05   939   0.101E-02    0.120E-02
RMM:   4    -0.677458936459E+03    0.59410E-06   -0.58068E-06   948   0.439E-03    0.238E-03
RMM:   5    -0.677458936534E+03   -0.74189E-07   -0.30860E-07   652   0.129E-03
 196 F= -.68607934E+03 E0= -.68607934E+03  d E =-.869773E-04
       N       E                     dE             d eps       ncg     rms          rms(c)
DAV:   1    -0.677458750835E+03    0.18562E-03   -0.11998E-02   940   0.242E-01    0.319E-02
RMM:   2    -0.677458760236E+03   -0.94006E-05   -0.18952E-04   936   0.297E-02    0.172E-02
RMM:   3    -0.677458757629E+03    0.26068E-05   -0.11131E-05   938   0.711E-03    0.839E-03
RMM:   4    -0.677458757350E+03    0.27836E-06   -0.28997E-06   942   0.317E-03    0.184E-03
RMM:   5    -0.677458757414E+03   -0.63621E-07   -0.16078E-07   592   0.978E-04
 197 F= -.68607939E+03 E0= -.68607939E+03  d E =-.466803E-04
       N       E                     dE             d eps       ncg     rms          rms(c)
DAV:   1    -0.677458553672E+03    0.20368E-03   -0.10640E-02   936   0.227E-01    0.300E-02
RMM:   2    -0.677458561943E+03   -0.82715E-05   -0.16785E-04   936   0.279E-02    0.162E-02
RMM:   3    -0.677458559626E+03    0.23173E-05   -0.98860E-06   939   0.669E-03    0.790E-03
RMM:   4    -0.677458559388E+03    0.23808E-06   -0.25582E-06   938   0.297E-03    0.172E-03
RMM:   5    -0.677458559449E+03   -0.61507E-07   -0.14120E-07   588   0.928E-04
 198 F= -.68607940E+03 E0= -.68607940E+03  d E =-.613661E-04
       N       E                     dE             d eps       ncg     rms          rms(c)
DAV:   1    -0.677458366272E+03    0.19312E-03   -0.85726E-03   936   0.206E-01    0.290E-02
RMM:   2    -0.677458372723E+03   -0.64506E-05   -0.13334E-04   936   0.250E-02    0.153E-02
RMM:   3    -0.677458370845E+03    0.18779E-05   -0.78410E-06   941   0.616E-03    0.707E-03
RMM:   4    -0.677458370750E+03    0.94897E-07   -0.18857E-06   932   0.264E-03    0.141E-03
RMM:   5    -0.677458370817E+03   -0.66553E-07   -0.91450E-08   584   0.784E-04
 199 F= -.68607944E+03 E0= -.68607944E+03  d E =-.366133E-04
       N       E                     dE             d eps       ncg     rms          rms(c)
DAV:   1    -0.677458236691E+03    0.13406E-03   -0.32172E-03   976   0.126E-01    0.177E-02
RMM:   2    -0.677458239121E+03   -0.24302E-05   -0.50223E-05   936   0.153E-02    0.939E-03
RMM:   3    -0.677458238444E+03    0.67663E-06   -0.29636E-06   941   0.379E-03    0.434E-03
RMM:   4    -0.677458238465E+03   -0.20729E-07   -0.70455E-07   883   0.162E-03
 200 F= -.68607944E+03 E0= -.68607944E+03  d E =-.422237E-04
       N       E                     dE             d eps       ncg     rms          rms(c)
DAV:   1    -0.677458081150E+03    0.15729E-03   -0.98497E-03   936   0.217E-01    0.294E-02
RMM:   2    -0.677458088289E+03   -0.71386E-05   -0.14464E-04   936   0.259E-02    0.163E-02
RMM:   3    -0.677458086399E+03    0.18900E-05   -0.90494E-06   941   0.637E-03    0.720E-03
RMM:   4    -0.677458086325E+03    0.74124E-07   -0.18614E-06   940   0.258E-03    0.168E-03
RMM:   5    -0.677458086400E+03   -0.75121E-07   -0.12016E-07   588   0.827E-04
 201 F= -.68607948E+03 E0= -.68607948E+03  d E =-.390894E-04
       N       E                     dE             d eps       ncg     rms          rms(c)
DAV:   1    -0.677457949004E+03    0.13732E-03   -0.55364E-03   940   0.163E-01    0.219E-02
RMM:   2    -0.677457952951E+03   -0.39478E-05   -0.81462E-05   936   0.195E-02    0.122E-02
RMM:   3    -0.677457951898E+03    0.10532E-05   -0.51358E-06   941   0.477E-03    0.537E-03
RMM:   4    -0.677457951895E+03    0.30268E-08   -0.10330E-06   910   0.192E-03    0.124E-03
RMM:   5    -0.677457951954E+03   -0.58692E-07   -0.69363E-08   579   0.646E-04
 202 F= -.68607949E+03 E0= -.68607949E+03  d E =-.479331E-04
       N       E                     dE             d eps       ncg     rms          rms(c)
DAV:   1    -0.677457893143E+03    0.58752E-04   -0.13770E-02   936   0.256E-01    0.317E-02
RMM:   2    -0.677457904510E+03   -0.11367E-04   -0.19577E-04   936   0.301E-02    0.180E-02
RMM:   3    -0.677457902056E+03    0.24538E-05   -0.11163E-05   945   0.711E-03    0.844E-03
RMM:   4    -0.677457901794E+03    0.26185E-06   -0.27946E-06   936   0.308E-03    0.165E-03
RMM:   5    -0.677457901836E+03   -0.41204E-07   -0.14161E-07   594   0.940E-04
 203 F= -.68607953E+03 E0= -.68607953E+03  d E =-.392525E-04
       N       E                     dE             d eps       ncg     rms          rms(c)
DAV:   1    -0.677457850223E+03    0.51571E-04   -0.49668E-03   940   0.154E-01    0.190E-02
RMM:   2    -0.677457854309E+03   -0.40862E-05   -0.70937E-05   936   0.181E-02    0.108E-02
RMM:   3    -0.677457853429E+03    0.88030E-06   -0.40629E-06   945   0.427E-03    0.508E-03
RMM:   4    -0.677457853367E+03    0.62384E-07   -0.10004E-06   900   0.185E-03    0.970E-04
RMM:   5    -0.677457853397E+03   -0.30508E-07   -0.52252E-08   580   0.586E-04
 204 F= -.68607953E+03 E0= -.68607953E+03  d E =-.444982E-04
       N       E                     dE             d eps       ncg     rms          rms(c)
DAV:   1    -0.677457894441E+03   -0.41074E-04   -0.97684E-03   936   0.216E-01    0.285E-02
RMM:   2    -0.677457903122E+03   -0.86813E-05   -0.14051E-04   936   0.253E-02    0.155E-02
RMM:   3    -0.677457901388E+03    0.17340E-05   -0.75739E-06   945   0.599E-03    0.725E-03
RMM:   4    -0.677457901129E+03    0.25852E-06   -0.20164E-06   923   0.265E-03    0.121E-03
RMM:   5    -0.677457901144E+03   -0.14803E-07   -0.86410E-08   584   0.768E-04
 205 F= -.68607957E+03 E0= -.68607957E+03  d E =-.358735E-04
       N       E                     dE             d eps       ncg     rms          rms(c)
DAV:   1    -0.677457925650E+03   -0.24521E-04   -0.22827E-02   936   0.330E-01    0.436E-02
RMM:   2    -0.677457946099E+03   -0.20449E-04   -0.32868E-04   936   0.387E-02    0.237E-02
RMM:   3    -0.677457942069E+03    0.40295E-05   -0.17702E-05   944   0.916E-03    0.111E-02
RMM:   4    -0.677457941441E+03    0.62816E-06   -0.47438E-06   947   0.407E-03    0.188E-03
RMM:   5    -0.677457941454E+03   -0.12235E-07   -0.20874E-07   610   0.112E-03
 206 F= -.68607959E+03 E0= -.68607959E+03  d E =-.580493E-04
       N       E                     dE             d eps       ncg     rms          rms(c)
DAV:   1    -0.677458050966E+03   -0.10952E-03   -0.13516E-02   936   0.251E-01    0.341E-02
RMM:   2    -0.677458062403E+03   -0.11436E-04   -0.19190E-04   936   0.291E-02    0.189E-02
RMM:   3    -0.677458059875E+03    0.25279E-05   -0.10756E-05   942   0.675E-03    0.862E-03
RMM:   4    -0.677458059491E+03    0.38377E-06   -0.27016E-06   932   0.298E-03    0.150E-03
RMM:   5    -0.677458059468E+03    0.22905E-07   -0.16463E-07   598   0.956E-04
 207 F= -.68607964E+03 E0= -.68607964E+03  d E =-.461641E-04
       N       E                     dE             d eps       ncg     rms          rms(c)
DAV:   1    -0.677458144873E+03   -0.85382E-04   -0.17916E-02   936   0.289E-01    0.393E-02
RMM:   2    -0.677458159990E+03   -0.15117E-04   -0.25410E-04   936   0.335E-02    0.218E-02
RMM:   3    -0.677458156623E+03    0.33671E-05   -0.14291E-05   941   0.778E-03    0.992E-03
RMM:   4    -0.677458156113E+03    0.50980E-06   -0.35856E-06   941   0.344E-03    0.174E-03
RMM:   5    -0.677458156081E+03    0.31836E-07   -0.22673E-07   618   0.108E-03
 208 F= -.68607965E+03 E0= -.68607965E+03  d E =-.601693E-04
       N       E                     dE             d eps       ncg     rms          rms(c)
DAV:   1    -0.677458228302E+03   -0.72188E-04   -0.77796E-03   940   0.189E-01    0.238E-02
RMM:   2    -0.677458234693E+03   -0.63914E-05   -0.10508E-04   936   0.216E-02    0.140E-02
RMM:   3    -0.677458233301E+03    0.13923E-05   -0.57305E-06   937   0.488E-03    0.626E-03
RMM:   4    -0.677458233107E+03    0.19396E-06   -0.14579E-06   905   0.218E-03    0.103E-03
RMM:   5    -0.677458233095E+03    0.12067E-07   -0.77674E-08   577   0.681E-04
 209 F= -.68607968E+03 E0= -.68607968E+03  d E =-.319975E-04
       N       E                     dE             d eps       ncg     rms          rms(c)
DAV:   1    -0.677458307162E+03   -0.74055E-04   -0.12424E-02   936   0.239E-01    0.301E-02
RMM:   2    -0.677458317331E+03   -0.10169E-04   -0.16798E-04   936   0.273E-02    0.177E-02
RMM:   3    -0.677458315075E+03    0.22562E-05   -0.91387E-06   937   0.618E-03    0.792E-03
RMM:   4    -0.677458314756E+03    0.31923E-06   -0.23573E-06   924   0.277E-03    0.132E-03
RMM:   5    -0.677458314734E+03    0.21562E-07   -0.12627E-07   587   0.857E-04
 210 F= -.68607971E+03 E0= -.68607971E+03  d E =-.567613E-04
       N       E                     dE             d eps       ncg     rms          rms(c)
DAV:   1    -0.677458398938E+03   -0.84182E-04   -0.49684E-02   936   0.479E-01    0.602E-02
RMM:   2    -0.677458439588E+03   -0.40650E-04   -0.67101E-04   936   0.546E-02    0.354E-02
RMM:   3    -0.677458430524E+03    0.90641E-05   -0.36458E-05   939   0.123E-02    0.158E-02
RMM:   4    -0.677458429231E+03    0.12932E-05   -0.94470E-06   952   0.552E-03    0.266E-03
RMM:   5    -0.677458429145E+03    0.86569E-07   -0.57116E-07   775   0.162E-03
 211 F= -.68607971E+03 E0= -.68607971E+03  d E =-.573487E-04
       N       E                     dE             d eps       ncg     rms          rms(c)
DAV:   1    -0.677458437686E+03   -0.84554E-05   -0.30798E-03   976   0.130E-01    0.343E-02
RMM:   2    -0.677458445204E+03   -0.75175E-05   -0.10792E-04   936   0.221E-02    0.142E-02
RMM:   3    -0.677458443427E+03    0.17770E-05   -0.56591E-06   945   0.537E-03    0.610E-03
RMM:   4    -0.677458443188E+03    0.23854E-06   -0.12919E-06   926   0.222E-03    0.144E-03
RMM:   5    -0.677458443206E+03   -0.17135E-07   -0.96896E-08   584   0.795E-04
 212 F= -.68607978E+03 E0= -.68607978E+03  d E =-.703158E-04
       N       E                     dE             d eps       ncg     rms          rms(c)
DAV:   1    -0.677458429573E+03    0.13616E-04   -0.26945E-04  1080   0.383E-02    0.101E-02
RMM:   2    -0.677458430202E+03   -0.62915E-06   -0.95651E-06   936   0.655E-03    0.421E-03
RMM:   3    -0.677458430018E+03    0.18386E-06   -0.48193E-07   763   0.156E-03    0.183E-03
RMM:   4    -0.677458430001E+03    0.17473E-07   -0.12699E-07   579   0.826E-04
 213 F= -.68607978E+03 E0= -.68607978E+03  d E =-.736998E-04
       N       E                     dE             d eps       ncg     rms          rms(c)
DAV:   1    -0.677458350699E+03    0.79319E-04   -0.72383E-04   976   0.641E-02    0.117E-02
RMM:   2    -0.677458352335E+03   -0.16359E-05   -0.21641E-05   936   0.998E-03    0.498E-03
RMM:   3    -0.677458352131E+03    0.20456E-06   -0.10567E-06   934   0.236E-03    0.263E-03
RMM:   4    -0.677458352168E+03   -0.37420E-07   -0.37850E-07   730   0.116E-03
 214 F= -.68607980E+03 E0= -.68607980E+03  d E =-.169198E-04
       N       E                     dE             d eps       ncg     rms          rms(c)
DAV:   1    -0.677458293791E+03    0.58340E-04   -0.29627E-04   992   0.411E-02    0.750E-03
RMM:   2    -0.677458294540E+03   -0.74941E-06   -0.92516E-06   936   0.652E-03    0.328E-03
RMM:   3    -0.677458294465E+03    0.74811E-07   -0.39331E-07   668   0.153E-03
 215 F= -.68607980E+03 E0= -.68607980E+03  d E =-.198689E-04
       N       E                     dE             d eps       ncg     rms          rms(c)
DAV:   1    -0.677458248109E+03    0.46431E-04   -0.55014E-04   956   0.545E-02    0.805E-03
RMM:   2    -0.677458248890E+03   -0.78107E-06   -0.13136E-05   936   0.772E-03    0.387E-03
RMM:   3    -0.677458248735E+03    0.15473E-06   -0.67458E-07   823   0.183E-03    0.218E-03
RMM:   4    -0.677458248743E+03   -0.75452E-08   -0.23547E-07   597   0.101E-03
 216 F= -.68607981E+03 E0= -.68607981E+03  d E =-.106284E-04
       N       E                     dE             d eps       ncg     rms          rms(c)
DAV:   1    -0.677458206550E+03    0.42185E-04   -0.33285E-04  1008   0.422E-02    0.622E-03
RMM:   2    -0.677458207074E+03   -0.52342E-06   -0.81545E-06   936   0.609E-03    0.304E-03
RMM:   3    -0.677458206974E+03    0.99761E-07   -0.36975E-07   677   0.142E-03
 217 F= -.68607982E+03 E0= -.68607982E+03  d E =-.126832E-04
       N       E                     dE             d eps       ncg     rms          rms(c)
DAV:   1    -0.677458168827E+03    0.38247E-04   -0.49351E-04   940   0.517E-02    0.988E-03
RMM:   2    -0.677458169824E+03   -0.99678E-06   -0.12301E-05   936   0.747E-03    0.410E-03
RMM:   3    -0.677458169724E+03    0.10018E-06   -0.53480E-07   782   0.179E-03    0.209E-03
RMM:   4    -0.677458169746E+03   -0.21973E-07   -0.18611E-07   580   0.103E-03
 218 F= -.68607983E+03 E0= -.68607983E+03  d E =-.918713E-05
       N       E                     dE             d eps       ncg     rms          rms(c)
DAV:   1    -0.677458120980E+03    0.48744E-04   -0.59514E-04   976   0.566E-02    0.108E-02
RMM:   2    -0.677458122208E+03   -0.12283E-05   -0.15113E-05   936   0.825E-03    0.450E-03
RMM:   3    -0.677458122083E+03    0.12596E-06   -0.65153E-07   836   0.194E-03    0.232E-03
RMM:   4    -0.677458122097E+03   -0.14665E-07   -0.20143E-07   585   0.983E-04
 219 F= -.68607983E+03 E0= -.68607983E+03  d E =-.123695E-04
       N       E                     dE             d eps       ncg     rms          rms(c)
DAV:   1    -0.677458109867E+03    0.12215E-04   -0.44077E-04   940   0.480E-02    0.584E-03
RMM:   2    -0.677458110612E+03   -0.74528E-06   -0.91035E-06   936   0.655E-03    0.304E-03
RMM:   3    -0.677458110551E+03    0.61133E-07   -0.34338E-07   665   0.146E-03
 220 F= -.68607984E+03 E0= -.68607984E+03  d E =-.801598E-05
       N       E                     dE             d eps       ncg     rms          rms(c)
DAV:   1    -0.677458071107E+03    0.39505E-04   -0.21205E-03   936   0.105E-01    0.127E-02
RMM:   2    -0.677458074487E+03   -0.33804E-05   -0.42495E-05   936   0.141E-02    0.665E-03
RMM:   3    -0.677458074208E+03    0.27983E-06   -0.18178E-06   944   0.315E-03    0.387E-03
RMM:   4    -0.677458074194E+03    0.13213E-07   -0.73952E-07   878   0.159E-03
 221 F= -.68607984E+03 E0= -.68607984E+03  d E =-.147605E-04
       N       E                     dE             d eps       ncg     rms          rms(c)
DAV:   1    -0.677458104511E+03   -0.30304E-04   -0.92807E-04   940   0.701E-02    0.102E-02
RMM:   2    -0.677458105978E+03   -0.14665E-05   -0.18838E-05   936   0.933E-03    0.445E-03
RMM:   3    -0.677458105829E+03    0.14903E-06   -0.77994E-07   872   0.213E-03    0.253E-03
RMM:   4    -0.677458105774E+03    0.54493E-07   -0.28401E-07   635   0.110E-03
 222 F= -.68607985E+03 E0= -.68607985E+03  d E =-.817435E-05
       N       E                     dE             d eps       ncg     rms          rms(c)
DAV:   1    -0.677458131746E+03   -0.25918E-04   -0.10032E-03   936   0.728E-02    0.104E-02
RMM:   2    -0.677458133335E+03   -0.15890E-05   -0.20399E-05   936   0.968E-03    0.457E-03
RMM:   3    -0.677458133175E+03    0.16014E-06   -0.84101E-07   894   0.218E-03    0.263E-03
RMM:   4    -0.677458133117E+03    0.58673E-07   -0.30586E-07   661   0.110E-03
 223 F= -.68607985E+03 E0= -.68607985E+03  d E =-.111765E-04
       N       E                     dE             d eps       ncg     rms          rms(c)
DAV:   1    -0.677458204891E+03   -0.71716E-04   -0.96872E-04   936   0.713E-02    0.963E-03
RMM:   2    -0.677458206279E+03   -0.13883E-05   -0.19794E-05   936   0.949E-03    0.490E-03
RMM:   3    -0.677458206082E+03    0.19664E-06   -0.91391E-07   903   0.227E-03    0.270E-03
RMM:   4    -0.677458205987E+03    0.95264E-07   -0.25822E-07   612   0.105E-03
 224 F= -.68607986E+03 E0= -.68607986E+03  d E =-.951568E-05
       N       E                     dE             d eps       ncg     rms          rms(c)
DAV:   1    -0.677458254896E+03   -0.48814E-04   -0.50694E-04   944   0.516E-02    0.693E-03
RMM:   2    -0.677458255653E+03   -0.75655E-06   -0.10514E-05   936   0.690E-03    0.356E-03
RMM:   3    -0.677458255541E+03    0.11180E-06   -0.44580E-07   727   0.164E-03    0.199E-03
RMM:   4    -0.677458255480E+03    0.61220E-07   -0.16859E-07   576   0.926E-04
 225 F= -.68607987E+03 E0= -.68607987E+03  d E =-.131215E-04
       N       E                     dE             d eps       ncg     rms          rms(c)
DAV:   1    -0.677458302028E+03   -0.46487E-04   -0.29974E-04   976   0.397E-02    0.454E-03
RMM:   2    -0.677458302412E+03   -0.38386E-06   -0.57136E-06   936   0.519E-03    0.257E-03
RMM:   3    -0.677458302319E+03    0.92808E-07   -0.23653E-07   619   0.122E-03
 226 F= -.68607987E+03 E0= -.68607987E+03  d E =-.670883E-05
       N       E                     dE             d eps       ncg     rms          rms(c)
DAV:   1    -0.677458387337E+03   -0.84925E-04   -0.12158E-03   936   0.802E-02    0.916E-03
RMM:   2    -0.677458388873E+03   -0.15369E-05   -0.22621E-05   936   0.104E-02    0.514E-03
RMM:   3    -0.677458388587E+03    0.28631E-06   -0.11002E-06   934   0.242E-03    0.271E-03
RMM:   4    -0.677458388450E+03    0.13720E-06   -0.31859E-07   661   0.115E-03    0.551E-04
RMM:   5    -0.677458388430E+03    0.19492E-07   -0.36385E-08   572   0.525E-04
 227 F= -.68607988E+03 E0= -.68607988E+03  d E =-.117208E-04
       N       E                     dE             d eps       ncg     rms          rms(c)
DAV:   1    -0.677458404083E+03   -0.15633E-04   -0.63778E-05  1040   0.181E-02    0.199E-03
RMM:   2    -0.677458404176E+03   -0.93012E-07   -0.11107E-06   915   0.223E-03    0.118E-03
RMM:   3    -0.677458404160E+03    0.16309E-07   -0.45566E-08   562   0.545E-04
 228 F= -.68607988E+03 E0= -.68607988E+03  d E =-.268942E-05
       N       E                     dE             d eps       ncg     rms          rms(c)
DAV:   1    -0.677458449544E+03   -0.45368E-04   -0.57059E-04   940   0.541E-02    0.593E-03
RMM:   2    -0.677458450254E+03   -0.71056E-06   -0.96872E-06   936   0.657E-03    0.348E-03
RMM:   3    -0.677458450144E+03    0.11083E-06   -0.43229E-07   703   0.156E-03    0.186E-03
RMM:   4    -0.677458450084E+03    0.59255E-07   -0.17159E-07   579   0.958E-04
 229 F= -.68607989E+03 E0= -.68607989E+03  d E =-.948814E-05
       N       E                     dE             d eps       ncg     rms          rms(c)
DAV:   1    -0.677458533693E+03   -0.83549E-04   -0.22927E-03   936   0.108E-01    0.119E-02
RMM:   2    -0.677458536538E+03   -0.28453E-05   -0.39551E-05   936   0.132E-02    0.697E-03
RMM:   3    -0.677458536125E+03    0.41324E-06   -0.18692E-06   936   0.314E-03    0.374E-03
RMM:   4    -0.677458535973E+03    0.15130E-06   -0.61422E-07   843   0.150E-03    0.762E-04
RMM:   5    -0.677458535941E+03    0.32138E-07   -0.46793E-08   576   0.512E-04
 230 F= -.68607990E+03 E0= -.68607990E+03  d E =-.171337E-04
       N       E                     dE             d eps       ncg     rms          rms(c)
DAV:   1    -0.677458564699E+03   -0.28726E-04   -0.39922E-04   956   0.453E-02    0.551E-03
RMM:   2    -0.677458565254E+03   -0.55500E-06   -0.77816E-06   936   0.601E-03    0.309E-03
RMM:   3    -0.677458565165E+03    0.89560E-07   -0.32614E-07   652   0.137E-03
 231 F= -.68607991E+03 E0= -.68607991E+03  d E =-.953187E-05
       N       E                     dE             d eps       ncg     rms          rms(c)
DAV:   1    -0.677458617870E+03   -0.52616E-04   -0.22327E-03   936   0.107E-01    0.132E-02
RMM:   2    -0.677458620944E+03   -0.30743E-05   -0.43157E-05   936   0.141E-02    0.738E-03
RMM:   3    -0.677458620505E+03    0.43973E-06   -0.20390E-06   943   0.323E-03    0.392E-03
RMM:   4    -0.677458620375E+03    0.12920E-06   -0.57585E-07   854   0.147E-03    0.816E-04
RMM:   5    -0.677458620360E+03    0.15818E-07   -0.37043E-08   576   0.487E-04
 232 F= -.68607991E+03 E0= -.68607991E+03  d E =-.179964E-04
       N       E                     dE             d eps       ncg     rms          rms(c)
DAV:   1    -0.677458639271E+03   -0.18896E-04   -0.77368E-04   936   0.623E-02    0.726E-03
RMM:   2    -0.677458640389E+03   -0.11176E-05   -0.13859E-05   936   0.791E-03    0.407E-03
RMM:   3    -0.677458640284E+03    0.10458E-06   -0.56182E-07   758   0.173E-03    0.220E-03
RMM:   4    -0.677458640276E+03    0.86584E-08   -0.22769E-07   595   0.990E-04
 233 F= -.68607992E+03 E0= -.68607992E+03  d E =-.870598E-05
       N       E                     dE             d eps       ncg     rms          rms(c)
DAV:   1    -0.677458673305E+03   -0.33021E-04   -0.58002E-03   936   0.171E-01    0.199E-02
RMM:   2    -0.677458681401E+03   -0.80959E-05   -0.10439E-04   936   0.217E-02    0.111E-02
RMM:   3    -0.677458680532E+03    0.86923E-06   -0.43936E-06   938   0.474E-03    0.605E-03
RMM:   4    -0.677458680367E+03    0.16408E-06   -0.16620E-06   929   0.239E-03    0.114E-03
RMM:   5    -0.677458680336E+03    0.30977E-07   -0.88367E-08   584   0.694E-04
 234 F= -.68607993E+03 E0= -.68607993E+03  d E =-.180667E-04
       N       E                     dE             d eps       ncg     rms          rms(c)
DAV:   1    -0.677458706832E+03   -0.26465E-04   -0.89198E-04   972   0.661E-02    0.716E-03
RMM:   2    -0.677458707978E+03   -0.11455E-05   -0.15056E-05   936   0.823E-03    0.434E-03
RMM:   3    -0.677458707849E+03    0.12902E-06   -0.64389E-07   795   0.180E-03    0.230E-03
RMM:   4    -0.677458707834E+03    0.15203E-07   -0.23059E-07   598   0.983E-04
 235 F= -.68607994E+03 E0= -.68607994E+03  d E =-.115844E-04
       N       E                     dE             d eps       ncg     rms          rms(c)
DAV:   1    -0.677458763834E+03   -0.55986E-04   -0.80193E-03   936   0.198E-01    0.215E-02
RMM:   2    -0.677458773865E+03   -0.10030E-04   -0.13544E-04   936   0.247E-02    0.130E-02
RMM:   3    -0.677458772638E+03    0.12263E-05   -0.59939E-06   941   0.545E-03    0.691E-03
RMM:   4    -0.677458772404E+03    0.23456E-06   -0.20865E-06   934   0.266E-03    0.120E-03
RMM:   5    -0.677458772383E+03    0.20529E-07   -0.95590E-08   583   0.742E-04
 236 F= -.68607996E+03 E0= -.68607996E+03  d E =-.283928E-04
       N       E                     dE             d eps       ncg     rms          rms(c)
DAV:   1    -0.677458807201E+03   -0.34797E-04   -0.19070E-03   936   0.973E-02    0.112E-02
RMM:   2    -0.677458809789E+03   -0.25881E-05   -0.34273E-05   936   0.124E-02    0.658E-03
RMM:   3    -0.677458809479E+03    0.31026E-06   -0.14765E-06   936   0.268E-03    0.351E-03
RMM:   4    -0.677458809421E+03    0.57709E-07   -0.48597E-07   799   0.132E-03
 237 F= -.68607998E+03 E0= -.68607998E+03  d E =-.179099E-04
       N       E                     dE             d eps       ncg     rms          rms(c)
DAV:   1    -0.677458852064E+03   -0.42585E-04   -0.73171E-03   936   0.191E-01    0.221E-02
RMM:   2    -0.677458861981E+03   -0.99165E-05   -0.13235E-04   936   0.243E-02    0.129E-02
RMM:   3    -0.677458860750E+03    0.12310E-05   -0.56776E-06   940   0.528E-03    0.693E-03
RMM:   4    -0.677458860500E+03    0.24998E-06   -0.19670E-06   933   0.261E-03    0.131E-03
RMM:   5    -0.677458860469E+03    0.30785E-07   -0.12079E-07   588   0.789E-04
 238 F= -.68607999E+03 E0= -.68607999E+03  d E =-.314162E-04
       N       E                     dE             d eps       ncg     rms          rms(c)
DAV:   1    -0.677458895005E+03   -0.34505E-04   -0.17571E-03   936   0.927E-02    0.105E-02
RMM:   2    -0.677458897094E+03   -0.20885E-05   -0.29358E-05   936   0.113E-02    0.607E-03
RMM:   3    -0.677458896786E+03    0.30806E-06   -0.12867E-06   917   0.246E-03    0.317E-03
RMM:   4    -0.677458896703E+03    0.82786E-07   -0.39511E-07   738   0.120E-03
 239 F= -.68608001E+03 E0= -.68608001E+03  d E =-.126114E-04
       N       E                     dE             d eps       ncg     rms          rms(c)
DAV:   1    -0.677458966999E+03   -0.70213E-04   -0.15805E-02   936   0.278E-01    0.316E-02
RMM:   2    -0.677458985898E+03   -0.18900E-04   -0.26445E-04   936   0.341E-02    0.182E-02
RMM:   3    -0.677458983259E+03    0.26395E-05   -0.11578E-05   941   0.743E-03    0.953E-03
RMM:   4    -0.677458982655E+03    0.60352E-06   -0.37596E-06   952   0.359E-03    0.166E-03
RMM:   5    -0.677458982591E+03    0.63967E-07   -0.18829E-07   603   0.977E-04
 240 F= -.68608002E+03 E0= -.68608002E+03  d E =-.276600E-04
       N       E                     dE             d eps       ncg     rms          rms(c)
DAV:   1    -0.677459010277E+03   -0.27622E-04   -0.28385E-03   940   0.118E-01    0.128E-02
RMM:   2    -0.677459013667E+03   -0.33900E-05   -0.46305E-05   936   0.143E-02    0.770E-03
RMM:   3    -0.677459013212E+03    0.45496E-06   -0.20869E-06   938   0.312E-03    0.386E-03
RMM:   4    -0.677459013111E+03    0.10166E-06   -0.57653E-07   820   0.144E-03    0.636E-04
RMM:   5    -0.677459013103E+03    0.80254E-08   -0.31510E-08   576   0.449E-04
 241 F= -.68608004E+03 E0= -.68608004E+03  d E =-.163173E-04
       N       E                     dE             d eps       ncg     rms          rms(c)
DAV:   1    -0.677459049674E+03   -0.36563E-04   -0.21026E-02   936   0.320E-01    0.350E-02
RMM:   2    -0.677459074250E+03   -0.24575E-04   -0.34182E-04   936   0.389E-02    0.209E-02
RMM:   3    -0.677459070889E+03    0.33609E-05   -0.15363E-05   938   0.849E-03    0.105E-02
RMM:   4    -0.677459070213E+03    0.67515E-06   -0.44478E-06   955   0.393E-03    0.181E-03
RMM:   5    -0.677459070164E+03    0.49848E-07   -0.20225E-07   614   0.103E-03
 242 F= -.68608006E+03 E0= -.68608006E+03  d E =-.348086E-04
       N       E                     dE             d eps       ncg     rms          rms(c)
DAV:   1    -0.677459084895E+03   -0.14681E-04   -0.64307E-03   936   0.176E-01    0.199E-02
RMM:   2    -0.677459091884E+03   -0.69890E-05   -0.10092E-04   936   0.211E-02    0.119E-02
RMM:   3    -0.677459090803E+03    0.10804E-05   -0.48017E-06   937   0.472E-03    0.592E-03
RMM:   4    -0.677459090630E+03    0.17347E-06   -0.13511E-06   907   0.217E-03    0.107E-03
RMM:   5    -0.677459090628E+03    0.14370E-08   -0.66304E-08   576   0.645E-04
 243 F= -.68608008E+03 E0= -.68608008E+03  d E =-.233743E-04
       N       E                     dE             d eps       ncg     rms          rms(c)
DAV:   1    -0.677459086926E+03    0.37036E-05   -0.15115E-02   936   0.269E-01    0.306E-02
RMM:   2    -0.677459103178E+03   -0.16252E-04   -0.23685E-04   936   0.323E-02    0.182E-02
RMM:   3    -0.677459100596E+03    0.25817E-05   -0.11292E-05   937   0.724E-03    0.907E-03
RMM:   4    -0.677459100168E+03    0.42871E-06   -0.32255E-06   951   0.333E-03    0.170E-03
RMM:   5    -0.677459100154E+03    0.13246E-07   -0.15642E-07   597   0.919E-04
 244 F= -.68608009E+03 E0= -.68608009E+03  d E =-.373097E-04
       N       E                     dE             d eps       ncg     rms          rms(c)
DAV:   1    -0.677459109662E+03   -0.94939E-05   -0.94647E-03   936   0.214E-01    0.261E-02
RMM:   2    -0.677459120893E+03   -0.11232E-04   -0.15265E-04   936   0.258E-02    0.146E-02
RMM:   3    -0.677459119421E+03    0.14721E-05   -0.69141E-06   941   0.581E-03    0.732E-03
RMM:   4    -0.677459119211E+03    0.21071E-06   -0.20924E-06   932   0.268E-03    0.127E-03
RMM:   5    -0.677459119197E+03    0.13551E-07   -0.92679E-08   580   0.722E-04
 245 F= -.68608012E+03 E0= -.68608012E+03  d E =-.281648E-04
       N       E                     dE             d eps       ncg     rms          rms(c)
DAV:   1    -0.677459117516E+03    0.16945E-05   -0.43091E-03   936   0.145E-01    0.176E-02
RMM:   2    -0.677459122695E+03   -0.51785E-05   -0.69714E-05   936   0.175E-02    0.984E-03
RMM:   3    -0.677459122045E+03    0.64994E-06   -0.31613E-06   941   0.392E-03    0.495E-03
RMM:   4    -0.677459121969E+03    0.75539E-07   -0.95143E-07   872   0.181E-03
 246 F= -.68608013E+03 E0= -.68608013E+03  d E =-.371215E-04
       N       E                     dE             d eps       ncg     rms          rms(c)
DAV:   1    -0.677459085720E+03    0.36325E-04   -0.17222E-02   936   0.289E-01    0.352E-02
RMM:   2    -0.677459106239E+03   -0.20518E-04   -0.27923E-04   936   0.349E-02    0.197E-02
RMM:   3    -0.677459103533E+03    0.27060E-05   -0.12630E-05   941   0.791E-03    0.996E-03
RMM:   4    -0.677459103099E+03    0.43333E-06   -0.38731E-06   951   0.365E-03    0.174E-03
RMM:   5    -0.677459103068E+03    0.31072E-07   -0.17835E-07   602   0.966E-04
 247 F= -.68608012E+03 E0= -.68608012E+03  d E =-.305698E-04
       N       E                     dE             d eps       ncg     rms          rms(c)
DAV:   1    -0.677459111733E+03   -0.86336E-05   -0.85924E-03   936   0.204E-01    0.248E-02
RMM:   2    -0.677459121358E+03   -0.96254E-05   -0.13751E-04   936   0.245E-02    0.138E-02
RMM:   3    -0.677459119792E+03    0.15658E-05   -0.62284E-06   941   0.556E-03    0.692E-03
RMM:   4    -0.677459119411E+03    0.38182E-06   -0.18945E-06   918   0.255E-03    0.120E-03
RMM:   5    -0.677459119382E+03    0.28624E-07   -0.85145E-08   577   0.711E-04
 248 F= -.68608013E+03 E0= -.68608013E+03  d E =-.381210E-04
       N       E                     dE             d eps       ncg     rms          rms(c)
DAV:   1    -0.677459216185E+03   -0.96774E-04   -0.13509E-02   936   0.256E-01    0.291E-02
RMM:   2    -0.677459231359E+03   -0.15174E-04   -0.21827E-04   936   0.312E-02    0.172E-02
RMM:   3    -0.677459229124E+03    0.22350E-05   -0.10461E-05   944   0.703E-03    0.862E-03
RMM:   4    -0.677459228629E+03    0.49557E-06   -0.26688E-06   943   0.309E-03    0.155E-03
RMM:   5    -0.677459228608E+03    0.20606E-07   -0.13521E-07   593   0.874E-04
 249 F= -.68608016E+03 E0= -.68608016E+03  d E =-.306449E-04
       N       E                     dE             d eps       ncg     rms          rms(c)
DAV:   1    -0.677459299519E+03   -0.70891E-04   -0.11263E-02   936   0.234E-01    0.266E-02
RMM:   2    -0.677459312374E+03   -0.12855E-04   -0.18293E-04   936   0.285E-02    0.158E-02
RMM:   3    -0.677459310547E+03    0.18271E-05   -0.87931E-06   944   0.641E-03    0.790E-03
RMM:   4    -0.677459310139E+03    0.40755E-06   -0.22101E-06   941   0.282E-03    0.141E-03
RMM:   5    -0.677459310123E+03    0.16240E-07   -0.11094E-07   589   0.799E-04
 250 F= -.68608017E+03 E0= -.68608017E+03  d E =-.404662E-04
       N       E                     dE             d eps       ncg     rms          rms(c)
DAV:   1    -0.677459410200E+03   -0.10006E-03   -0.15205E-02   936   0.269E-01    0.323E-02
RMM:   2    -0.677459426189E+03   -0.15989E-04   -0.23464E-04   936   0.323E-02    0.184E-02
RMM:   3    -0.677459423583E+03    0.26059E-05   -0.11100E-05   937   0.722E-03    0.916E-03
RMM:   4    -0.677459422992E+03    0.59143E-06   -0.31926E-06   952   0.332E-03    0.166E-03
RMM:   5    -0.677459422955E+03    0.37002E-07   -0.15570E-07   596   0.911E-04
 251 F= -.68608021E+03 E0= -.68608021E+03  d E =-.345817E-04
       N       E                     dE             d eps       ncg     rms          rms(c)
DAV:   1    -0.677459495177E+03   -0.72185E-04   -0.11829E-02   936   0.237E-01    0.285E-02
RMM:   2    -0.677459507667E+03   -0.12490E-04   -0.18286E-04   936   0.285E-02    0.162E-02
RMM:   3    -0.677459505630E+03    0.20368E-05   -0.86491E-06   937   0.637E-03    0.809E-03
RMM:   4    -0.677459505159E+03    0.47152E-06   -0.24853E-06   946   0.293E-03    0.147E-03
RMM:   5    -0.677459505128E+03    0.30479E-07   -0.11939E-07   587   0.813E-04
 252 F= -.68608022E+03 E0= -.68608022E+03  d E =-.478113E-04
       N       E                     dE             d eps       ncg     rms          rms(c)
DAV:   1    -0.677459518545E+03   -0.13386E-04   -0.11018E-02   936   0.229E-01    0.324E-02
RMM:   2    -0.677459529899E+03   -0.11353E-04   -0.17268E-04   936   0.278E-02    0.168E-02
RMM:   3    -0.677459527819E+03    0.20800E-05   -0.85940E-06   938   0.626E-03    0.830E-03
RMM:   4    -0.677459527434E+03    0.38416E-06   -0.23885E-06   948   0.288E-03    0.152E-03
RMM:   5    -0.677459527406E+03    0.28547E-07   -0.11603E-07   584   0.836E-04
 253 F= -.68608025E+03 E0= -.68608025E+03  d E =-.289686E-04
       N       E                     dE             d eps       ncg     rms          rms(c)
DAV:   1    -0.677459526002E+03    0.14326E-05   -0.17893E-03   976   0.925E-02    0.130E-02
RMM:   2    -0.677459527871E+03   -0.18696E-05   -0.28249E-05   936   0.112E-02    0.678E-03
RMM:   3    -0.677459527533E+03    0.33799E-06   -0.14138E-06   933   0.253E-03    0.337E-03
RMM:   4    -0.677459527472E+03    0.61584E-07   -0.36727E-07   714   0.117E-03
 254 F= -.68608025E+03 E0= -.68608025E+03  d E =-.317536E-04
       N       E                     dE             d eps       ncg     rms          rms(c)
DAV:   1    -0.677459464134E+03    0.63400E-04   -0.89584E-03   936   0.206E-01    0.254E-02
RMM:   2    -0.677459472833E+03   -0.86995E-05   -0.13354E-04   936   0.243E-02    0.152E-02
RMM:   3    -0.677459471316E+03    0.15172E-05   -0.71322E-06   938   0.577E-03    0.723E-03
RMM:   4    -0.677459471139E+03    0.17732E-06   -0.17518E-06   930   0.251E-03    0.143E-03
RMM:   5    -0.677459471149E+03   -0.10383E-07   -0.10907E-07   587   0.775E-04
 255 F= -.68608027E+03 E0= -.68608027E+03  d E =-.185493E-04
       N       E                     dE             d eps       ncg     rms          rms(c)
DAV:   1    -0.677459446974E+03    0.24165E-04   -0.10262E-03   976   0.698E-02    0.855E-03
RMM:   2    -0.677459448012E+03   -0.10375E-05   -0.15329E-05   936   0.822E-03    0.514E-03
RMM:   3    -0.677459447854E+03    0.15715E-06   -0.81463E-07   864   0.194E-03    0.243E-03
RMM:   4    -0.677459447857E+03   -0.21901E-08   -0.18344E-07   596   0.889E-04
 256 F= -.68608027E+03 E0= -.68608027E+03  d E =-.205773E-04
       N       E                     dE             d eps       ncg     rms          rms(c)
DAV:   1    -0.677459363290E+03    0.84565E-04   -0.93237E-03   936   0.210E-01    0.287E-02
RMM:   2    -0.677459371847E+03   -0.85569E-05   -0.14108E-04   936   0.250E-02    0.158E-02
RMM:   3    -0.677459370156E+03    0.16904E-05   -0.75235E-06   937   0.587E-03    0.782E-03
RMM:   4    -0.677459369946E+03    0.21090E-06   -0.20225E-06   926   0.264E-03    0.157E-03
RMM:   5    -0.677459369990E+03   -0.44838E-07   -0.11412E-07   584   0.802E-04
 257 F= -.68608029E+03 E0= -.68608029E+03  d E =-.223699E-04
       N       E                     dE             d eps       ncg     rms          rms(c)
DAV:   1    -0.677459269754E+03    0.10019E-03   -0.88693E-03   936   0.204E-01    0.279E-02
RMM:   2    -0.677459277878E+03   -0.81244E-05   -0.13408E-04   936   0.243E-02    0.153E-02
RMM:   3    -0.677459276267E+03    0.16106E-05   -0.71901E-06   937   0.572E-03    0.758E-03
RMM:   4    -0.677459276075E+03    0.19252E-06   -0.19224E-06   925   0.257E-03    0.156E-03
RMM:   5    -0.677459276120E+03   -0.45035E-07   -0.10709E-07   582   0.783E-04
 258 F= -.68608030E+03 E0= -.68608030E+03  d E =-.262460E-04
       N       E                     dE             d eps       ncg     rms          rms(c)
DAV:   1    -0.677459202148E+03    0.73927E-04   -0.44439E-03   936   0.144E-01    0.181E-02
RMM:   2    -0.677459206094E+03   -0.39461E-05   -0.63831E-05   936   0.169E-02    0.104E-02
RMM:   3    -0.677459205401E+03    0.69255E-06   -0.33697E-06   942   0.398E-03    0.491E-03
RMM:   4    -0.677459205394E+03    0.74797E-08   -0.84769E-07   860   0.171E-03
 259 F= -.68608031E+03 E0= -.68608031E+03  d E =-.138146E-04
       N       E                     dE             d eps       ncg     rms          rms(c)
DAV:   1    -0.677458957266E+03    0.24814E-03   -0.35217E-02   936   0.407E-01    0.510E-02
RMM:   2    -0.677458988480E+03   -0.31214E-04   -0.50717E-04   936   0.478E-02    0.293E-02
RMM:   3    -0.677458982635E+03    0.58450E-05   -0.26607E-05   942   0.113E-02    0.140E-02
RMM:   4    -0.677458981970E+03    0.66549E-06   -0.69101E-06   950   0.484E-03    0.284E-03
RMM:   5    -0.677458982016E+03   -0.45988E-07   -0.39852E-07   698   0.140E-03
 260 F= -.68608033E+03 E0= -.68608033E+03  d E =-.284143E-04
       N       E                     dE             d eps       ncg     rms          rms(c)
DAV:   1    -0.677458968632E+03    0.13338E-04   -0.52053E-03   936   0.156E-01    0.197E-02
RMM:   2    -0.677458973195E+03   -0.45630E-05   -0.74672E-05   936   0.183E-02    0.114E-02
RMM:   3    -0.677458972352E+03    0.84302E-06   -0.41186E-06   941   0.428E-03    0.529E-03
RMM:   4    -0.677458972272E+03    0.79599E-07   -0.90413E-07   871   0.179E-03
 261 F= -.68608035E+03 E0= -.68608035E+03  d E =-.241029E-04
       N       E                     dE             d eps       ncg     rms          rms(c)
DAV:   1    -0.677458920455E+03    0.51897E-04   -0.14440E-02   936   0.260E-01    0.329E-02
RMM:   2    -0.677458933181E+03   -0.12726E-04   -0.20788E-04   936   0.306E-02    0.191E-02
RMM:   3    -0.677458930796E+03    0.23845E-05   -0.11364E-05   941   0.717E-03    0.892E-03
RMM:   4    -0.677458930501E+03    0.29551E-06   -0.25883E-06   941   0.301E-03    0.177E-03
RMM:   5    -0.677458930503E+03   -0.19791E-08   -0.15754E-07   595   0.924E-04
 262 F= -.68608036E+03 E0= -.68608036E+03  d E =-.387634E-04
       N       E                     dE             d eps       ncg     rms          rms(c)
DAV:   1    -0.677458998853E+03   -0.68352E-04   -0.86915E-03   936   0.201E-01    0.286E-02
RMM:   2    -0.677459006454E+03   -0.76015E-05   -0.12409E-04   936   0.234E-02    0.149E-02
RMM:   3    -0.677459004655E+03    0.17993E-05   -0.66388E-06   940   0.532E-03    0.707E-03
RMM:   4    -0.677459004259E+03    0.39619E-06   -0.17726E-06   913   0.244E-03    0.132E-03
RMM:   5    -0.677459004250E+03    0.90513E-08   -0.98153E-08   579   0.773E-04
 263 F= -.68608039E+03 E0= -.68608039E+03  d E =-.252323E-04
       N       E                     dE             d eps       ncg     rms          rms(c)
DAV:   1    -0.677459052326E+03   -0.48068E-04   -0.75773E-03   936   0.187E-01    0.266E-02
RMM:   2    -0.677459058929E+03   -0.66026E-05   -0.10821E-04   936   0.219E-02    0.139E-02
RMM:   3    -0.677459057346E+03    0.15829E-05   -0.58038E-06   942   0.497E-03    0.661E-03
RMM:   4    -0.677459056991E+03    0.35485E-06   -0.15388E-06   905   0.226E-03    0.123E-03
RMM:   5    -0.677459056983E+03    0.79999E-08   -0.85495E-08   579   0.720E-04
 264 F= -.68608040E+03 E0= -.68608040E+03  d E =-.327533E-04
       N       E                     dE             d eps       ncg     rms          rms(c)
DAV:   1    -0.677459095391E+03   -0.38400E-04   -0.91509E-03   936   0.205E-01    0.251E-02
RMM:   2    -0.677459103539E+03   -0.81472E-05   -0.12861E-04   936   0.236E-02    0.150E-02
RMM:   3    -0.677459101833E+03    0.17059E-05   -0.71440E-06   938   0.546E-03    0.683E-03
RMM:   4    -0.677459101573E+03    0.25939E-06   -0.17155E-06   909   0.241E-03    0.127E-03
RMM:   5    -0.677459101568E+03    0.51405E-08   -0.11013E-07   580   0.791E-04
 265 F= -.68608043E+03 E0= -.68608043E+03  d E =-.291240E-04
       N       E                     dE             d eps       ncg     rms          rms(c)
DAV:   1    -0.677459124204E+03   -0.22630E-04   -0.13032E-02   936   0.245E-01    0.299E-02
RMM:   2    -0.677459135826E+03   -0.11623E-04   -0.18332E-04   936   0.282E-02    0.179E-02
RMM:   3    -0.677459133410E+03    0.24166E-05   -0.10197E-05   938   0.653E-03    0.817E-03
RMM:   4    -0.677459133045E+03    0.36508E-06   -0.24663E-06   933   0.288E-03    0.159E-03
RMM:   5    -0.677459133034E+03    0.10277E-07   -0.16314E-07   597   0.913E-04
 266 F= -.68608044E+03 E0= -.68608044E+03  d E =-.421491E-04
       N       E                     dE             d eps       ncg     rms          rms(c)
DAV:   1    -0.677459108671E+03    0.24374E-04   -0.10061E-02   936   0.215E-01    0.276E-02
RMM:   2    -0.677459117073E+03   -0.84022E-05   -0.14140E-04   936   0.246E-02    0.158E-02
RMM:   3    -0.677459115305E+03    0.17680E-05   -0.80134E-06   937   0.578E-03    0.740E-03
RMM:   4    -0.677459115100E+03    0.20517E-06   -0.19056E-06   915   0.252E-03    0.148E-03
RMM:   5    -0.677459115126E+03   -0.25837E-07   -0.12083E-07   588   0.800E-04
 267 F= -.68608047E+03 E0= -.68608047E+03  d E =-.294857E-04
       N       E                     dE             d eps       ncg     rms          rms(c)
DAV:   1    -0.677459078457E+03    0.36643E-04   -0.80228E-03   936   0.192E-01    0.246E-02
RMM:   2    -0.677459085127E+03   -0.66699E-05   -0.11288E-04   936   0.220E-02    0.141E-02
RMM:   3    -0.677459083709E+03    0.14179E-05   -0.64352E-06   938   0.517E-03    0.661E-03
RMM:   4    -0.677459083552E+03    0.15707E-06   -0.15145E-06   908   0.225E-03    0.126E-03
RMM:   5    -0.677459083576E+03   -0.24131E-07   -0.93253E-08   577   0.729E-04
 268 F= -.68608048E+03 E0= -.68608048E+03  d E =-.403677E-04
       N       E                     dE             d eps       ncg     rms          rms(c)
DAV:   1    -0.677458975000E+03    0.10855E-03   -0.64907E-03   936   0.175E-01    0.248E-02
RMM:   2    -0.677458980750E+03   -0.57506E-05   -0.10012E-04   936   0.212E-02    0.131E-02
RMM:   3    -0.677458979542E+03    0.12081E-05   -0.55039E-06   943   0.519E-03    0.638E-03
RMM:   4    -0.677458979441E+03    0.10141E-06   -0.14417E-06   907   0.229E-03    0.130E-03
RMM:   5    -0.677458979485E+03   -0.43932E-07   -0.85173E-08   577   0.708E-04
 269 F= -.68608051E+03 E0= -.68608051E+03  d E =-.258806E-04
       N       E                     dE             d eps       ncg     rms          rms(c)
DAV:   1    -0.677458873743E+03    0.10570E-03   -0.45898E-03   944   0.148E-01    0.208E-02
RMM:   2    -0.677458877840E+03   -0.40965E-05   -0.70926E-05   936   0.178E-02    0.110E-02
RMM:   3    -0.677458876990E+03    0.84978E-06   -0.38892E-06   941   0.436E-03    0.537E-03
RMM:   4    -0.677458876936E+03    0.53384E-07   -0.10243E-06   890   0.193E-03    0.109E-03
RMM:   5    -0.677458876976E+03   -0.39665E-07   -0.62129E-08   576   0.608E-04
 270 F= -.68608051E+03 E0= -.68608051E+03  d E =-.326000E-04
       N       E                     dE             d eps       ncg     rms          rms(c)
DAV:   1    -0.677458703698E+03    0.17324E-03   -0.85469E-03   936   0.200E-01    0.256E-02
RMM:   2    -0.677458709973E+03   -0.62750E-05   -0.12526E-04   936   0.237E-02    0.147E-02
RMM:   3    -0.677458708457E+03    0.15157E-05   -0.73463E-06   937   0.583E-03    0.703E-03
RMM:   4    -0.677458708368E+03    0.88596E-07   -0.17666E-06   924   0.248E-03    0.162E-03
RMM:   5    -0.677458708431E+03   -0.62715E-07   -0.11041E-07   579   0.797E-04
 271 F= -.68608053E+03 E0= -.68608053E+03  d E =-.213143E-04
       N       E                     dE             d eps       ncg     rms          rms(c)
DAV:   1    -0.677458523440E+03    0.18493E-03   -0.83569E-03   936   0.198E-01    0.253E-02
RMM:   2    -0.677458529582E+03   -0.61417E-05   -0.12254E-04   936   0.234E-02    0.145E-02
RMM:   3    -0.677458528103E+03    0.14784E-05   -0.72012E-06   937   0.576E-03    0.695E-03
RMM:   4    -0.677458528021E+03    0.82502E-07   -0.17217E-06   922   0.245E-03    0.159E-03
RMM:   5    -0.677458528083E+03   -0.62439E-07   -0.10783E-07   581   0.790E-04
 272 F= -.68608054E+03 E0= -.68608054E+03  d E =-.286665E-04
       N       E                     dE             d eps       ncg     rms          rms(c)
DAV:   1    -0.677458395371E+03    0.13265E-03   -0.68985E-03   936   0.179E-01    0.235E-02
RMM:   2    -0.677458400303E+03   -0.49317E-05   -0.98129E-05   936   0.208E-02    0.133E-02
RMM:   3    -0.677458399035E+03    0.12671E-05   -0.56702E-06   937   0.505E-03    0.623E-03
RMM:   4    -0.677458398992E+03    0.43132E-07   -0.13911E-06   910   0.217E-03    0.135E-03
RMM:   5    -0.677458399051E+03   -0.58495E-07   -0.86459E-08   578   0.702E-04
 273 F= -.68608057E+03 E0= -.68608057E+03  d E =-.255516E-04
       N       E                     dE             d eps       ncg     rms          rms(c)
DAV:   1    -0.677458005702E+03    0.39329E-03   -0.45700E-02   936   0.462E-01    0.605E-02
RMM:   2    -0.677458038882E+03   -0.33180E-04   -0.65061E-04   936   0.537E-02    0.342E-02
RMM:   3    -0.677458030146E+03    0.87363E-05   -0.37542E-05   937   0.130E-02    0.161E-02
RMM:   4    -0.677458029142E+03    0.10032E-05   -0.93281E-06   952   0.560E-03    0.351E-03
RMM:   5    -0.677458029251E+03   -0.10844E-06   -0.67027E-07   800   0.172E-03    0.149E-03
RMM:   6    -0.677458029306E+03   -0.54861E-07   -0.10418E-07   582   0.683E-04
 274 F= -.68608060E+03 E0= -.68608060E+03  d E =-.538968E-04
       N       E                     dE             d eps       ncg     rms          rms(c)
DAV:   1    -0.677457937889E+03    0.91362E-04   -0.68148E-03   940   0.179E-01    0.244E-02
RMM:   2    -0.677457942958E+03   -0.50696E-05   -0.97994E-05   936   0.206E-02    0.132E-02
RMM:   3    -0.677457941619E+03    0.13391E-05   -0.53819E-06   938   0.496E-03    0.644E-03
RMM:   4    -0.677457941481E+03    0.13844E-06   -0.14797E-06   913   0.226E-03    0.125E-03
RMM:   5    -0.677457941528E+03   -0.47163E-07   -0.82961E-08   577   0.692E-04
 275 F= -.68608062E+03 E0= -.68608062E+03  d E =-.247374E-04
       N       E                     dE             d eps       ncg     rms          rms(c)
DAV:   1    -0.677457607641E+03    0.33384E-03   -0.61315E-02   936   0.536E-01    0.731E-02
RMM:   2    -0.677457655079E+03   -0.47437E-04   -0.88108E-04   936   0.617E-02    0.397E-02
RMM:   3    -0.677457643149E+03    0.11930E-04   -0.48267E-05   938   0.149E-02    0.193E-02
RMM:   4    -0.677457641253E+03    0.18962E-05   -0.13306E-05   951   0.676E-03    0.386E-03
RMM:   5    -0.677457641315E+03   -0.61806E-07   -0.86458E-07   860   0.195E-03
 276 F= -.68608066E+03 E0= -.68608066E+03  d E =-.622137E-04
       N       E                     dE             d eps       ncg     rms          rms(c)
DAV:   1    -0.677457545754E+03    0.95499E-04   -0.12924E-02   936   0.246E-01    0.323E-02
RMM:   2    -0.677457556014E+03   -0.10260E-04   -0.18690E-04   936   0.288E-02    0.183E-02
RMM:   3    -0.677457553655E+03    0.23591E-05   -0.10564E-05   938   0.686E-03    0.866E-03
RMM:   4    -0.677457553325E+03    0.32989E-06   -0.25973E-06   943   0.299E-03    0.178E-03
RMM:   5    -0.677457553361E+03   -0.35754E-07   -0.16568E-07   595   0.927E-04
 277 F= -.68608069E+03 E0= -.68608069E+03  d E =-.356490E-04
       N       E                     dE             d eps       ncg     rms          rms(c)
DAV:   1    -0.677457113591E+03    0.43973E-03   -0.11006E-01   936   0.718E-01    0.945E-02
RMM:   2    -0.677457201376E+03   -0.87785E-04   -0.15917E-03   936   0.841E-02    0.531E-02
RMM:   3    -0.677457181141E+03    0.20235E-04   -0.89585E-05   938   0.200E-02    0.253E-02
RMM:   4    -0.677457177732E+03    0.34093E-05   -0.22175E-05   955   0.873E-03    0.524E-03
RMM:   5    -0.677457177725E+03    0.71013E-08   -0.16780E-06   924   0.266E-03    0.225E-03
RMM:   6    -0.677457177739E+03   -0.13977E-07   -0.21230E-07   607   0.933E-04
 278 F= -.68608068E+03 E0= -.68608068E+03  d E =-.209865E-04
       N       E                     dE             d eps       ncg     rms          rms(c)
DAV:   1    -0.677457390274E+03   -0.21255E-03   -0.35014E-02   936   0.405E-01    0.533E-02
RMM:   2    -0.677457418741E+03   -0.28467E-04   -0.50563E-04   936   0.475E-02    0.300E-02
RMM:   3    -0.677457412372E+03    0.63684E-05   -0.28454E-05   938   0.113E-02    0.142E-02
RMM:   4    -0.677457411105E+03    0.12676E-05   -0.70352E-06   953   0.492E-03    0.294E-03
RMM:   5    -0.677457410959E+03    0.14572E-06   -0.50490E-07   747   0.150E-03    0.125E-03
RMM:   6    -0.677457410932E+03    0.26590E-07   -0.81303E-08   577   0.650E-04
 279 F= -.68608071E+03 E0= -.68608071E+03  d E =-.505034E-04
       N       E                     dE             d eps       ncg     rms          rms(c)
DAV:   1    -0.677457241462E+03    0.16950E-03   -0.19411E-02   936   0.301E-01    0.371E-02
RMM:   2    -0.677457257876E+03   -0.16414E-04   -0.28058E-04   936   0.355E-02    0.216E-02
RMM:   3    -0.677457254420E+03    0.34559E-05   -0.14818E-05   937   0.837E-03    0.104E-02
RMM:   4    -0.677457253914E+03    0.50568E-06   -0.42231E-06   944   0.377E-03    0.192E-03
RMM:   5    -0.677457253950E+03   -0.36471E-07   -0.20884E-07   608   0.107E-03
 280 F= -.68608074E+03 E0= -.68608074E+03  d E =-.306432E-04
       N       E                     dE             d eps       ncg     rms          rms(c)
DAV:   1    -0.677457071145E+03    0.18277E-03   -0.18026E-02   936   0.290E-01    0.357E-02
RMM:   2    -0.677457086560E+03   -0.15414E-04   -0.26136E-04   936   0.342E-02    0.208E-02
RMM:   3    -0.677457083399E+03    0.31606E-05   -0.13857E-05   937   0.807E-03    0.100E-02
RMM:   4    -0.677457082947E+03    0.45163E-06   -0.39369E-06   944   0.365E-03    0.186E-03
RMM:   5    -0.677457082985E+03   -0.37937E-07   -0.19483E-07   605   0.103E-03
 281 F= -.68608075E+03 E0= -.68608075E+03  d E =-.403911E-04
       N       E                     dE             d eps       ncg     rms          rms(c)
DAV:   1    -0.677456956387E+03    0.12656E-03   -0.13701E-02   936   0.253E-01    0.319E-02
RMM:   2    -0.677456967622E+03   -0.11235E-04   -0.19683E-04   936   0.297E-02    0.181E-02
RMM:   3    -0.677456965167E+03    0.24550E-05   -0.10443E-05   937   0.697E-03    0.885E-03
RMM:   4    -0.677456964825E+03    0.34169E-06   -0.30324E-06   942   0.319E-03    0.166E-03
RMM:   5    -0.677456964875E+03   -0.49604E-07   -0.13256E-07   589   0.878E-04
 282 F= -.68608078E+03 E0= -.68608078E+03  d E =-.334534E-04
       N       E                     dE             d eps       ncg     rms          rms(c)
DAV:   1    -0.677456519791E+03    0.44503E-03   -0.10529E-01   936   0.702E-01    0.885E-02
RMM:   2    -0.677456607037E+03   -0.87246E-04   -0.15116E-03   936   0.823E-02    0.500E-02
RMM:   3    -0.677456588126E+03    0.18911E-04   -0.80157E-05   937   0.193E-02    0.245E-02
RMM:   4    -0.677456584806E+03    0.33201E-05   -0.23332E-05   956   0.884E-03    0.461E-03
RMM:   5    -0.677456584836E+03   -0.29348E-07   -0.11985E-06   894   0.238E-03    0.225E-03
RMM:   6    -0.677456584907E+03   -0.71130E-07   -0.23823E-07   615   0.923E-04
 283 F= -.68608082E+03 E0= -.68608082E+03  d E =-.739514E-04
       N       E                     dE             d eps       ncg     rms          rms(c)
DAV:   1    -0.677456462720E+03    0.12212E-03   -0.15094E-02   936   0.266E-01    0.328E-02
RMM:   2    -0.677456475668E+03   -0.12949E-04   -0.21754E-04   936   0.310E-02    0.191E-02
RMM:   3    -0.677456473211E+03    0.24574E-05   -0.11488E-05   938   0.734E-03    0.922E-03
RMM:   4    -0.677456472911E+03    0.29976E-06   -0.31342E-06   942   0.328E-03    0.185E-03
RMM:   5    -0.677456472964E+03   -0.52616E-07   -0.16685E-07   599   0.937E-04
 284 F= -.68608086E+03 E0= -.68608086E+03  d E =-.346925E-04
       N       E                     dE             d eps       ncg     rms          rms(c)
DAV:   1    -0.677455997539E+03    0.47537E-03   -0.13582E-01   936   0.797E-01    0.985E-02
RMM:   2    -0.677456115243E+03   -0.11770E-03   -0.19575E-03   936   0.928E-02    0.572E-02
RMM:   3    -0.677456092566E+03    0.22677E-04   -0.10310E-04   937   0.220E-02    0.277E-02
RMM:   4    -0.677456088703E+03    0.38631E-05   -0.28089E-05   955   0.981E-03    0.557E-03
RMM:   5    -0.677456088752E+03   -0.49640E-07   -0.17535E-06   914   0.276E-03    0.266E-03
RMM:   6    -0.677456088823E+03   -0.70715E-07   -0.24012E-07   612   0.982E-04
 285 F= -.68608091E+03 E0= -.68608091E+03  d E =-.907418E-04
       N       E                     dE             d eps       ncg     rms          rms(c)
DAV:   1    -0.677455947897E+03    0.14086E-03   -0.13054E-02   944   0.247E-01    0.305E-02
RMM:   2    -0.677455959057E+03   -0.11161E-04   -0.18812E-04   936   0.288E-02    0.177E-02
RMM:   3    -0.677455956928E+03    0.21298E-05   -0.99475E-06   938   0.682E-03    0.858E-03
RMM:   4    -0.677455956680E+03    0.24770E-06   -0.27213E-06   937   0.305E-03    0.172E-03
RMM:   5    -0.677455956731E+03   -0.50808E-07   -0.14409E-07   594   0.876E-04
 286 F= -.68608092E+03 E0= -.68608092E+03  d E =-.951167E-04
       N       E                     dE             d eps       ncg     rms          rms(c)
DAV:   1    -0.677455842540E+03    0.11414E-03   -0.38106E-02   936   0.421E-01    0.514E-02
RMM:   2    -0.677455873241E+03   -0.30701E-04   -0.52714E-04   936   0.479E-02    0.301E-02
RMM:   3    -0.677455866720E+03    0.65202E-05   -0.28848E-05   938   0.115E-02    0.143E-02
RMM:   4    -0.677455865796E+03    0.92402E-06   -0.75195E-06   951   0.506E-03    0.284E-03
RMM:   5    -0.677455865853E+03   -0.56720E-07   -0.48631E-07   725   0.150E-03
 287 F= -.68608097E+03 E0= -.68608097E+03  d E =-.539504E-04
       N       E                     dE             d eps       ncg     rms          rms(c)
DAV:   1    -0.677455434709E+03    0.43109E-03   -0.22381E-01   936   0.102E+00    0.125E-01
RMM:   2    -0.677455616030E+03   -0.18132E-03   -0.30966E-03   936   0.116E-01    0.730E-02
RMM:   3    -0.677455577897E+03    0.38133E-04   -0.16940E-04   938   0.279E-02    0.346E-02
RMM:   4    -0.677455571811E+03    0.60862E-05   -0.44239E-05   953   0.123E-02    0.691E-03
RMM:   5    -0.677455571793E+03    0.18645E-07   -0.30291E-06   940   0.362E-03    0.318E-03
RMM:   6    -0.677455571833E+03   -0.40593E-07   -0.38021E-07   688   0.122E-03
 288 F= -.68608103E+03 E0= -.68608103E+03  d E =-.111512E-03
       N       E                     dE             d eps       ncg     rms          rms(c)
DAV:   1    -0.677455425530E+03    0.14626E-03   -0.66151E-02   936   0.554E-01    0.666E-02
RMM:   2    -0.677455475187E+03   -0.49657E-04   -0.88997E-04   936   0.622E-02    0.396E-02
RMM:   3    -0.677455463348E+03    0.11839E-04   -0.50322E-05   938   0.149E-02    0.183E-02
RMM:   4    -0.677455461767E+03    0.15813E-05   -0.12558E-05   951   0.649E-03    0.358E-03
RMM:   5    -0.677455461820E+03   -0.53395E-07   -0.84398E-07   840   0.192E-03
 289 F= -.68608110E+03 E0= -.68608110E+03  d E =-.683524E-04
       N       E                     dE             d eps       ncg     rms          rms(c)
DAV:   1    -0.677455128165E+03    0.33360E-03   -0.16875E-01   936   0.884E-01    0.106E-01
RMM:   2    -0.677455255961E+03   -0.12780E-03   -0.22708E-03   936   0.993E-02    0.633E-02
RMM:   3    -0.677455225977E+03    0.29984E-04   -0.12850E-04   938   0.238E-02    0.292E-02
RMM:   4    -0.677455221785E+03    0.41924E-05   -0.31880E-05   955   0.104E-02    0.573E-03
RMM:   5    -0.677455221794E+03   -0.95497E-08   -0.21833E-06   926   0.304E-03    0.262E-03
RMM:   6    -0.677455221829E+03   -0.34877E-07   -0.29746E-07   652   0.107E-03
 290 F= -.68608114E+03 E0= -.68608114E+03  d E =-.113716E-03
       N       E                     dE             d eps       ncg     rms          rms(c)
DAV:   1    -0.677454872070E+03    0.34972E-03   -0.80492E-02   936   0.613E-01    0.742E-02
RMM:   2    -0.677454933661E+03   -0.61591E-04   -0.11092E-03   936   0.699E-02    0.441E-02
RMM:   3    -0.677454919342E+03    0.14319E-04   -0.64973E-05   938   0.170E-02    0.197E-02
RMM:   4    -0.677454917747E+03    0.15949E-05   -0.14406E-05   957   0.706E-03    0.421E-03
RMM:   5    -0.677454917829E+03   -0.81680E-07   -0.10569E-06   890   0.209E-03    0.183E-03
RMM:   6    -0.677454917879E+03   -0.50441E-07   -0.14270E-07   587   0.781E-04
 291 F= -.68608121E+03 E0= -.68608121E+03  d E =-.700172E-04
       N       E                     dE             d eps       ncg     rms          rms(c)
DAV:   1    -0.677454318715E+03    0.59911E-03   -0.16250E-01   936   0.870E-01    0.105E-01
RMM:   2    -0.677454443247E+03   -0.12453E-03   -0.22388E-03   936   0.994E-02    0.627E-02
RMM:   3    -0.677454414188E+03    0.29059E-04   -0.13103E-04   938   0.241E-02    0.281E-02
RMM:   4    -0.677454410669E+03    0.35189E-05   -0.29087E-05   956   0.100E-02    0.599E-03
RMM:   5    -0.677454410724E+03   -0.54817E-07   -0.21584E-06   929   0.299E-03    0.265E-03
RMM:   6    -0.677454410788E+03   -0.64094E-07   -0.30262E-07   658   0.108E-03
 292 F= -.68608124E+03 E0= -.68608124E+03  d E =-.946086E-04
       N       E                     dE             d eps       ncg     rms          rms(c)
DAV:   1    -0.677453912876E+03    0.49785E-03   -0.85684E-02   936   0.631E-01    0.778E-02
RMM:   2    -0.677453973122E+03   -0.60246E-04   -0.11658E-03   936   0.717E-02    0.456E-02
RMM:   3    -0.677453957722E+03    0.15400E-04   -0.69564E-05   938   0.176E-02    0.204E-02
RMM:   4    -0.677453956009E+03    0.17133E-05   -0.14959E-05   952   0.720E-03    0.453E-03
RMM:   5    -0.677453956154E+03   -0.14495E-06   -0.99447E-07   872   0.210E-03    0.200E-03
RMM:   6    -0.677453956223E+03   -0.69231E-07   -0.16161E-07   592   0.804E-04
 293 F= -.68608129E+03 E0= -.68608129E+03  d E =-.520637E-04
       N       E                     dE             d eps       ncg     rms          rms(c)
DAV:   1    -0.677453156863E+03    0.79929E-03   -0.18082E-01   936   0.917E-01    0.113E-01
RMM:   2    -0.677453284172E+03   -0.12731E-03   -0.24602E-03   936   0.104E-01    0.663E-02
RMM:   3    -0.677453251449E+03    0.32723E-04   -0.14671E-04   938   0.256E-02    0.296E-02
RMM:   4    -0.677453247430E+03    0.40186E-05   -0.31572E-05   954   0.105E-02    0.660E-03
RMM:   5    -0.677453247584E+03   -0.15346E-06   -0.21164E-06   928   0.303E-03    0.297E-03
RMM:   6    -0.677453247672E+03   -0.88068E-07   -0.35463E-07   688   0.112E-03
 294 F= -.68608132E+03 E0= -.68608132E+03  d E =-.800337E-04
       N       E                     dE             d eps       ncg     rms          rms(c)
DAV:   1    -0.677452688100E+03    0.55948E-03   -0.11360E-01   936   0.727E-01    0.894E-02
RMM:   2    -0.677452769021E+03   -0.80921E-04   -0.15539E-03   936   0.834E-02    0.523E-02
RMM:   3    -0.677452748405E+03    0.20616E-04   -0.89605E-05   937   0.202E-02    0.239E-02
RMM:   4    -0.677452745789E+03    0.26163E-05   -0.20979E-05   952   0.852E-03    0.525E-03
RMM:   5    -0.677452745934E+03   -0.14546E-06   -0.12851E-06   918   0.242E-03    0.245E-03
RMM:   6    -0.677452746014E+03   -0.80359E-07   -0.23491E-07   613   0.933E-04
 295 F= -.68608141E+03 E0= -.68608141E+03  d E =-.906017E-04
       N       E                     dE             d eps       ncg     rms          rms(c)
DAV:   1    -0.677451701304E+03    0.10446E-02   -0.28446E-01   936   0.115E+00    0.142E-01
RMM:   2    -0.677451904040E+03   -0.20274E-03   -0.38906E-03   936   0.132E-01    0.827E-02
RMM:   3    -0.677451852159E+03    0.51881E-04   -0.22416E-04   937   0.320E-02    0.378E-02
RMM:   4    -0.677451844978E+03    0.71807E-05   -0.52531E-05   952   0.135E-02    0.832E-03
RMM:   5    -0.677451845095E+03   -0.11731E-06   -0.32227E-06   945   0.382E-03    0.389E-03
RMM:   6    -0.677451845205E+03   -0.10968E-06   -0.64794E-07   842   0.143E-03    0.116E-03
RMM:   7    -0.677451845172E+03    0.32785E-07   -0.54053E-08   581   0.568E-04
 296 F= -.68608144E+03 E0= -.68608144E+03  d E =-.127340E-03
       N       E                     dE             d eps       ncg     rms          rms(c)
DAV:   1    -0.677451326596E+03    0.51861E-03   -0.12820E-01   936   0.769E-01    0.942E-02
RMM:   2    -0.677451414667E+03   -0.88071E-04   -0.17212E-03   936   0.875E-02    0.554E-02
RMM:   3    -0.677451391217E+03    0.23451E-04   -0.10030E-04   937   0.211E-02    0.252E-02
RMM:   4    -0.677451388053E+03    0.31637E-05   -0.23518E-05   955   0.893E-03    0.541E-03
RMM:   5    -0.677451388178E+03   -0.12552E-06   -0.14598E-06   921   0.258E-03    0.250E-03
RMM:   6    -0.677451388247E+03   -0.68816E-07   -0.25722E-07   625   0.961E-04
 297 F= -.68608150E+03 E0= -.68608150E+03  d E =-.586835E-04
       N       E                     dE             d eps       ncg     rms          rms(c)
DAV:   1    -0.677450784874E+03    0.60330E-03   -0.14721E-01   936   0.825E-01    0.101E-01
RMM:   2    -0.677450886013E+03   -0.10114E-03   -0.19777E-03   936   0.938E-02    0.593E-02
RMM:   3    -0.677450859150E+03    0.26863E-04   -0.11544E-04   937   0.227E-02    0.271E-02
RMM:   4    -0.677450855491E+03    0.36590E-05   -0.27020E-05   955   0.958E-03    0.581E-03
RMM:   5    -0.677450855615E+03   -0.12364E-06   -0.16814E-06   923   0.277E-03    0.267E-03
RMM:   6    -0.677450855686E+03   -0.71814E-07   -0.30568E-07   654   0.103E-03
 298 F= -.68608152E+03 E0= -.68608152E+03  d E =-.789172E-04
       N       E                     dE             d eps       ncg     rms          rms(c)
DAV:   1    -0.677450688493E+03    0.16712E-03   -0.44061E-02   940   0.453E-01    0.555E-02
RMM:   2    -0.677450722437E+03   -0.33945E-04   -0.61735E-04   936   0.526E-02    0.330E-02
RMM:   3    -0.677450713853E+03    0.85840E-05   -0.35404E-05   938   0.124E-02    0.151E-02
RMM:   4    -0.677450712669E+03    0.11843E-05   -0.87170E-06   952   0.540E-03    0.294E-03
RMM:   5    -0.677450712696E+03   -0.26652E-07   -0.56516E-07   771   0.162E-03
 299 F= -.68608160E+03 E0= -.68608160E+03  d E =-.730591E-04
       N       E                     dE             d eps       ncg     rms          rms(c)
DAV:   1    -0.677450401572E+03    0.31110E-03   -0.79610E-02   936   0.609E-01    0.747E-02
RMM:   2    -0.677450463439E+03   -0.61867E-04   -0.11160E-03   936   0.708E-02    0.444E-02
RMM:   3    -0.677450448015E+03    0.15424E-04   -0.64105E-05   938   0.166E-02    0.203E-02
RMM:   4    -0.677450445825E+03    0.21899E-05   -0.15695E-05   955   0.725E-03    0.396E-03
RMM:   5    -0.677450445829E+03   -0.39072E-08   -0.10607E-06   901   0.216E-03    0.172E-03
RMM:   6    -0.677450445856E+03   -0.27307E-07   -0.16205E-07   592   0.796E-04
 300 F= -.68608162E+03 E0= -.68608162E+03  d E =-.965901E-04
       N       E                     dE             d eps       ncg     rms          rms(c)
DAV:   1    -0.677450513598E+03   -0.67769E-04   -0.42856E-03   976   0.141E-01    0.174E-02
RMM:   2    -0.677450517141E+03   -0.35432E-05   -0.59979E-05   936   0.165E-02    0.103E-02
RMM:   3    -0.677450516328E+03    0.81276E-06   -0.34243E-06   938   0.387E-03    0.469E-03
RMM:   4    -0.677450516155E+03    0.17367E-06   -0.82346E-07   866   0.168E-03    0.879E-04
RMM:   5    -0.677450516118E+03    0.36940E-07   -0.48765E-08   571   0.552E-04
 301 F= -.68608162E+03 E0= -.68608162E+03  d E =-.994265E-04
       N       E                     dE             d eps       ncg     rms          rms(c)
DAV:   1    -0.677450410002E+03    0.10615E-03   -0.23053E-02   936   0.329E-01    0.451E-02
RMM:   2    -0.677450427554E+03   -0.17552E-04   -0.32148E-04   936   0.380E-02    0.244E-02
RMM:   3    -0.677450422782E+03    0.47723E-05   -0.18233E-05   941   0.898E-03    0.115E-02
RMM:   4    -0.677450421991E+03    0.79104E-06   -0.51757E-06   949   0.413E-03    0.212E-03
RMM:   5    -0.677450421989E+03    0.16880E-08   -0.25789E-07   630   0.117E-03
 302 F= -.68608167E+03 E0= -.68608167E+03  d E =-.441601E-04
       N       E                     dE             d eps       ncg     rms          rms(c)
DAV:   1    -0.677450254183E+03    0.16781E-03   -0.30165E-02   936   0.376E-01    0.516E-02
RMM:   2    -0.677450277517E+03   -0.23334E-04   -0.42192E-04   936   0.435E-02    0.279E-02
RMM:   3    -0.677450271336E+03    0.61809E-05   -0.24000E-05   942   0.103E-02    0.132E-02
RMM:   4    -0.677450270300E+03    0.10358E-05   -0.67963E-06   949   0.473E-03    0.243E-03
RMM:   5    -0.677450270292E+03    0.78144E-08   -0.35424E-07   670   0.134E-03
 303 F= -.68608167E+03 E0= -.68608167E+03  d E =-.505456E-04
       N       E                     dE             d eps       ncg     rms          rms(c)
DAV:   1    -0.677450326453E+03   -0.56153E-04   -0.37270E-03   976   0.132E-01    0.182E-02
RMM:   2    -0.677450329457E+03   -0.30038E-05   -0.51758E-05   936   0.153E-02    0.976E-03
RMM:   3    -0.677450328730E+03    0.72689E-06   -0.29255E-06   940   0.362E-03    0.458E-03
RMM:   4    -0.677450328579E+03    0.15058E-06   -0.81630E-07   869   0.165E-03    0.819E-04
RMM:   5    -0.677450328557E+03    0.22726E-07   -0.41924E-08   569   0.512E-04
 304 F= -.68608168E+03 E0= -.68608168E+03  d E =-.532289E-04
       N       E                     dE             d eps       ncg     rms          rms(c)
DAV:   1    -0.677450211904E+03    0.11668E-03   -0.21252E-02   936   0.316E-01    0.412E-02
RMM:   2    -0.677450227482E+03   -0.15578E-04   -0.29143E-04   936   0.363E-02    0.233E-02
RMM:   3    -0.677450223363E+03    0.41188E-05   -0.17484E-05   939   0.878E-03    0.103E-02
RMM:   4    -0.677450222869E+03    0.49452E-06   -0.41026E-06   947   0.377E-03    0.198E-03
RMM:   5    -0.677450222899E+03   -0.30304E-07   -0.22739E-07   611   0.115E-03
 305 F= -.68608171E+03 E0= -.68608171E+03  d E =-.382884E-04
       N       E                     dE             d eps       ncg     rms          rms(c)
DAV:   1    -0.677450125415E+03    0.97454E-04   -0.93750E-03   936   0.210E-01    0.273E-02
RMM:   2    -0.677450132329E+03   -0.69139E-05   -0.12897E-04   936   0.241E-02    0.155E-02
RMM:   3    -0.677450130524E+03    0.18055E-05   -0.77908E-06   939   0.583E-03    0.688E-03
RMM:   4    -0.677450130334E+03    0.19010E-06   -0.17974E-06   932   0.250E-03    0.131E-03
RMM:   5    -0.677450130363E+03   -0.29017E-07   -0.98857E-08   584   0.786E-04
 306 F= -.68608172E+03 E0= -.68608172E+03  d E =-.413064E-04
       N       E                     dE             d eps       ncg     rms          rms(c)
DAV:   1    -0.677449985317E+03    0.14502E-03   -0.19276E-02   936   0.302E-01    0.369E-02
RMM:   2    -0.677450000799E+03   -0.15482E-04   -0.26929E-04   936   0.348E-02    0.217E-02
RMM:   3    -0.677449997489E+03    0.33100E-05   -0.15317E-05   939   0.829E-03    0.966E-03
RMM:   4    -0.677449997204E+03    0.28534E-06   -0.35304E-06   942   0.350E-03    0.196E-03
RMM:   5    -0.677449997266E+03   -0.62053E-07   -0.17797E-07   601   0.104E-03
 307 F= -.68608175E+03 E0= -.68608175E+03  d E =-.298074E-04
       N       E                     dE             d eps       ncg     rms          rms(c)
DAV:   1    -0.677449845256E+03    0.15195E-03   -0.16282E-02   936   0.277E-01    0.339E-02
RMM:   2    -0.677449858375E+03   -0.13119E-04   -0.22796E-04   936   0.320E-02    0.200E-02
RMM:   3    -0.677449855577E+03    0.27979E-05   -0.12996E-05   939   0.762E-03    0.889E-03
RMM:   4    -0.677449855354E+03    0.22301E-06   -0.29909E-06   940   0.322E-03    0.181E-03
RMM:   5    -0.677449855414E+03   -0.59321E-07   -0.15139E-07   597   0.963E-04
 308 F= -.68608175E+03 E0= -.68608175E+03  d E =-.375749E-04
       N       E                     dE             d eps       ncg     rms          rms(c)
DAV:   1    -0.677449752247E+03    0.10311E-03   -0.17738E-02   936   0.291E-01    0.378E-02
RMM:   2    -0.677449766974E+03   -0.14727E-04   -0.25275E-04   936   0.341E-02    0.209E-02
RMM:   3    -0.677449763693E+03    0.32807E-05   -0.13981E-05   938   0.776E-03    0.992E-03
RMM:   4    -0.677449763312E+03    0.38131E-06   -0.33794E-06   937   0.338E-03    0.187E-03
RMM:   5    -0.677449763384E+03   -0.72065E-07   -0.14975E-07   595   0.981E-04
 309 F= -.68608180E+03 E0= -.68608180E+03  d E =-.422351E-04
       N       E                     dE             d eps       ncg     rms          rms(c)
DAV:   1    -0.677449695957E+03    0.67355E-04   -0.47717E-03   976   0.151E-01    0.196E-02
RMM:   2    -0.677449699883E+03   -0.39260E-05   -0.68428E-05   936   0.177E-02    0.109E-02
RMM:   3    -0.677449699008E+03    0.87434E-06   -0.38062E-06   937   0.403E-03    0.518E-03
RMM:   4    -0.677449698954E+03    0.54606E-07   -0.90675E-07   881   0.176E-03
 310 F= -.68608180E+03 E0= -.68608180E+03  d E =-.474109E-04
       N       E                     dE             d eps       ncg     rms          rms(c)
DAV:   1    -0.677449627212E+03    0.71797E-04   -0.11608E-02   936   0.236E-01    0.283E-02
RMM:   2    -0.677449637239E+03   -0.10027E-04   -0.16326E-04   936   0.273E-02    0.168E-02
RMM:   3    -0.677449635316E+03    0.19232E-05   -0.94675E-06   944   0.642E-03    0.752E-03
RMM:   4    -0.677449635168E+03    0.14809E-06   -0.20972E-06   936   0.269E-03    0.141E-03
RMM:   5    -0.677449635205E+03   -0.37580E-07   -0.11332E-07   588   0.840E-04
 311 F= -.68608183E+03 E0= -.68608183E+03  d E =-.311068E-04
       N       E                     dE             d eps       ncg     rms          rms(c)
DAV:   1    -0.677449591934E+03    0.43234E-04   -0.28038E-03   976   0.116E-01    0.139E-02
RMM:   2    -0.677449594334E+03   -0.24005E-05   -0.39511E-05   936   0.134E-02    0.824E-03
RMM:   3    -0.677449593881E+03    0.45373E-06   -0.23151E-06   944   0.314E-03    0.368E-03
RMM:   4    -0.677449593878E+03    0.25102E-08   -0.47930E-07   761   0.131E-03
 312 F= -.68608184E+03 E0= -.68608184E+03  d E =-.363719E-04
       N       E                     dE             d eps       ncg     rms          rms(c)
DAV:   1    -0.677449599165E+03   -0.52848E-05   -0.10206E-02   936   0.223E-01    0.306E-02
RMM:   2    -0.677449608586E+03   -0.94201E-05   -0.15284E-04   936   0.263E-02    0.165E-02
RMM:   3    -0.677449606793E+03    0.17927E-05   -0.84636E-06   944   0.603E-03    0.802E-03
RMM:   4    -0.677449606539E+03    0.25419E-06   -0.22689E-06   933   0.274E-03    0.139E-03
RMM:   5    -0.677449606527E+03    0.11547E-07   -0.13751E-07   591   0.899E-04
 313 F= -.68608187E+03 E0= -.68608187E+03  d E =-.320160E-04
       N       E                     dE             d eps       ncg     rms          rms(c)
DAV:   1    -0.677449598009E+03    0.85294E-05   -0.30393E-03   940   0.122E-01    0.166E-02
RMM:   2    -0.677449600830E+03   -0.28203E-05   -0.45548E-05   936   0.143E-02    0.901E-03
RMM:   3    -0.677449600312E+03    0.51766E-06   -0.25473E-06   944   0.329E-03    0.437E-03
RMM:   4    -0.677449600258E+03    0.54184E-07   -0.66119E-07   848   0.149E-03
 314 F= -.68608187E+03 E0= -.68608187E+03  d E =-.363070E-04
       N       E                     dE             d eps       ncg     rms          rms(c)
DAV:   1    -0.677449685994E+03   -0.85682E-04   -0.12111E-02   936   0.244E-01    0.334E-02
RMM:   2    -0.677449697460E+03   -0.11466E-04   -0.18138E-04   936   0.285E-02    0.174E-02
RMM:   3    -0.677449695306E+03    0.21544E-05   -0.95861E-06   938   0.656E-03    0.839E-03
RMM:   4    -0.677449694880E+03    0.42567E-06   -0.26002E-06   942   0.301E-03    0.141E-03
RMM:   5    -0.677449694884E+03   -0.42164E-08   -0.12706E-07   594   0.885E-04
 315 F= -.68608190E+03 E0= -.68608190E+03  d E =-.267758E-04
       N       E                     dE             d eps       ncg     rms          rms(c)
DAV:   1    -0.677449739116E+03   -0.44236E-04   -0.49738E-03   936   0.156E-01    0.213E-02
RMM:   2    -0.677449743801E+03   -0.46851E-05   -0.74557E-05   936   0.182E-02    0.111E-02
RMM:   3    -0.677449742908E+03    0.89246E-06   -0.39579E-06   938   0.419E-03    0.537E-03
RMM:   4    -0.677449742736E+03    0.17245E-06   -0.10595E-06   898   0.193E-03    0.879E-04
RMM:   5    -0.677449742743E+03   -0.73269E-08   -0.53461E-08   576   0.601E-04
 316 F= -.68608191E+03 E0= -.68608191E+03  d E =-.311314E-04
       N       E                     dE             d eps       ncg     rms          rms(c)
DAV:   1    -0.677449798158E+03   -0.55422E-04   -0.11788E-02   936   0.241E-01    0.286E-02
RMM:   2    -0.677449809952E+03   -0.11794E-04   -0.17858E-04   936   0.285E-02    0.162E-02
RMM:   3    -0.677449808169E+03    0.17832E-05   -0.91240E-06   939   0.653E-03    0.806E-03
RMM:   4    -0.677449807841E+03    0.32794E-06   -0.24037E-06   946   0.294E-03    0.146E-03
RMM:   5    -0.677449807852E+03   -0.11165E-07   -0.11449E-07   592   0.842E-04
 317 F= -.68608193E+03 E0= -.68608193E+03  d E =-.286054E-04
       N       E                     dE             d eps       ncg     rms          rms(c)
DAV:   1    -0.677449834897E+03   -0.27055E-04   -0.48675E-03   940   0.155E-01    0.184E-02
RMM:   2    -0.677449839803E+03   -0.49060E-05   -0.74069E-05   936   0.184E-02    0.105E-02
RMM:   3    -0.677449839087E+03    0.71578E-06   -0.37945E-06   939   0.420E-03    0.520E-03
RMM:   4    -0.677449838969E+03    0.11802E-06   -0.98065E-07   896   0.189E-03    0.889E-04
RMM:   5    -0.677449838978E+03   -0.94478E-08   -0.51108E-08   578   0.591E-04
 318 F= -.68608194E+03 E0= -.68608194E+03  d E =-.362867E-04
       N       E                     dE             d eps       ncg     rms          rms(c)
DAV:   1    -0.677449868068E+03   -0.29099E-04   -0.98819E-03   936   0.222E-01    0.256E-02
RMM:   2    -0.677449879262E+03   -0.11194E-04   -0.15618E-04   936   0.270E-02    0.141E-02
RMM:   3    -0.677449877766E+03    0.14966E-05   -0.74507E-06   941   0.613E-03    0.717E-03
RMM:   4    -0.677449877478E+03    0.28763E-06   -0.21954E-06   941   0.277E-03    0.118E-03
RMM:   5    -0.677449877472E+03    0.63737E-08   -0.81889E-08   584   0.748E-04
 319 F= -.68608197E+03 E0= -.68608197E+03  d E =-.276523E-04
       N       E                     dE             d eps       ncg     rms          rms(c)
DAV:   1    -0.677449885056E+03   -0.75775E-05   -0.24361E-03   972   0.110E-01    0.127E-02
RMM:   2    -0.677449887845E+03   -0.27894E-05   -0.38780E-05   936   0.134E-02    0.704E-03
RMM:   3    -0.677449887486E+03    0.35953E-06   -0.18570E-06   941   0.305E-03    0.358E-03
RMM:   4    -0.677449887425E+03    0.61103E-07   -0.52948E-07   822   0.138E-03
 320 F= -.68608197E+03 E0= -.68608197E+03  d E =-.322487E-04
       N       E                     dE             d eps       ncg     rms          rms(c)
DAV:   1    -0.677449923793E+03   -0.36307E-04   -0.68570E-03   936   0.186E-01    0.219E-02
RMM:   2    -0.677449932577E+03   -0.87847E-05   -0.11425E-04   936   0.229E-02    0.119E-02
RMM:   3    -0.677449931627E+03    0.95001E-06   -0.51414E-06   940   0.531E-03    0.621E-03
RMM:   4    -0.677449931386E+03    0.24159E-06   -0.15878E-06   932   0.242E-03    0.102E-03
RMM:   5    -0.677449931378E+03    0.80581E-08   -0.62831E-08   580   0.638E-04
 321 F= -.68608200E+03 E0= -.68608200E+03  d E =-.253774E-04
       N       E                     dE             d eps       ncg     rms          rms(c)
DAV:   1    -0.677449948935E+03   -0.17550E-04   -0.25888E-03   940   0.114E-01    0.134E-02
RMM:   2    -0.677449952277E+03   -0.33412E-05   -0.43180E-05   936   0.140E-02    0.727E-03
RMM:   3    -0.677449951917E+03    0.35944E-06   -0.19444E-06   940   0.325E-03    0.382E-03
RMM:   4    -0.677449951825E+03    0.91946E-07   -0.59292E-07   842   0.148E-03
 322 F= -.68608201E+03 E0= -.68608201E+03  d E =-.344629E-04
       N       E                     dE             d eps       ncg     rms          rms(c)
DAV:   1    -0.677449969116E+03   -0.17199E-04   -0.10343E-02   936   0.228E-01    0.269E-02
RMM:   2    -0.677449982368E+03   -0.13252E-04   -0.17255E-04   936   0.281E-02    0.146E-02
RMM:   3    -0.677449980934E+03    0.14339E-05   -0.77605E-06   940   0.653E-03    0.765E-03
RMM:   4    -0.677449980565E+03    0.36931E-06   -0.24192E-06   945   0.298E-03    0.127E-03
RMM:   5    -0.677449980553E+03    0.12489E-07   -0.93520E-08   583   0.755E-04
 323 F= -.68608202E+03 E0= -.68608202E+03  d E =-.403837E-04
       N       E                     dE             d eps       ncg     rms          rms(c)
DAV:   1    -0.677450043022E+03   -0.62457E-04   -0.60690E-03   936   0.174E-01    0.195E-02
RMM:   2    -0.677450050504E+03   -0.74822E-05   -0.10089E-04   936   0.212E-02    0.112E-02
RMM:   3    -0.677450049644E+03    0.86039E-06   -0.45925E-06   942   0.489E-03    0.596E-03
RMM:   4    -0.677450049397E+03    0.24721E-06   -0.14278E-06   921   0.225E-03    0.987E-04
RMM:   5    -0.677450049383E+03    0.13559E-07   -0.62211E-08   576   0.633E-04
 324 F= -.68608203E+03 E0= -.68608203E+03  d E =-.183273E-04
       N       E                     dE             d eps       ncg     rms          rms(c)
DAV:   1    -0.677450144552E+03   -0.95156E-04   -0.26938E-02   936   0.367E-01    0.411E-02
RMM:   2    -0.677450177604E+03   -0.33052E-04   -0.44653E-04   936   0.447E-02    0.235E-02
RMM:   3    -0.677450173785E+03    0.38189E-05   -0.20349E-05   942   0.103E-02    0.125E-02
RMM:   4    -0.677450172744E+03    0.10413E-05   -0.63630E-06   949   0.474E-03    0.212E-03
RMM:   5    -0.677450172694E+03    0.50211E-07   -0.29744E-07   647   0.127E-03
 325 F= -.68608205E+03 E0= -.68608205E+03  d E =-.352624E-04
       N       E                     dE             d eps       ncg     rms          rms(c)
DAV:   1    -0.677450241305E+03   -0.68562E-04   -0.64123E-03   940   0.180E-01    0.231E-02
RMM:   2    -0.677450249436E+03   -0.81310E-05   -0.11318E-04   936   0.225E-02    0.119E-02
RMM:   3    -0.677450248388E+03    0.10481E-05   -0.51142E-06   942   0.506E-03    0.633E-03
RMM:   4    -0.677450248117E+03    0.27085E-06   -0.17690E-06   933   0.248E-03    0.106E-03
RMM:   5    -0.677450248095E+03    0.22657E-07   -0.78372E-08   579   0.698E-04
 326 F= -.68608207E+03 E0= -.68608207E+03  d E =-.230168E-04
       N       E                     dE             d eps       ncg     rms          rms(c)
DAV:   1    -0.677450311210E+03   -0.63093E-04   -0.91021E-03   936   0.214E-01    0.274E-02
RMM:   2    -0.677450322656E+03   -0.11446E-04   -0.16041E-04   936   0.268E-02    0.141E-02
RMM:   3    -0.677450321133E+03    0.15232E-05   -0.72532E-06   942   0.603E-03    0.753E-03
RMM:   4    -0.677450320741E+03    0.39203E-06   -0.25305E-06   944   0.295E-03    0.128E-03
RMM:   5    -0.677450320709E+03    0.31436E-07   -0.11283E-07   586   0.823E-04
 327 F= -.68608208E+03 E0= -.68608208E+03  d E =-.332358E-04
       N       E                     dE             d eps       ncg     rms          rms(c)
DAV:   1    -0.677450354654E+03   -0.33913E-04   -0.69024E-03   936   0.186E-01    0.243E-02
RMM:   2    -0.677450362489E+03   -0.78354E-05   -0.12451E-04   936   0.236E-02    0.131E-02
RMM:   3    -0.677450361208E+03    0.12811E-05   -0.61425E-06   943   0.550E-03    0.709E-03
RMM:   4    -0.677450360876E+03    0.33227E-06   -0.19108E-06   941   0.262E-03    0.142E-03
RMM:   5    -0.677450360878E+03   -0.29213E-08   -0.12905E-07   592   0.819E-04
 328 F= -.68608210E+03 E0= -.68608210E+03  d E =-.202707E-04
       N       E                     dE             d eps       ncg     rms          rms(c)
DAV:   1    -0.677450378765E+03   -0.17889E-04   -0.44613E-03   936   0.150E-01    0.195E-02
RMM:   2    -0.677450383835E+03   -0.50704E-05   -0.80492E-05   936   0.189E-02    0.105E-02
RMM:   3    -0.677450383010E+03    0.82522E-06   -0.39754E-06   945   0.442E-03    0.571E-03
RMM:   4    -0.677450382796E+03    0.21420E-06   -0.12262E-06   926   0.210E-03    0.113E-03
RMM:   5    -0.677450382801E+03   -0.56280E-08   -0.82538E-08   584   0.670E-04
 329 F= -.68608211E+03 E0= -.68608211E+03  d E =-.261927E-04
       N       E                     dE             d eps       ncg     rms          rms(c)
DAV:   1    -0.677450330813E+03    0.51982E-04   -0.61393E-03   936   0.176E-01    0.217E-02
RMM:   2    -0.677450338627E+03   -0.78133E-05   -0.11241E-04   936   0.223E-02    0.118E-02
RMM:   3    -0.677450337668E+03    0.95829E-06   -0.50452E-06   944   0.505E-03    0.672E-03
RMM:   4    -0.677450337511E+03    0.15724E-06   -0.19324E-06   936   0.254E-03    0.130E-03
RMM:   5    -0.677450337512E+03   -0.10477E-08   -0.11985E-07   587   0.779E-04
 330 F= -.68608213E+03 E0= -.68608213E+03  d E =-.183209E-04
       N       E                     dE             d eps       ncg     rms          rms(c)
DAV:   1    -0.677450279772E+03    0.57739E-04   -0.51347E-03   940   0.161E-01    0.199E-02
RMM:   2    -0.677450286340E+03   -0.65675E-05   -0.94158E-05   936   0.204E-02    0.108E-02
RMM:   3    -0.677450285542E+03    0.79715E-06   -0.42182E-06   943   0.461E-03    0.616E-03
RMM:   4    -0.677450285421E+03    0.12181E-06   -0.16227E-06   925   0.233E-03    0.120E-03
RMM:   5    -0.677450285424E+03   -0.30159E-08   -0.10201E-07   585   0.721E-04
 331 F= -.68608213E+03 E0= -.68608213E+03  d E =-.244072E-04
       N       E                     dE             d eps       ncg     rms          rms(c)
DAV:   1    -0.677450215509E+03    0.69911E-04   -0.51924E-03   936   0.163E-01    0.213E-02
RMM:   2    -0.677450222484E+03   -0.69746E-05   -0.95770E-05   936   0.210E-02    0.110E-02
RMM:   3    -0.677450221652E+03    0.83169E-06   -0.43847E-06   940   0.486E-03    0.594E-03
RMM:   4    -0.677450221573E+03    0.78941E-07   -0.15842E-06   935   0.232E-03    0.111E-03
RMM:   5    -0.677450221590E+03   -0.16425E-07   -0.67322E-08   579   0.640E-04
 332 F= -.68608215E+03 E0= -.68608215E+03  d E =-.138362E-04
       N       E                     dE             d eps       ncg     rms          rms(c)
DAV:   1    -0.677450193209E+03    0.28365E-04   -0.68640E-04  1008   0.593E-02    0.774E-03
RMM:   2    -0.677450194182E+03   -0.97312E-06   -0.12796E-05   936   0.766E-03    0.400E-03
RMM:   3    -0.677450194095E+03    0.87006E-07   -0.55882E-07   776   0.176E-03
 333 F= -.68608215E+03 E0= -.68608215E+03  d E =-.145737E-04
       N       E                     dE             d eps       ncg     rms          rms(c)
DAV:   1    -0.677450167368E+03    0.26814E-04   -0.39348E-03   936   0.142E-01    0.202E-02
RMM:   2    -0.677450172045E+03   -0.46776E-05   -0.70585E-05   936   0.181E-02    0.992E-03
RMM:   3    -0.677450171291E+03    0.75387E-06   -0.36396E-06   940   0.438E-03    0.506E-03
RMM:   4    -0.677450171187E+03    0.10458E-06   -0.10284E-06   910   0.196E-03    0.101E-03
RMM:   5    -0.677450171217E+03   -0.30330E-07   -0.48815E-08   578   0.591E-04
 334 F= -.68608216E+03 E0= -.68608216E+03  d E =-.893468E-05
       N       E                     dE             d eps       ncg     rms          rms(c)
DAV:   1    -0.677450170751E+03    0.43543E-06   -0.99121E-07  1048   0.238E-03    0.311E-04
RMM:   2    -0.677450170748E+03    0.30923E-08   -0.29025E-08   530   0.430E-04    0.190E-04
RMM:   3    -0.677450170747E+03    0.12951E-08   -0.41172E-09   375   0.194E-04
 335 F= -.68608216E+03 E0= -.68608216E+03  d E =-.894936E-05
       N       E                     dE             d eps       ncg     rms          rms(c)
DAV:   1    -0.677450142911E+03    0.27838E-04   -0.27193E-03   940   0.118E-01    0.140E-02
RMM:   2    -0.677450145990E+03   -0.30795E-05   -0.45529E-05   936   0.147E-02    0.757E-03
RMM:   3    -0.677450145575E+03    0.41529E-06   -0.22138E-06   941   0.343E-03    0.400E-03
RMM:   4    -0.677450145506E+03    0.68561E-07   -0.64957E-07   880   0.157E-03
 336 F= -.68608216E+03 E0= -.68608216E+03  d E =-.723640E-05
       N       E                     dE             d eps       ncg     rms          rms(c)
DAV:   1    -0.677450137539E+03    0.80362E-05   -0.16698E-04  1040   0.294E-02    0.349E-03
RMM:   2    -0.677450137759E+03   -0.22081E-06   -0.29598E-06   936   0.373E-03    0.196E-03
RMM:   3    -0.677450137741E+03    0.18223E-07   -0.11328E-07   580   0.889E-04
 337 F= -.68608217E+03 E0= -.68608217E+03  d E =-.751564E-05
       N       E                     dE             d eps       ncg     rms          rms(c)
DAV:   1    -0.677450127438E+03    0.10322E-04   -0.25012E-03   936   0.114E-01    0.151E-02
RMM:   2    -0.677450129945E+03   -0.25071E-05   -0.40059E-05   936   0.138E-02    0.771E-03
RMM:   3    -0.677450129505E+03    0.44041E-06   -0.21701E-06   940   0.326E-03    0.374E-03
RMM:   4    -0.677450129416E+03    0.88490E-07   -0.54300E-07   851   0.144E-03
 338 F= -.68608217E+03 E0= -.68608217E+03  d E =-.775733E-05
       N       E                     dE             d eps       ncg     rms          rms(c)
DAV:   1    -0.677450121715E+03    0.77897E-05   -0.55412E-04   976   0.536E-02    0.708E-03
RMM:   2    -0.677450122294E+03   -0.57925E-06   -0.91104E-06   936   0.660E-03    0.366E-03
RMM:   3    -0.677450122198E+03    0.95904E-07   -0.45426E-07   730   0.157E-03
 339 F= -.68608217E+03 E0= -.68608217E+03  d E =-.811530E-05
       N       E                     dE             d eps       ncg     rms          rms(c)
DAV:   1    -0.677450103380E+03    0.18915E-04   -0.16860E-03   936   0.934E-02    0.131E-02
RMM:   2    -0.677450105111E+03   -0.17311E-05   -0.27818E-05   936   0.115E-02    0.648E-03
RMM:   3    -0.677450104754E+03    0.35689E-06   -0.15592E-06   942   0.282E-03    0.311E-03
RMM:   4    -0.677450104667E+03    0.86930E-07   -0.32886E-07   658   0.119E-03
 340 F= -.68608218E+03 E0= -.68608218E+03  d E =-.684322E-05
       N       E                     dE             d eps       ncg     rms          rms(c)
DAV:   1    -0.677450082216E+03    0.22538E-04   -0.15319E-03   936   0.889E-02    0.124E-02
RMM:   2    -0.677450083849E+03   -0.16328E-05   -0.25711E-05   936   0.111E-02    0.614E-03
RMM:   3    -0.677450083526E+03    0.32235E-06   -0.14094E-06   943   0.267E-03    0.300E-03
RMM:   4    -0.677450083445E+03    0.81040E-07   -0.29941E-07   642   0.113E-03
 341 F= -.68608218E+03 E0= -.68608218E+03  d E =-.873997E-05
       N       E                     dE             d eps       ncg     rms          rms(c)
DAV:   1    -0.677450011106E+03    0.72420E-04   -0.17694E-03   936   0.962E-02    0.141E-02
RMM:   2    -0.677450013003E+03   -0.18969E-05   -0.31087E-05   936   0.121E-02    0.644E-03
RMM:   3    -0.677450012662E+03    0.34150E-06   -0.15713E-06   939   0.292E-03    0.341E-03
RMM:   4    -0.677450012604E+03    0.58273E-07   -0.47989E-07   828   0.138E-03
 342 F= -.68608219E+03 E0= -.68608219E+03  d E =-.622462E-05
       N       E                     dE             d eps       ncg     rms          rms(c)
DAV:   1    -0.677449962138E+03    0.50524E-04   -0.76568E-04   960   0.633E-02    0.920E-03
RMM:   2    -0.677449962975E+03   -0.83741E-06   -0.13641E-05   936   0.801E-03    0.427E-03
RMM:   3    -0.677449962824E+03    0.15151E-06   -0.66584E-07   842   0.194E-03    0.231E-03
RMM:   4    -0.677449962805E+03    0.19056E-07   -0.21641E-07   582   0.101E-03
 343 F= -.68608219E+03 E0= -.68608219E+03  d E =-.712753E-05
       N       E                     dE             d eps       ncg     rms          rms(c)
DAV:   1    -0.677449844651E+03    0.11817E-03   -0.20216E-03   936   0.102E-01    0.151E-02
RMM:   2    -0.677449846510E+03   -0.18583E-05   -0.35748E-05   936   0.130E-02    0.709E-03
RMM:   3    -0.677449846172E+03    0.33764E-06   -0.19669E-06   940   0.323E-03    0.364E-03
RMM:   4    -0.677449846200E+03   -0.28573E-07   -0.53379E-07   841   0.141E-03
 344 F= -.68608220E+03 E0= -.68608220E+03  d E =-.624846E-05
       N       E                     dE             d eps       ncg     rms          rms(c)
DAV:   1    -0.677449754670E+03    0.91502E-04   -0.11268E-03   936   0.764E-02    0.112E-02
RMM:   2    -0.677449755734E+03   -0.10639E-05   -0.20119E-05   936   0.974E-03    0.532E-03
RMM:   3    -0.677449755561E+03    0.17288E-06   -0.11039E-06   930   0.244E-03    0.276E-03
RMM:   4    -0.677449755600E+03   -0.39185E-07   -0.28094E-07   631   0.107E-03
 345 F= -.68608220E+03 E0= -.68608220E+03  d E =-.740994E-05
       N       E                     dE             d eps       ncg     rms          rms(c)
DAV:   1    -0.677449642837E+03    0.11272E-03   -0.19649E-03   936   0.999E-02    0.125E-02
RMM:   2    -0.677449644503E+03   -0.16666E-05   -0.33316E-05   936   0.125E-02    0.701E-03
RMM:   3    -0.677449644183E+03    0.32000E-06   -0.18780E-06   942   0.312E-03    0.361E-03
RMM:   4    -0.677449644232E+03   -0.48865E-07   -0.45659E-07   787   0.133E-03
 346 F= -.68608220E+03 E0= -.68608220E+03  d E =-.643456E-05
       N       E                     dE             d eps       ncg     rms          rms(c)
DAV:   1    -0.677449542641E+03    0.10154E-03   -0.14477E-03   940   0.858E-02    0.107E-02
RMM:   2    -0.677449543905E+03   -0.12642E-05   -0.24718E-05   936   0.108E-02    0.602E-03
RMM:   3    -0.677449543688E+03    0.21661E-06   -0.13879E-06   943   0.270E-03    0.312E-03
RMM:   4    -0.677449543743E+03   -0.55137E-07   -0.32509E-07   674   0.115E-03
 347 F= -.68608220E+03 E0= -.68608220E+03  d E =-.711202E-05
       N       E                     dE             d eps       ncg     rms          rms(c)
DAV:   1    -0.677449460307E+03    0.83381E-04   -0.19537E-03   936   0.988E-02    0.130E-02
RMM:   2    -0.677449461794E+03   -0.14867E-05   -0.30753E-05   936   0.120E-02    0.685E-03
RMM:   3    -0.677449461410E+03    0.38351E-06   -0.17744E-06   940   0.293E-03    0.340E-03
RMM:   4    -0.677449461414E+03   -0.35616E-08   -0.41789E-07   751   0.127E-03
 348 F= -.68608221E+03 E0= -.68608221E+03  d E =-.664184E-05
       N       E                     dE             d eps       ncg     rms          rms(c)
DAV:   1    -0.677449346181E+03    0.11523E-03   -0.33164E-03   936   0.129E-01    0.170E-02
RMM:   2    -0.677449348748E+03   -0.25672E-05   -0.52352E-05   936   0.157E-02    0.891E-03
RMM:   3    -0.677449348091E+03    0.65670E-06   -0.30121E-06   940   0.383E-03    0.443E-03
RMM:   4    -0.677449348065E+03    0.26634E-07   -0.74255E-07   872   0.166E-03
 349 F= -.68608221E+03 E0= -.68608221E+03  d E =-.915258E-05
       N       E                     dE             d eps       ncg     rms          rms(c)
DAV:   1    -0.677449286198E+03    0.61893E-04   -0.13390E-03   940   0.817E-02    0.103E-02
RMM:   2    -0.677449287285E+03   -0.10868E-05   -0.20198E-05   936   0.977E-03    0.570E-03
RMM:   3    -0.677449287038E+03    0.24695E-06   -0.11611E-06   932   0.241E-03    0.263E-03
RMM:   4    -0.677449287051E+03   -0.13195E-07   -0.24633E-07   618   0.102E-03
 350 F= -.68608222E+03 E0= -.68608222E+03  d E =-.638153E-05
       N       E                     dE             d eps       ncg     rms          rms(c)
DAV:   1    -0.677449086761E+03    0.20028E-03   -0.12063E-02   936   0.245E-01    0.309E-02
RMM:   2    -0.677449096653E+03   -0.98927E-05   -0.18104E-04   936   0.293E-02    0.170E-02
RMM:   3    -0.677449094347E+03    0.23066E-05   -0.10378E-05   936   0.711E-03    0.784E-03
RMM:   4    -0.677449094118E+03    0.22872E-06   -0.24688E-06   945   0.302E-03    0.161E-03
RMM:   5    -0.677449094182E+03   -0.63945E-07   -0.11141E-07   587   0.865E-04
 351 F= -.68608223E+03 E0= -.68608223E+03  d E =-.157070E-04
       N       E                     dE             d eps       ncg     rms          rms(c)
DAV:   1    -0.677449017395E+03    0.76723E-04   -0.23691E-03   936   0.109E-01    0.148E-02
RMM:   2    -0.677449019398E+03   -0.20029E-05   -0.37267E-05   936   0.132E-02    0.759E-03
RMM:   3    -0.677449018954E+03    0.44378E-06   -0.21306E-06   940   0.323E-03    0.358E-03
RMM:   4    -0.677449018933E+03    0.20773E-07   -0.47516E-07   786   0.137E-03
 352 F= -.68608224E+03 E0= -.68608224E+03  d E =-.827889E-05
       N       E                     dE             d eps       ncg     rms          rms(c)
DAV:   1    -0.677448883119E+03    0.13583E-03   -0.62774E-03   936   0.177E-01    0.241E-02
RMM:   2    -0.677448888648E+03   -0.55281E-05   -0.98811E-05   936   0.216E-02    0.124E-02
RMM:   3    -0.677448887516E+03    0.11313E-05   -0.55845E-06   941   0.527E-03    0.586E-03
RMM:   4    -0.677448887401E+03    0.11499E-06   -0.13013E-06   924   0.223E-03    0.114E-03
RMM:   5    -0.677448887448E+03   -0.46235E-07   -0.59297E-08   580   0.667E-04
 353 F= -.68608224E+03 E0= -.68608224E+03  d E =-.128548E-04
       N       E                     dE             d eps       ncg     rms          rms(c)
DAV:   1    -0.677448779341E+03    0.10806E-03   -0.39183E-03   936   0.140E-01    0.183E-02
RMM:   2    -0.677448782344E+03   -0.30037E-05   -0.60592E-05   936   0.169E-02    0.967E-03
RMM:   3    -0.677448781604E+03    0.74065E-06   -0.35313E-06   944   0.413E-03    0.472E-03
RMM:   4    -0.677448781522E+03    0.81614E-07   -0.86158E-07   900   0.176E-03
 354 F= -.68608225E+03 E0= -.68608225E+03  d E =-.672673E-05
       N       E                     dE             d eps       ncg     rms          rms(c)
DAV:   1    -0.677448667736E+03    0.11387E-03   -0.39726E-03   944   0.141E-01    0.184E-02
RMM:   2    -0.677448670889E+03   -0.31526E-05   -0.61779E-05   936   0.171E-02    0.979E-03
RMM:   3    -0.677448670175E+03    0.71390E-06   -0.35794E-06   944   0.422E-03    0.482E-03
RMM:   4    -0.677448670095E+03    0.80199E-07   -0.88555E-07   904   0.181E-03
 355 F= -.68608225E+03 E0= -.68608225E+03  d E =-.871186E-05
       N       E                     dE             d eps       ncg     rms          rms(c)
DAV:   1    -0.677448585734E+03    0.84441E-04   -0.24356E-03   952   0.110E-01    0.136E-02
RMM:   2    -0.677448587758E+03   -0.20247E-05   -0.37308E-05   936   0.133E-02    0.766E-03
RMM:   3    -0.677448587364E+03    0.39463E-06   -0.20829E-06   942   0.324E-03    0.382E-03
RMM:   4    -0.677448587329E+03    0.34408E-07   -0.51939E-07   800   0.140E-03
 356 F= -.68608226E+03 E0= -.68608226E+03  d E =-.757553E-05
       N       E                     dE             d eps       ncg     rms          rms(c)
DAV:   1    -0.677448350592E+03    0.23677E-03   -0.16219E-02   936   0.283E-01    0.350E-02
RMM:   2    -0.677448364051E+03   -0.13459E-04   -0.24767E-04   936   0.343E-02    0.196E-02
RMM:   3    -0.677448361279E+03    0.27715E-05   -0.13829E-05   945   0.827E-03    0.975E-03
RMM:   4    -0.677448360778E+03    0.50083E-06   -0.35346E-06   946   0.355E-03    0.188E-03
RMM:   5    -0.677448360847E+03   -0.68150E-07   -0.14642E-07   591   0.992E-04
 357 F= -.68608226E+03 E0= -.68608226E+03  d E =-.142703E-04
       N       E                     dE             d eps       ncg     rms          rms(c)
DAV:   1    -0.677448272232E+03    0.88547E-04   -0.44841E-03   936   0.148E-01    0.184E-02
RMM:   2    -0.677448275756E+03   -0.35247E-05   -0.66595E-05   936   0.175E-02    0.105E-02
RMM:   3    -0.677448274900E+03    0.85678E-06   -0.39239E-06   940   0.425E-03    0.500E-03
RMM:   4    -0.677448274785E+03    0.11459E-06   -0.91651E-07   903   0.180E-03    0.979E-04
RMM:   5    -0.677448274819E+03   -0.34266E-07   -0.49075E-08   576   0.580E-04
 358 F= -.68608227E+03 E0= -.68608227E+03  d E =-.869578E-05
       N       E                     dE             d eps       ncg     rms          rms(c)
DAV:   1    -0.677448171754E+03    0.10303E-03   -0.53027E-03   936   0.160E-01    0.201E-02
RMM:   2    -0.677448175892E+03   -0.41376E-05   -0.78579E-05   936   0.190E-02    0.114E-02
RMM:   3    -0.677448174883E+03    0.10088E-05   -0.46519E-06   941   0.463E-03    0.542E-03
RMM:   4    -0.677448174743E+03    0.13975E-06   -0.10742E-06   918   0.195E-03    0.107E-03
RMM:   5    -0.677448174778E+03   -0.35114E-07   -0.55587E-08   578   0.619E-04
 359 F= -.68608228E+03 E0= -.68608228E+03  d E =-.116820E-04
       N       E                     dE             d eps       ncg     rms          rms(c)
DAV:   1    -0.677448101757E+03    0.72987E-04   -0.49651E-03   936   0.157E-01    0.245E-02
RMM:   2    -0.677448106358E+03   -0.46010E-05   -0.76853E-05   936   0.186E-02    0.111E-02
RMM:   3    -0.677448105409E+03    0.94883E-06   -0.40072E-06   940   0.430E-03    0.556E-03
RMM:   4    -0.677448105236E+03    0.17293E-06   -0.12314E-06   921   0.204E-03    0.910E-04
RMM:   5    -0.677448105247E+03   -0.11485E-07   -0.48229E-08   576   0.575E-04
 360 F= -.68608228E+03 E0= -.68608228E+03  d E =-.893330E-05
       N       E                     dE             d eps       ncg     rms          rms(c)
DAV:   1    -0.677448046577E+03    0.58659E-04   -0.27304E-03   952   0.116E-01    0.182E-02
RMM:   2    -0.677448049093E+03   -0.25164E-05   -0.42371E-05   936   0.138E-02    0.826E-03
RMM:   3    -0.677448048565E+03    0.52878E-06   -0.22118E-06   941   0.319E-03    0.414E-03
RMM:   4    -0.677448048475E+03    0.90033E-07   -0.67575E-07   866   0.152E-03
 361 F= -.68608229E+03 E0= -.68608229E+03  d E =-.103768E-04
       N       E                     dE             d eps       ncg     rms          rms(c)
DAV:   1    -0.677448017059E+03    0.31506E-04   -0.45448E-03   936   0.149E-01    0.178E-02
RMM:   2    -0.677448021025E+03   -0.39659E-05   -0.67748E-05   936   0.175E-02    0.105E-02
RMM:   3    -0.677448020198E+03    0.82659E-06   -0.38824E-06   939   0.419E-03    0.485E-03
RMM:   4    -0.677448020086E+03    0.11265E-06   -0.89437E-07   901   0.180E-03    0.878E-04
RMM:   5    -0.677448020105E+03   -0.19336E-07   -0.49081E-08   577   0.574E-04
 362 F= -.68608230E+03 E0= -.68608230E+03  d E =-.934676E-05
       N       E                     dE             d eps       ncg     rms          rms(c)
DAV:   1    -0.677447980700E+03    0.39385E-04   -0.48147E-03   936   0.154E-01    0.182E-02
RMM:   2    -0.677447984819E+03   -0.41186E-05   -0.71461E-05   936   0.180E-02    0.107E-02
RMM:   3    -0.677447983925E+03    0.89356E-06   -0.41255E-06   939   0.430E-03    0.495E-03
RMM:   4    -0.677447983804E+03    0.12151E-06   -0.94849E-07   908   0.184E-03    0.908E-04
RMM:   5    -0.677447983823E+03   -0.19627E-07   -0.50727E-08   579   0.583E-04
 363 F= -.68608230E+03 E0= -.68608230E+03  d E =-.118416E-04
       N       E                     dE             d eps       ncg     rms          rms(c)
DAV:   1    -0.677447960967E+03    0.22837E-04   -0.48890E-03   936   0.154E-01    0.182E-02
RMM:   2    -0.677447965144E+03   -0.41764E-05   -0.69699E-05   936   0.179E-02    0.104E-02
RMM:   3    -0.677447964395E+03    0.74845E-06   -0.38283E-06   937   0.415E-03    0.495E-03
RMM:   4    -0.677447964313E+03    0.81945E-07   -0.91837E-07   899   0.181E-03
 364 F= -.68608231E+03 E0= -.68608231E+03  d E =-.953031E-05
       N       E                     dE             d eps       ncg     rms          rms(c)
DAV:   1    -0.677447928541E+03    0.35854E-04   -0.64477E-03   936   0.177E-01    0.209E-02
RMM:   2    -0.677447934210E+03   -0.56696E-05   -0.92445E-05   936   0.206E-02    0.120E-02
RMM:   3    -0.677447933258E+03    0.95252E-06   -0.50482E-06   938   0.480E-03    0.574E-03
RMM:   4    -0.677447933144E+03    0.11408E-06   -0.12226E-06   918   0.209E-03    0.934E-04
RMM:   5    -0.677447933166E+03   -0.22112E-07   -0.53406E-08   580   0.617E-04
 365 F= -.68608231E+03 E0= -.68608231E+03  d E =-.117968E-04
       N       E                     dE             d eps       ncg     rms          rms(c)
DAV:   1    -0.677447870819E+03    0.62325E-04   -0.71939E-03   936   0.187E-01    0.215E-02
RMM:   2    -0.677447877309E+03   -0.64900E-05   -0.10550E-04   936   0.219E-02    0.127E-02
RMM:   3    -0.677447876194E+03    0.11145E-05   -0.55749E-06   936   0.511E-03    0.604E-03
RMM:   4    -0.677447876099E+03    0.95279E-07   -0.14395E-06   923   0.227E-03    0.989E-04
RMM:   5    -0.677447876128E+03   -0.28936E-07   -0.61379E-08   583   0.653E-04
 366 F= -.68608232E+03 E0= -.68608232E+03  d E =-.951300E-05
       N       E                     dE             d eps       ncg     rms          rms(c)
DAV:   1    -0.677447827517E+03    0.48582E-04   -0.37091E-03   940   0.134E-01    0.154E-02
RMM:   2    -0.677447830871E+03   -0.33535E-05   -0.54485E-05   936   0.157E-02    0.915E-03
RMM:   3    -0.677447830306E+03    0.56454E-06   -0.28832E-06   936   0.367E-03    0.434E-03
RMM:   4    -0.677447830282E+03    0.23731E-07   -0.73569E-07   868   0.163E-03
 367 F= -.68608232E+03 E0= -.68608232E+03  d E =-.114859E-04
       N       E                     dE             d eps       ncg     rms          rms(c)
DAV:   1    -0.677447797016E+03    0.33291E-04   -0.45328E-03   936   0.148E-01    0.186E-02
RMM:   2    -0.677447801306E+03   -0.42906E-05   -0.68847E-05   936   0.176E-02    0.103E-02
RMM:   3    -0.677447800600E+03    0.70615E-06   -0.36500E-06   937   0.411E-03    0.502E-03
RMM:   4    -0.677447800521E+03    0.78908E-07   -0.96122E-07   900   0.185E-03
 368 F= -.68608233E+03 E0= -.68608233E+03  d E =-.930333E-05
       N       E                     dE             d eps       ncg     rms          rms(c)
DAV:   1    -0.677447725677E+03    0.74923E-04   -0.14354E-02   936   0.264E-01    0.330E-02
RMM:   2    -0.677447739265E+03   -0.13588E-04   -0.21767E-04   936   0.313E-02    0.183E-02
RMM:   3    -0.677447736977E+03    0.22881E-05   -0.11531E-05   937   0.730E-03    0.891E-03
RMM:   4    -0.677447736631E+03    0.34591E-06   -0.30818E-06   946   0.330E-03    0.161E-03
RMM:   5    -0.677447736658E+03   -0.26695E-07   -0.14547E-07   593   0.936E-04
 369 F= -.68608234E+03 E0= -.68608234E+03  d E =-.148930E-04
       N       E                     dE             d eps       ncg     rms          rms(c)
DAV:   1    -0.677447720861E+03    0.15770E-04   -0.66474E-03   936   0.179E-01    0.204E-02
RMM:   2    -0.677447727258E+03   -0.63972E-05   -0.98095E-05   936   0.209E-02    0.122E-02
RMM:   3    -0.677447726267E+03    0.99182E-06   -0.50395E-06   938   0.479E-03    0.592E-03
RMM:   4    -0.677447726110E+03    0.15699E-06   -0.13965E-06   919   0.220E-03    0.950E-04
RMM:   5    -0.677447726114E+03   -0.40200E-08   -0.68158E-08   580   0.668E-04
 370 F= -.68608235E+03 E0= -.68608235E+03  d E =-.104245E-04
       N       E                     dE             d eps       ncg     rms          rms(c)
DAV:   1    -0.677447670532E+03    0.55578E-04   -0.27135E-02   936   0.362E-01    0.412E-02
RMM:   2    -0.677447696467E+03   -0.25935E-04   -0.39983E-04   936   0.422E-02    0.247E-02
RMM:   3    -0.677447692337E+03    0.41295E-05   -0.20488E-05   938   0.969E-03    0.120E-02
RMM:   4    -0.677447691607E+03    0.73077E-06   -0.57736E-06   956   0.446E-03    0.201E-03
RMM:   5    -0.677447691589E+03    0.17750E-07   -0.29202E-07   646   0.124E-03
 371 F= -.68608235E+03 E0= -.68608235E+03  d E =-.179842E-04
       N       E                     dE             d eps       ncg     rms          rms(c)
DAV:   1    -0.677447689757E+03    0.18493E-05   -0.84036E-03   936   0.202E-01    0.230E-02
RMM:   2    -0.677447697886E+03   -0.81289E-05   -0.12416E-04   936   0.236E-02    0.135E-02
RMM:   3    -0.677447696596E+03    0.12904E-05   -0.62230E-06   940   0.532E-03    0.668E-03
RMM:   4    -0.677447696329E+03    0.26649E-06   -0.17833E-06   932   0.248E-03    0.101E-03
RMM:   5    -0.677447696329E+03    0.54570E-09   -0.72128E-08   582   0.706E-04
 372 F= -.68608237E+03 E0= -.68608237E+03  d E =-.120284E-04
       N       E                     dE             d eps       ncg     rms          rms(c)
DAV:   1    -0.677447661253E+03    0.35076E-04   -0.38682E-02   936   0.433E-01    0.493E-02
RMM:   2    -0.677447698567E+03   -0.37314E-04   -0.57003E-04   936   0.505E-02    0.290E-02
RMM:   3    -0.677447692651E+03    0.59163E-05   -0.28519E-05   939   0.114E-02    0.143E-02
RMM:   4    -0.677447691414E+03    0.12364E-05   -0.82776E-06   956   0.532E-03    0.221E-03
RMM:   5    -0.677447691377E+03    0.37391E-07   -0.35553E-07   671   0.141E-03
 373 F= -.68608238E+03 E0= -.68608238E+03  d E =-.228914E-04
       N       E                     dE             d eps       ncg     rms          rms(c)
DAV:   1    -0.677447655809E+03    0.35605E-04   -0.12408E-02   936   0.245E-01    0.277E-02
RMM:   2    -0.677447667875E+03   -0.12066E-04   -0.18281E-04   936   0.286E-02    0.165E-02
RMM:   3    -0.677447666056E+03    0.18192E-05   -0.91482E-06   939   0.652E-03    0.805E-03
RMM:   4    -0.677447665707E+03    0.34911E-06   -0.25107E-06   940   0.295E-03    0.128E-03
RMM:   5    -0.677447665710E+03   -0.26121E-08   -0.10551E-07   588   0.820E-04
 374 F= -.68608239E+03 E0= -.68608239E+03  d E =-.155868E-04
       N       E                     dE             d eps       ncg     rms          rms(c)
DAV:   1    -0.677447475720E+03    0.18999E-03   -0.10694E-01   936   0.719E-01    0.812E-02
RMM:   2    -0.677447579199E+03   -0.10348E-03   -0.15700E-03   936   0.837E-02    0.482E-02
RMM:   3    -0.677447563442E+03    0.15757E-04   -0.78375E-05   938   0.191E-02    0.235E-02
RMM:   4    -0.677447560200E+03    0.32422E-05   -0.21612E-05   954   0.865E-03    0.378E-03
RMM:   5    -0.677447560125E+03    0.74935E-07   -0.10992E-06   911   0.232E-03    0.190E-03
RMM:   6    -0.677447560137E+03   -0.11918E-07   -0.17509E-07   595   0.844E-04
 375 F= -.68608241E+03 E0= -.68608241E+03  d E =-.311994E-04
       N       E                     dE             d eps       ncg     rms          rms(c)
DAV:   1    -0.677447499698E+03    0.60427E-04   -0.15344E-02   936   0.272E-01    0.320E-02
RMM:   2    -0.677447514550E+03   -0.14853E-04   -0.22500E-04   936   0.316E-02    0.183E-02
RMM:   3    -0.677447512246E+03    0.23042E-05   -0.11394E-05   937   0.725E-03    0.898E-03
RMM:   4    -0.677447511837E+03    0.40917E-06   -0.32377E-06   944   0.332E-03    0.151E-03
RMM:   5    -0.677447511831E+03    0.62500E-08   -0.14891E-07   596   0.929E-04
 376 F= -.68608242E+03 E0= -.68608242E+03  d E =-.152107E-04
       N       E                     dE             d eps       ncg     rms          rms(c)
DAV:   1    -0.677447310719E+03    0.20112E-03   -0.84683E-02   936   0.639E-01    0.752E-02
RMM:   2    -0.677447393138E+03   -0.82419E-04   -0.12427E-03   936   0.744E-02    0.430E-02
RMM:   3    -0.677447380347E+03    0.12790E-04   -0.62791E-05   937   0.170E-02    0.211E-02
RMM:   4    -0.677447377894E+03    0.24535E-05   -0.17816E-05   952   0.779E-03    0.360E-03
RMM:   5    -0.677447377806E+03    0.87613E-07   -0.97707E-07   894   0.216E-03
 377 F= -.68608244E+03 E0= -.68608244E+03  d E =-.305446E-04
       N       E                     dE             d eps       ncg     rms          rms(c)
DAV:   1    -0.677447342708E+03    0.35186E-04   -0.11710E-02   972   0.238E-01    0.269E-02
RMM:   2    -0.677447354348E+03   -0.11640E-04   -0.17330E-04   936   0.278E-02    0.161E-02
RMM:   3    -0.677447352558E+03    0.17893E-05   -0.89067E-06   937   0.641E-03    0.766E-03
RMM:   4    -0.677447352281E+03    0.27709E-06   -0.23570E-06   943   0.286E-03    0.126E-03
RMM:   5    -0.677447352289E+03   -0.81054E-08   -0.10879E-07   589   0.810E-04
 378 F= -.68608245E+03 E0= -.68608245E+03  d E =-.138871E-04
       N       E                     dE             d eps       ncg     rms          rms(c)
DAV:   1    -0.677447286323E+03    0.65958E-04   -0.22776E-02   936   0.332E-01    0.375E-02
RMM:   2    -0.677447308633E+03   -0.22309E-04   -0.33581E-04   936   0.386E-02    0.223E-02
RMM:   3    -0.677447305066E+03    0.35671E-05   -0.17189E-05   937   0.886E-03    0.106E-02
RMM:   4    -0.677447304485E+03    0.58126E-06   -0.45807E-06   946   0.397E-03    0.177E-03
RMM:   5    -0.677447304485E+03   -0.27285E-09   -0.21872E-07   615   0.111E-03
 379 F= -.68608246E+03 E0= -.68608246E+03  d E =-.210574E-04
       N       E                     dE             d eps       ncg     rms          rms(c)
DAV:   1    -0.677447258125E+03    0.46360E-04   -0.17635E-02   936   0.292E-01    0.330E-02
RMM:   2    -0.677447275905E+03   -0.17780E-04   -0.25996E-04   936   0.339E-02    0.195E-02
RMM:   3    -0.677447273541E+03    0.23638E-05   -0.12901E-05   940   0.775E-03    0.960E-03
RMM:   4    -0.677447273172E+03    0.36943E-06   -0.35584E-06   947   0.353E-03    0.159E-03
RMM:   5    -0.677447273168E+03    0.40382E-08   -0.16894E-07   604   0.975E-04
 380 F= -.68608248E+03 E0= -.68608248E+03  d E =-.160037E-04
       N       E                     dE             d eps       ncg     rms          rms(c)
DAV:   1    -0.677447174600E+03    0.98572E-04   -0.41876E-02   936   0.450E-01    0.508E-02
RMM:   2    -0.677447216671E+03   -0.42071E-04   -0.61726E-04   936   0.522E-02    0.301E-02
RMM:   3    -0.677447210953E+03    0.57181E-05   -0.30598E-05   941   0.120E-02    0.148E-02
RMM:   4    -0.677447209945E+03    0.10080E-05   -0.84718E-06   956   0.544E-03    0.246E-03
RMM:   5    -0.677447209916E+03    0.28842E-07   -0.43638E-07   707   0.147E-03
 381 F= -.68608249E+03 E0= -.68608249E+03  d E =-.257987E-04
       N       E                     dE             d eps       ncg     rms          rms(c)
DAV:   1    -0.677447221064E+03   -0.11119E-04   -0.28708E-02   936   0.372E-01    0.421E-02
RMM:   2    -0.677447249140E+03   -0.28076E-04   -0.42315E-04   936   0.431E-02    0.248E-02
RMM:   3    -0.677447245250E+03    0.38900E-05   -0.22014E-05   938   0.984E-03    0.123E-02
RMM:   4    -0.677447244554E+03    0.69635E-06   -0.56769E-06   955   0.446E-03    0.214E-03
RMM:   5    -0.677447244547E+03    0.69267E-08   -0.29450E-07   650   0.123E-03
 382 F= -.68608250E+03 E0= -.68608250E+03  d E =-.175184E-04
       N       E                     dE             d eps       ncg     rms          rms(c)
DAV:   1    -0.677447247714E+03   -0.31604E-05   -0.82960E-04  1024   0.632E-02    0.714E-03
RMM:   2    -0.677447248540E+03   -0.82607E-06   -0.12411E-05   936   0.738E-03    0.426E-03
RMM:   3    -0.677447248449E+03    0.91051E-07   -0.63312E-07   780   0.168E-03
 383 F= -.68608250E+03 E0= -.68608250E+03  d E =-.185131E-04
       N       E                     dE             d eps       ncg     rms          rms(c)
DAV:   1    -0.677447328604E+03   -0.80064E-04   -0.10093E-02   936   0.220E-01    0.257E-02
RMM:   2    -0.677447338039E+03   -0.94346E-05   -0.14374E-04   936   0.251E-02    0.149E-02
RMM:   3    -0.677447336544E+03    0.14951E-05   -0.75130E-06   940   0.567E-03    0.704E-03
RMM:   4    -0.677447336279E+03    0.26507E-06   -0.18480E-06   928   0.254E-03    0.117E-03
RMM:   5    -0.677447336265E+03    0.13981E-07   -0.83706E-08   581   0.731E-04
 384 F= -.68608252E+03 E0= -.68608252E+03  d E =-.135042E-04
       N       E                     dE             d eps       ncg     rms          rms(c)
DAV:   1    -0.677447367989E+03   -0.31711E-04   -0.18576E-03   972   0.944E-02    0.110E-02
RMM:   2    -0.677447369751E+03   -0.17611E-05   -0.26799E-05   936   0.109E-02    0.637E-03
RMM:   3    -0.677447369475E+03    0.27602E-06   -0.13926E-06   923   0.244E-03    0.303E-03
RMM:   4    -0.677447369424E+03    0.50357E-07   -0.32282E-07   666   0.110E-03
 385 F= -.68608252E+03 E0= -.68608252E+03  d E =-.148541E-04
       N       E                     dE             d eps       ncg     rms          rms(c)
DAV:   1    -0.677447461558E+03   -0.92083E-04   -0.44426E-03   936   0.146E-01    0.173E-02
RMM:   2    -0.677447465865E+03   -0.43070E-05   -0.64441E-05   936   0.170E-02    0.985E-03
RMM:   3    -0.677447465133E+03    0.73188E-06   -0.32694E-06   938   0.386E-03    0.475E-03
RMM:   4    -0.677447464907E+03    0.22555E-06   -0.85821E-07   879   0.174E-03    0.747E-04
RMM:   5    -0.677447464883E+03    0.24356E-07   -0.42192E-08   576   0.524E-04
 386 F= -.68608253E+03 E0= -.68608253E+03  d E =-.909721E-05
       N       E                     dE             d eps       ncg     rms          rms(c)
DAV:   1    -0.677447506595E+03   -0.41688E-04   -0.10151E-03   976   0.700E-02    0.824E-03
RMM:   2    -0.677447507571E+03   -0.97565E-06   -0.14745E-05   936   0.813E-03    0.470E-03
RMM:   3    -0.677447507379E+03    0.19158E-06   -0.73453E-07   826   0.185E-03    0.227E-03
RMM:   4    -0.677447507300E+03    0.78620E-07   -0.19585E-07   600   0.918E-04
 387 F= -.68608253E+03 E0= -.68608253E+03  d E =-.102620E-04
       N       E                     dE             d eps       ncg     rms          rms(c)
DAV:   1    -0.677447572322E+03   -0.64943E-04   -0.46518E-03   936   0.149E-01    0.183E-02
RMM:   2    -0.677447576778E+03   -0.44566E-05   -0.65999E-05   936   0.172E-02    0.100E-02
RMM:   3    -0.677447576045E+03    0.73371E-06   -0.32639E-06   941   0.388E-03    0.516E-03
RMM:   4    -0.677447575788E+03    0.25642E-06   -0.10004E-06   894   0.185E-03    0.797E-04
RMM:   5    -0.677447575765E+03    0.23414E-07   -0.45428E-08   575   0.548E-04
 388 F= -.68608254E+03 E0= -.68608254E+03  d E =-.607827E-05
       N       E                     dE             d eps       ncg     rms          rms(c)
DAV:   1    -0.677447602583E+03   -0.26794E-04   -0.85904E-04   972   0.642E-02    0.785E-03
RMM:   2    -0.677447603413E+03   -0.83033E-06   -0.12227E-05   936   0.741E-03    0.432E-03
RMM:   3    -0.677447603257E+03    0.15605E-06   -0.57917E-07   759   0.167E-03    0.223E-03
RMM:   4    -0.677447603186E+03    0.70388E-07   -0.19393E-07   594   0.910E-04
 389 F= -.68608254E+03 E0= -.68608254E+03  d E =-.671045E-05
       N       E                     dE             d eps       ncg     rms          rms(c)
DAV:   1    -0.677447612319E+03   -0.90619E-05   -0.35890E-03   936   0.130E-01    0.162E-02
RMM:   2    -0.677447615696E+03   -0.33771E-05   -0.50915E-05   936   0.151E-02    0.903E-03
RMM:   3    -0.677447615106E+03    0.58978E-06   -0.26718E-06   943   0.341E-03    0.430E-03
RMM:   4    -0.677447615001E+03    0.10527E-06   -0.70593E-07   850   0.153E-03    0.735E-04
RMM:   5    -0.677447614997E+03    0.35870E-08   -0.37008E-08   574   0.496E-04
 390 F= -.68608254E+03 E0= -.68608254E+03  d E =-.599046E-05
       N       E                     dE             d eps       ncg     rms          rms(c)
DAV:   1    -0.677447616053E+03   -0.10521E-05   -0.10399E-04   992   0.222E-02    0.275E-03
RMM:   2    -0.677447616151E+03   -0.98116E-07   -0.15103E-06   927   0.260E-03    0.155E-03
RMM:   3    -0.677447616132E+03    0.18903E-07   -0.66417E-08   572   0.588E-04
 391 F= -.68608254E+03 E0= -.68608254E+03  d E =-.613346E-05
       N       E                     dE             d eps       ncg     rms          rms(c)
DAV:   1    -0.677447590639E+03    0.25512E-04   -0.22871E-03   940   0.105E-01    0.139E-02
RMM:   2    -0.677447592896E+03   -0.22572E-05   -0.33641E-05   936   0.123E-02    0.743E-03
RMM:   3    -0.677447592592E+03    0.30382E-06   -0.18518E-06   932   0.292E-03    0.347E-03
RMM:   4    -0.677447592578E+03    0.13621E-07   -0.42744E-07   728   0.126E-03
 392 F= -.68608255E+03 E0= -.68608255E+03  d E =-.510923E-05
       N       E                     dE             d eps       ncg     rms          rms(c)
DAV:   1    -0.677447580848E+03    0.11744E-04   -0.38425E-04   956   0.429E-02    0.570E-03
RMM:   2    -0.677447581284E+03   -0.43556E-06   -0.58963E-06   936   0.516E-03    0.309E-03
RMM:   3    -0.677447581251E+03    0.32938E-07   -0.28187E-07   645   0.121E-03
 393 F= -.68608255E+03 E0= -.68608255E+03  d E =-.550909E-05
       N       E                     dE             d eps       ncg     rms          rms(c)
DAV:   1    -0.677447556640E+03    0.24644E-04   -0.19236E-03   936   0.958E-02    0.116E-02
RMM:   2    -0.677447558296E+03   -0.16562E-05   -0.27255E-05   936   0.111E-02    0.685E-03
RMM:   3    -0.677447558006E+03    0.28957E-06   -0.15611E-06   930   0.269E-03    0.335E-03
RMM:   4    -0.677447557974E+03    0.32171E-07   -0.38030E-07   705   0.120E-03
 394 F= -.68608255E+03 E0= -.68608255E+03  d E =-.498544E-05
       N       E                     dE             d eps       ncg     rms          rms(c)
DAV:   1    -0.677447529733E+03    0.28274E-04   -0.18795E-03   936   0.946E-02    0.115E-02
RMM:   2    -0.677447531424E+03   -0.16913E-05   -0.27149E-05   936   0.111E-02    0.678E-03
RMM:   3    -0.677447531139E+03    0.28524E-06   -0.15332E-06   931   0.267E-03    0.337E-03
RMM:   4    -0.677447531104E+03    0.34721E-07   -0.38117E-07   707   0.119E-03
 395 F= -.68608255E+03 E0= -.68608255E+03  d E =-.601409E-05
       N       E                     dE             d eps       ncg     rms          rms(c)
DAV:   1    -0.677447511774E+03    0.19365E-04   -0.17713E-03   936   0.916E-02    0.116E-02
RMM:   2    -0.677447513542E+03   -0.17683E-05   -0.26382E-05   936   0.108E-02    0.663E-03
RMM:   3    -0.677447513286E+03    0.25633E-06   -0.14236E-06   929   0.255E-03    0.336E-03
RMM:   4    -0.677447513264E+03    0.22155E-07   -0.38164E-07   701   0.118E-03
 396 F= -.68608256E+03 E0= -.68608256E+03  d E =-.472919E-05
       N       E                     dE             d eps       ncg     rms          rms(c)
DAV:   1    -0.677447495730E+03    0.17556E-04   -0.11363E-03   940   0.734E-02    0.930E-03
RMM:   2    -0.677447496896E+03   -0.11659E-05   -0.17092E-05   936   0.872E-03    0.533E-03
RMM:   3    -0.677447496739E+03    0.15669E-06   -0.90294E-07   861   0.205E-03    0.271E-03
RMM:   4    -0.677447496733E+03    0.65120E-08   -0.25178E-07   622   0.996E-04
 397 F= -.68608256E+03 E0= -.68608256E+03  d E =-.628461E-05
       N       E                     dE             d eps       ncg     rms          rms(c)
DAV:   1    -0.677447505935E+03   -0.91957E-05   -0.21577E-03   936   0.101E-01    0.121E-02
RMM:   2    -0.677447507757E+03   -0.18225E-05   -0.30319E-05   936   0.116E-02    0.710E-03
RMM:   3    -0.677447507404E+03    0.35337E-06   -0.17752E-06   941   0.278E-03    0.333E-03
RMM:   4    -0.677447507357E+03    0.46446E-07   -0.37091E-07   690   0.117E-03
 398 F= -.68608257E+03 E0= -.68608257E+03  d E =-.573101E-05
       N       E                     dE             d eps       ncg     rms          rms(c)
DAV:   1    -0.677447509639E+03   -0.22352E-05   -0.21510E-04   976   0.319E-02    0.383E-03
RMM:   2    -0.677447509834E+03   -0.19457E-06   -0.31314E-06   936   0.373E-03    0.229E-03
RMM:   3    -0.677447509800E+03    0.33691E-07   -0.15271E-07   596   0.877E-04
 399 F= -.68608257E+03 E0= -.68608257E+03  d E =-.662454E-05
       N       E                     dE             d eps       ncg     rms          rms(c)
DAV:   1    -0.677447534994E+03   -0.25160E-04   -0.81946E-04   936   0.632E-02    0.789E-03
RMM:   2    -0.677447535688E+03   -0.69433E-06   -0.12317E-05   936   0.755E-03    0.442E-03
RMM:   3    -0.677447535492E+03    0.19644E-06   -0.67840E-07   817   0.176E-03    0.210E-03
RMM:   4    -0.677447535445E+03    0.46824E-07   -0.17761E-07   583   0.879E-04
 400 F= -.68608257E+03 E0= -.68608257E+03  d E =-.510381E-05
       N       E                     dE             d eps       ncg     rms          rms(c)
DAV:   1    -0.677447554629E+03   -0.19137E-04   -0.67128E-04   936   0.572E-02    0.710E-03
RMM:   2    -0.677447555224E+03   -0.59485E-06   -0.10306E-05   936   0.691E-03    0.400E-03
RMM:   3    -0.677447555062E+03    0.16201E-06   -0.54143E-07   751   0.160E-03    0.193E-03
RMM:   4    -0.677447555024E+03    0.38344E-07   -0.15905E-07   577   0.852E-04
 401 F= -.68608257E+03 E0= -.68608257E+03  d E =-.609079E-05
       N       E                     dE             d eps       ncg     rms          rms(c)
DAV:   1    -0.677447575129E+03   -0.20067E-04   -0.50130E-04   940   0.493E-02    0.629E-03
RMM:   2    -0.677447575569E+03   -0.44029E-06   -0.74776E-06   936   0.587E-03    0.346E-03
RMM:   3    -0.677447575459E+03    0.11074E-06   -0.35635E-07   667   0.136E-03    0.179E-03
RMM:   4    -0.677447575430E+03    0.28518E-07   -0.14259E-07   575   0.814E-04
 402 F= -.68608258E+03 E0= -.68608258E+03  d E =-.263224E-05
       N       E                     dE             d eps       ncg     rms          rms(c)
DAV:   1    -0.677447610487E+03   -0.35028E-04   -0.18434E-03   936   0.945E-02    0.120E-02
RMM:   2    -0.677447612108E+03   -0.16217E-05   -0.27373E-05   936   0.112E-02    0.661E-03
RMM:   3    -0.677447611728E+03    0.37996E-06   -0.14407E-06   933   0.261E-03    0.342E-03
RMM:   4    -0.677447611628E+03    0.10012E-06   -0.44289E-07   743   0.124E-03    0.644E-04
RMM:   5    -0.677447611623E+03    0.51623E-08   -0.33728E-08   573   0.452E-04
 403 F= -.68608258E+03 E0= -.68608258E+03  d E =-.475905E-05
       N       E                     dE             d eps       ncg     rms          rms(c)
DAV:   1    -0.677447608092E+03    0.35363E-05   -0.68721E-04   936   0.576E-02    0.699E-03
RMM:   2    -0.677447608816E+03   -0.72407E-06   -0.10996E-05   936   0.712E-03    0.411E-03
RMM:   3    -0.677447608680E+03    0.13653E-06   -0.55646E-07   763   0.165E-03    0.202E-03
RMM:   4    -0.677447608675E+03    0.49877E-08   -0.17975E-07   580   0.914E-04
 404 F= -.68608258E+03 E0= -.68608258E+03  d E =-.362011E-05
       N       E                     dE             d eps       ncg     rms          rms(c)
DAV:   1    -0.677447602625E+03    0.60542E-05   -0.57150E-04   940   0.525E-02    0.640E-03
RMM:   2    -0.677447603262E+03   -0.63638E-06   -0.93201E-06   936   0.653E-03    0.379E-03
RMM:   3    -0.677447603152E+03    0.10993E-06   -0.45178E-07   705   0.151E-03    0.189E-03
RMM:   4    -0.677447603150E+03    0.19427E-08   -0.16526E-07   576   0.892E-04
 405 F= -.68608258E+03 E0= -.68608258E+03  d E =-.408424E-05
       N       E                     dE             d eps       ncg     rms          rms(c)
DAV:   1    -0.677447582828E+03    0.20324E-04   -0.53128E-04   936   0.511E-02    0.662E-03
RMM:   2    -0.677447583366E+03   -0.53769E-06   -0.87137E-06   936   0.633E-03    0.366E-03
RMM:   3    -0.677447583251E+03    0.11489E-06   -0.43898E-07   697   0.153E-03    0.176E-03
RMM:   4    -0.677447583251E+03   -0.60390E-09   -0.15361E-07   574   0.893E-04
 406 F= -.68608258E+03 E0= -.68608258E+03  d E =-.314749E-05
       N       E                     dE             d eps       ncg     rms          rms(c)
DAV:   1    -0.677447554677E+03    0.28573E-04   -0.85685E-04   936   0.649E-02    0.835E-03
RMM:   2    -0.677447555558E+03   -0.88070E-06   -0.14055E-05   936   0.804E-03    0.463E-03
RMM:   3    -0.677447555380E+03    0.17766E-06   -0.74167E-07   856   0.194E-03    0.224E-03
RMM:   4    -0.677447555369E+03    0.11016E-07   -0.20532E-07   594   0.947E-04
 407 F= -.68608259E+03 E0= -.68608259E+03  d E =-.446360E-05
       N       E                     dE             d eps       ncg     rms          rms(c)
DAV:   1    -0.677447544794E+03    0.10587E-04   -0.33870E-04   940   0.407E-02    0.549E-03
RMM:   2    -0.677447545111E+03   -0.31773E-06   -0.53724E-06   936   0.493E-03    0.309E-03
RMM:   3    -0.677447545053E+03    0.58375E-07   -0.27963E-07   648   0.122E-03
 408 F= -.68608259E+03 E0= -.68608259E+03  d E =-.253311E-05
       N       E                     dE             d eps       ncg     rms          rms(c)
DAV:   1    -0.677447507923E+03    0.37189E-04   -0.30329E-03   936   0.122E-01    0.164E-02
RMM:   2    -0.677447510519E+03   -0.25965E-05   -0.47061E-05   936   0.146E-02    0.917E-03
RMM:   3    -0.677447509933E+03    0.58665E-06   -0.27609E-06   940   0.360E-03    0.458E-03
RMM:   4    -0.677447509852E+03    0.81058E-07   -0.69163E-07   876   0.161E-03
 409 F= -.68608259E+03 E0= -.68608259E+03  d E =-.579824E-05
       N       E                     dE             d eps       ncg     rms          rms(c)
DAV:   1    -0.677447508839E+03    0.10939E-05   -0.84010E-04   936   0.638E-02    0.801E-03
RMM:   2    -0.677447509541E+03   -0.70184E-06   -0.13175E-05   936   0.776E-03    0.474E-03
RMM:   3    -0.677447509349E+03    0.19185E-06   -0.77689E-07   855   0.191E-03    0.232E-03
RMM:   4    -0.677447509322E+03    0.26455E-07   -0.18356E-07   579   0.915E-04
 410 F= -.68608260E+03 E0= -.68608260E+03  d E =-.307649E-05
       N       E                     dE             d eps       ncg     rms          rms(c)
DAV:   1    -0.677447505643E+03    0.37064E-05   -0.13512E-03   936   0.808E-02    0.101E-02
RMM:   2    -0.677447506751E+03   -0.11082E-05   -0.21032E-05   936   0.976E-03    0.592E-03
RMM:   3    -0.677447506442E+03    0.30874E-06   -0.12352E-06   926   0.235E-03    0.291E-03
RMM:   4    -0.677447506396E+03    0.46410E-07   -0.28697E-07   642   0.106E-03
 411 F= -.68608260E+03 E0= -.68608260E+03  d E =-.472099E-05
       N       E                     dE             d eps       ncg     rms          rms(c)
DAV:   1    -0.677447486687E+03    0.19755E-04   -0.97137E-04   936   0.688E-02    0.831E-03
RMM:   2    -0.677447487575E+03   -0.88813E-06   -0.15316E-05   936   0.830E-03    0.498E-03
RMM:   3    -0.677447487350E+03    0.22536E-06   -0.85823E-07   894   0.198E-03    0.224E-03
RMM:   4    -0.677447487333E+03    0.16676E-07   -0.18495E-07   597   0.881E-04
 412 F= -.68608260E+03 E0= -.68608260E+03  d E =-.278106E-05
       N       E                     dE             d eps       ncg     rms          rms(c)
DAV:   1    -0.677447468906E+03    0.18444E-04   -0.73600E-04   956   0.599E-02    0.722E-03
RMM:   2    -0.677447469590E+03   -0.68444E-06   -0.11682E-05   936   0.724E-03    0.434E-03
RMM:   3    -0.677447469419E+03    0.17161E-06   -0.63608E-07   816   0.172E-03    0.196E-03
RMM:   4    -0.677447469408E+03    0.10812E-07   -0.15201E-07   581   0.829E-04
 413 F= -.68608260E+03 E0= -.68608260E+03  d E =-.393835E-05
       N       E                     dE             d eps       ncg     rms          rms(c)
DAV:   1    -0.677447423242E+03    0.46176E-04   -0.10672E-03   936   0.725E-02    0.860E-03
RMM:   2    -0.677447424165E+03   -0.92283E-06   -0.16402E-05   936   0.864E-03    0.506E-03
RMM:   3    -0.677447423944E+03    0.22139E-06   -0.90073E-07   882   0.207E-03    0.235E-03
RMM:   4    -0.677447423937E+03    0.67303E-08   -0.19382E-07   599   0.910E-04
 414 F= -.68608260E+03 E0= -.68608260E+03  d E =-.365859E-05
       N       E                     dE             d eps       ncg     rms          rms(c)
DAV:   1    -0.677447367488E+03    0.56456E-04   -0.14267E-03   936   0.838E-02    0.991E-03
RMM:   2    -0.677447368744E+03   -0.12565E-05   -0.21908E-05   936   0.996E-03    0.585E-03
RMM:   3    -0.677447368455E+03    0.28956E-06   -0.12034E-06   909   0.238E-03    0.272E-03
RMM:   4    -0.677447368442E+03    0.12689E-07   -0.25973E-07   632   0.103E-03
 415 F= -.68608261E+03 E0= -.68608261E+03  d E =-.496744E-05
       N       E                     dE             d eps       ncg     rms          rms(c)
DAV:   1    -0.677447303763E+03    0.64691E-04   -0.96819E-04   936   0.694E-02    0.861E-03
RMM:   2    -0.677447304646E+03   -0.88258E-06   -0.15488E-05   936   0.849E-03    0.486E-03
RMM:   3    -0.677447304480E+03    0.16608E-06   -0.79811E-07   868   0.199E-03    0.241E-03
RMM:   4    -0.677447304503E+03   -0.22770E-07   -0.19955E-07   590   0.930E-04
 416 F= -.68608261E+03 E0= -.68608261E+03  d E =-.371696E-05
       N       E                     dE             d eps       ncg     rms          rms(c)
DAV:   1    -0.677447158721E+03    0.14576E-03   -0.45008E-03   936   0.150E-01    0.185E-02
RMM:   2    -0.677447162802E+03   -0.40802E-05   -0.71819E-05   936   0.183E-02    0.104E-02
RMM:   3    -0.677447161957E+03    0.84490E-06   -0.37372E-06   936   0.430E-03    0.514E-03
RMM:   4    -0.677447161919E+03    0.37853E-07   -0.99850E-07   902   0.190E-03
 417 F= -.68608261E+03 E0= -.68608261E+03  d E =-.693495E-05
       N       E                     dE             d eps       ncg     rms          rms(c)
DAV:   1    -0.677447101579E+03    0.60377E-04   -0.16800E-03   936   0.905E-02    0.115E-02
RMM:   2    -0.677447102997E+03   -0.14177E-05   -0.27458E-05   936   0.112E-02    0.658E-03
RMM:   3    -0.677447102706E+03    0.29093E-06   -0.14801E-06   933   0.270E-03    0.341E-03
RMM:   4    -0.677447102710E+03   -0.37107E-08   -0.35832E-07   704   0.119E-03
 418 F= -.68608262E+03 E0= -.68608262E+03  d E =-.418996E-05
       N       E                     dE             d eps       ncg     rms          rms(c)
DAV:   1    -0.677447029305E+03    0.73401E-04   -0.22553E-03   936   0.105E-01    0.132E-02
RMM:   2    -0.677447031180E+03   -0.18752E-05   -0.36574E-05   936   0.130E-02    0.753E-03
RMM:   3    -0.677447030782E+03    0.39851E-06   -0.19599E-06   937   0.308E-03    0.389E-03
RMM:   4    -0.677447030770E+03    0.11660E-07   -0.48958E-07   797   0.136E-03
 419 F= -.68608262E+03 E0= -.68608262E+03  d E =-.576038E-05
       N       E                     dE             d eps       ncg     rms          rms(c)
DAV:   1    -0.677446987601E+03    0.43181E-04   -0.18087E-03   936   0.942E-02    0.115E-02
RMM:   2    -0.677446989263E+03   -0.16624E-05   -0.29484E-05   936   0.115E-02    0.685E-03
RMM:   3    -0.677446988913E+03    0.35000E-06   -0.15824E-06   937   0.279E-03    0.351E-03
RMM:   4    -0.677446988881E+03    0.31545E-07   -0.41998E-07   755   0.127E-03
 420 F= -.68608262E+03 E0= -.68608262E+03  d E =-.440120E-05
       N       E                     dE             d eps       ncg     rms          rms(c)
DAV:   1    -0.677446907235E+03    0.81678E-04   -0.54764E-03   936   0.164E-01    0.199E-02
RMM:   2    -0.677446912268E+03   -0.50330E-05   -0.88986E-05   936   0.201E-02    0.118E-02
RMM:   3    -0.677446911203E+03    0.10648E-05   -0.47833E-06   939   0.486E-03    0.604E-03
RMM:   4    -0.677446911063E+03    0.14040E-06   -0.13191E-06   925   0.219E-03    0.133E-03
RMM:   5    -0.677446911096E+03   -0.32996E-07   -0.91749E-08   584   0.712E-04
 421 F= -.68608263E+03 E0= -.68608263E+03  d E =-.727924E-05
       N       E                     dE             d eps       ncg     rms          rms(c)
DAV:   1    -0.677446837517E+03    0.73546E-04   -0.27743E-03   936   0.117E-01    0.145E-02
RMM:   2    -0.677446840078E+03   -0.25610E-05   -0.45773E-05   936   0.144E-02    0.835E-03
RMM:   3    -0.677446839444E+03    0.63395E-06   -0.24892E-06   939   0.352E-03    0.411E-03
RMM:   4    -0.677446839362E+03    0.81862E-07   -0.66106E-07   865   0.156E-03
 422 F= -.68608263E+03 E0= -.68608263E+03  d E =-.544548E-05
       N       E                     dE             d eps       ncg     rms          rms(c)
DAV:   1    -0.677446749149E+03    0.90294E-04   -0.37180E-03   936   0.136E-01    0.169E-02
RMM:   2    -0.677446752703E+03   -0.35542E-05   -0.61964E-05   936   0.167E-02    0.976E-03
RMM:   3    -0.677446751867E+03    0.83602E-06   -0.33514E-06   939   0.413E-03    0.484E-03
RMM:   4    -0.677446751754E+03    0.11364E-06   -0.91520E-07   894   0.183E-03    0.102E-03
RMM:   5    -0.677446751779E+03   -0.24993E-07   -0.70152E-08   578   0.628E-04
 423 F= -.68608263E+03 E0= -.68608263E+03  d E =-.724852E-05
       N       E                     dE             d eps       ncg     rms          rms(c)
DAV:   1    -0.677446603030E+03    0.14872E-03   -0.31504E-03   936   0.124E-01    0.166E-02
RMM:   2    -0.677446605584E+03   -0.25545E-05   -0.50697E-05   936   0.153E-02    0.915E-03
RMM:   3    -0.677446604944E+03    0.64019E-06   -0.29833E-06   936   0.383E-03    0.432E-03
RMM:   4    -0.677446604926E+03    0.18568E-07   -0.66730E-07   874   0.159E-03
 424 F= -.68608264E+03 E0= -.68608264E+03  d E =-.469604E-05
       N       E                     dE             d eps       ncg     rms          rms(c)
DAV:   1    -0.677446495475E+03    0.10947E-03   -0.16070E-03   956   0.888E-02    0.119E-02
RMM:   2    -0.677446496837E+03   -0.13626E-05   -0.26214E-05   936   0.109E-02    0.661E-03
RMM:   3    -0.677446496524E+03    0.31330E-06   -0.15305E-06   933   0.277E-03    0.317E-03
RMM:   4    -0.677446496531E+03   -0.73596E-08   -0.32467E-07   663   0.116E-03
 425 F= -.68608264E+03 E0= -.68608264E+03  d E =-.464528E-05
       N       E                     dE             d eps       ncg     rms          rms(c)
DAV:   1    -0.677446313308E+03    0.18322E-03   -0.39975E-03   936   0.140E-01    0.173E-02
RMM:   2    -0.677446316104E+03   -0.27960E-05   -0.62392E-05   936   0.170E-02    0.983E-03
RMM:   3    -0.677446315319E+03    0.78521E-06   -0.37191E-06   936   0.424E-03    0.484E-03
RMM:   4    -0.677446315310E+03    0.93896E-08   -0.84824E-07   903   0.177E-03
 426 F= -.68608264E+03 E0= -.68608264E+03  d E =-.657194E-05
       N       E                     dE             d eps       ncg     rms          rms(c)
DAV:   1    -0.677446119325E+03    0.19599E-03   -0.42715E-03   936   0.145E-01    0.179E-02
RMM:   2    -0.677446122357E+03   -0.30325E-05   -0.66781E-05   936   0.176E-02    0.102E-02
RMM:   3    -0.677446121537E+03    0.81989E-06   -0.39858E-06   936   0.443E-03    0.503E-03
RMM:   4    -0.677446121530E+03    0.69413E-08   -0.91684E-07   916   0.185E-03
 427 F= -.68608264E+03 E0= -.68608264E+03  d E =-.693835E-05
       N       E                     dE             d eps       ncg     rms          rms(c)
DAV:   1    -0.677445937870E+03    0.18367E-03   -0.50655E-03   936   0.158E-01    0.200E-02
RMM:   2    -0.677445941885E+03   -0.40155E-05   -0.82671E-05   936   0.195E-02    0.114E-02
RMM:   3    -0.677445940853E+03    0.10323E-05   -0.46126E-06   936   0.484E-03    0.589E-03
RMM:   4    -0.677445940773E+03    0.80057E-07   -0.12664E-06   933   0.216E-03    0.131E-03
RMM:   5    -0.677445940841E+03   -0.67761E-07   -0.64900E-08   580   0.653E-04
 428 F= -.68608265E+03 E0= -.68608265E+03  d E =-.447606E-05
       N       E                     dE             d eps       ncg     rms          rms(c)
DAV:   1    -0.677445923212E+03    0.17561E-04   -0.47312E-05  1072   0.152E-02    0.190E-03
RMM:   2    -0.677445923232E+03   -0.19922E-07   -0.78518E-07   870   0.188E-03    0.114E-03
RMM:   3    -0.677445923223E+03    0.89676E-08   -0.41789E-08   557   0.497E-04
 429 F= -.68608265E+03 E0= -.68608265E+03  d E =-.469699E-05
       N       E                     dE             d eps       ncg     rms          rms(c)
DAV:   1    -0.677445850464E+03    0.72768E-04   -0.13774E-03   936   0.821E-02    0.109E-02
RMM:   2    -0.677445851407E+03   -0.94343E-06   -0.23257E-05   936   0.103E-02    0.603E-03
RMM:   3    -0.677445851076E+03    0.33129E-06   -0.13022E-06   927   0.255E-03    0.318E-03
RMM:   4    -0.677445851040E+03    0.35900E-07   -0.36882E-07   714   0.118E-03
 430 F= -.68608265E+03 E0= -.68608265E+03  d E =-.302709E-05
       N       E                     dE             d eps       ncg     rms          rms(c)
DAV:   1    -0.677445787316E+03    0.63760E-04   -0.98917E-04   936   0.695E-02    0.922E-03
RMM:   2    -0.677445788020E+03   -0.70468E-06   -0.16929E-05   936   0.875E-03    0.516E-03
RMM:   3    -0.677445787781E+03    0.23900E-06   -0.92515E-07   893   0.215E-03    0.276E-03
RMM:   4    -0.677445787759E+03    0.22283E-07   -0.26487E-07   628   0.103E-03
 431 F= -.68608265E+03 E0= -.68608265E+03  d E =-.346441E-05
       N       E                     dE             d eps       ncg     rms          rms(c)
DAV:   1    -0.677445714750E+03    0.73031E-04   -0.86988E-04   936   0.653E-02    0.925E-03
RMM:   2    -0.677445715418E+03   -0.66719E-06   -0.15052E-05   936   0.832E-03    0.481E-03
RMM:   3    -0.677445715236E+03    0.18180E-06   -0.79535E-07   867   0.202E-03    0.256E-03
RMM:   4    -0.677445715240E+03   -0.45984E-08   -0.24759E-07   612   0.993E-04
 432 F= -.68608266E+03 E0= -.68608266E+03  d E =-.273910E-05
       N       E                     dE             d eps       ncg     rms          rms(c)
DAV:   1    -0.677445599285E+03    0.11595E-03   -0.20938E-03   936   0.101E-01    0.143E-02
RMM:   2    -0.677445600930E+03   -0.16455E-05   -0.36216E-05   936   0.129E-02    0.743E-03
RMM:   3    -0.677445600489E+03    0.44161E-06   -0.19443E-06   939   0.314E-03    0.395E-03
RMM:   4    -0.677445600455E+03    0.33822E-07   -0.61875E-07   845   0.146E-03
 433 F= -.68608266E+03 E0= -.68608266E+03  d E =-.469480E-05
       N       E                     dE             d eps       ncg     rms          rms(c)
DAV:   1    -0.677445503442E+03    0.97047E-04   -0.11152E-03   936   0.739E-02    0.102E-02
RMM:   2    -0.677445504258E+03   -0.81620E-06   -0.19327E-05   936   0.950E-03    0.550E-03
RMM:   3    -0.677445504043E+03    0.21494E-06   -0.10727E-06   897   0.233E-03    0.294E-03
RMM:   4    -0.677445504060E+03   -0.16611E-07   -0.29143E-07   646   0.107E-03
 434 F= -.68608266E+03 E0= -.68608266E+03  d E =-.320662E-05
       N       E                     dE             d eps       ncg     rms          rms(c)
DAV:   1    -0.677445402499E+03    0.10154E-03   -0.11690E-03   936   0.755E-02    0.104E-02
RMM:   2    -0.677445403352E+03   -0.85333E-06   -0.20156E-05   936   0.969E-03    0.560E-03
RMM:   3    -0.677445403128E+03    0.22370E-06   -0.11176E-06   905   0.236E-03    0.300E-03
RMM:   4    -0.677445403143E+03   -0.14483E-07   -0.29712E-07   650   0.107E-03
 435 F= -.68608266E+03 E0= -.68608266E+03  d E =-.432642E-05
       N       E                     dE             d eps       ncg     rms          rms(c)
DAV:   1    -0.677445315265E+03    0.87863E-04   -0.92457E-04   940   0.680E-02    0.965E-03
RMM:   2    -0.677445316046E+03   -0.78094E-06   -0.16444E-05   936   0.874E-03    0.495E-03
RMM:   3    -0.677445315880E+03    0.16596E-06   -0.84632E-07   882   0.214E-03    0.267E-03
RMM:   4    -0.677445315910E+03   -0.29617E-07   -0.25125E-07   601   0.102E-03
 436 F= -.68608266E+03 E0= -.68608266E+03  d E =-.145911E-05
       N       E                     dE             d eps       ncg     rms          rms(c)
DAV:   1    -0.677445247226E+03    0.68654E-04   -0.55365E-04   972   0.526E-02    0.742E-03
RMM:   2    -0.677445247700E+03   -0.47389E-06   -0.99208E-06   936   0.677E-03    0.385E-03
RMM:   3    -0.677445247604E+03    0.95744E-07   -0.48169E-07   762   0.166E-03
 437 F= -.68608266E+03 E0= -.68608266E+03  d E =-.176566E-05
       N       E                     dE             d eps       ncg     rms          rms(c)
DAV:   1    -0.677445177179E+03    0.70521E-04   -0.12016E-03   936   0.777E-02    0.107E-02
RMM:   2    -0.677445178049E+03   -0.87010E-06   -0.20152E-05   936   0.953E-03    0.574E-03
RMM:   3    -0.677445177794E+03    0.25535E-06   -0.10740E-06   920   0.235E-03    0.310E-03
RMM:   4    -0.677445177796E+03   -0.28595E-08   -0.34423E-07   692   0.115E-03
 438 F= -.68608267E+03 E0= -.68608267E+03  d E =-.202396E-05
       N       E                     dE             d eps       ncg     rms          rms(c)
DAV:   1    -0.677445118618E+03    0.59176E-04   -0.82005E-04   936   0.639E-02    0.867E-03
RMM:   2    -0.677445119259E+03   -0.64145E-06   -0.14060E-05   936   0.789E-03    0.468E-03
RMM:   3    -0.677445119076E+03    0.18336E-06   -0.69260E-07   842   0.189E-03    0.258E-03
RMM:   4    -0.677445119079E+03   -0.29431E-08   -0.24963E-07   594   0.999E-04
 439 F= -.68608267E+03 E0= -.68608267E+03  d E =-.238433E-05
       N       E                     dE             d eps       ncg     rms          rms(c)
DAV:   1    -0.677445004569E+03    0.11451E-03   -0.13751E-03   936   0.824E-02    0.116E-02
RMM:   2    -0.677445005541E+03   -0.97145E-06   -0.24078E-05   936   0.105E-02    0.627E-03
RMM:   3    -0.677445005224E+03    0.31724E-06   -0.14517E-06   936   0.270E-03    0.309E-03
RMM:   4    -0.677445005238E+03   -0.14519E-07   -0.35603E-07   698   0.118E-03
 440 F= -.68608267E+03 E0= -.68608267E+03  d E =-.234429E-05
       N       E                     dE             d eps       ncg     rms          rms(c)
DAV:   1    -0.677444962693E+03    0.42530E-04   -0.18324E-04  1008   0.301E-02    0.422E-03
RMM:   2    -0.677444962819E+03   -0.12575E-06   -0.32605E-06   936   0.382E-03    0.232E-03
RMM:   3    -0.677444962783E+03    0.35543E-07   -0.15801E-07   579   0.963E-04
 441 F= -.68608267E+03 E0= -.68608267E+03  d E =-.237186E-05
       N       E                     dE             d eps       ncg     rms          rms(c)
DAV:   1    -0.677444827648E+03    0.13517E-03   -0.90689E-04   936   0.677E-02    0.976E-03
RMM:   2    -0.677444827939E+03   -0.29086E-06   -0.15317E-05   936   0.871E-03    0.534E-03
RMM:   3    -0.677444827724E+03    0.21472E-06   -0.11078E-06   932   0.226E-03    0.243E-03
RMM:   4    -0.677444827771E+03   -0.47195E-07   -0.19165E-07   585   0.903E-04
 442 F= -.68608267E+03 E0= -.68608267E+03  d E =-.198335E-05
       N       E                     dE             d eps       ncg     rms          rms(c)
DAV:   1    -0.677444746060E+03    0.81664E-04   -0.32356E-04   940   0.402E-02    0.575E-03
RMM:   2    -0.677444746158E+03   -0.97662E-07   -0.55047E-06   936   0.517E-03    0.316E-03
RMM:   3    -0.677444746089E+03    0.68667E-07   -0.34753E-07   665   0.134E-03
 443 F= -.68608267E+03 E0= -.68608267E+03  d E =-.205982E-05
       N       E                     dE             d eps       ncg     rms          rms(c)
DAV:   1    -0.677444620560E+03    0.12560E-03   -0.10237E-03   936   0.718E-02    0.111E-02
RMM:   2    -0.677444620900E+03   -0.34007E-06   -0.17590E-05   936   0.934E-03    0.556E-03
RMM:   3    -0.677444620655E+03    0.24477E-06   -0.10979E-06   927   0.234E-03    0.293E-03
RMM:   4    -0.677444620671E+03   -0.15767E-07   -0.28707E-07   638   0.106E-03
 444 F= -.68608267E+03 E0= -.68608267E+03  d E =-.254635E-05
       N       E                     dE             d eps       ncg     rms          rms(c)
DAV:   1    -0.677444584699E+03    0.35956E-04   -0.81169E-05  1024   0.200E-02    0.304E-03
RMM:   2    -0.677444584727E+03   -0.27820E-07   -0.14107E-06   936   0.257E-03    0.160E-03
RMM:   3    -0.677444584714E+03    0.12849E-07   -0.67647E-08   571   0.642E-04
 445 F= -.68608267E+03 E0= -.68608267E+03  d E =-.260510E-05
       N       E                     dE             d eps       ncg     rms          rms(c)
DAV:   1    -0.677444488472E+03    0.96255E-04   -0.11594E-03   936   0.758E-02    0.112E-02
RMM:   2    -0.677444489072E+03   -0.59914E-06   -0.20381E-05   936   0.985E-03    0.596E-03
RMM:   3    -0.677444488795E+03    0.27629E-06   -0.11129E-06   908   0.243E-03    0.349E-03
RMM:   4    -0.677444488776E+03    0.19390E-07   -0.41237E-07   740   0.120E-03
 446 F= -.68608267E+03 E0= -.68608267E+03  d E =-.178571E-05
       N       E                     dE             d eps       ncg     rms          rms(c)
DAV:   1    -0.677444428810E+03    0.59985E-04   -0.43634E-04   940   0.463E-02    0.686E-03
RMM:   2    -0.677444429038E+03   -0.22724E-06   -0.78007E-06   936   0.603E-03    0.374E-03
RMM:   3    -0.677444428932E+03    0.10604E-06   -0.37471E-07   680   0.149E-03    0.222E-03
RMM:   4    -0.677444428949E+03   -0.17175E-07   -0.19976E-07   578   0.105E-03
 447 F= -.68608267E+03 E0= -.68608267E+03  d E =-.185560E-05
       N       E                     dE             d eps       ncg     rms          rms(c)
DAV:   1    -0.677444347410E+03    0.81522E-04   -0.58707E-04   936   0.540E-02    0.757E-03
RMM:   2    -0.677444347820E+03   -0.41079E-06   -0.10456E-05   936   0.707E-03    0.393E-03
RMM:   3    -0.677444347716E+03    0.10478E-06   -0.53642E-07   799   0.175E-03    0.215E-03
RMM:   4    -0.677444347747E+03   -0.31050E-07   -0.18754E-07   578   0.930E-04
 448 F= -.68608268E+03 E0= -.68608268E+03  d E =-.168923E-05
       N       E                     dE             d eps       ncg     rms          rms(c)
DAV:   1    -0.677444187646E+03    0.16007E-03   -0.21820E-03   936   0.104E-01    0.146E-02
RMM:   2    -0.677444189228E+03   -0.15822E-05   -0.38888E-05   936   0.137E-02    0.757E-03
RMM:   3    -0.677444188801E+03    0.42740E-06   -0.20915E-06   940   0.334E-03    0.410E-03
RMM:   4    -0.677444188794E+03    0.64829E-08   -0.66649E-07   858   0.151E-03
 449 F= -.68608268E+03 E0= -.68608268E+03  d E =-.245393E-05
       N       E                     dE             d eps       ncg     rms          rms(c)
DAV:   1    -0.677444122447E+03    0.66354E-04   -0.79051E-04   936   0.620E-02    0.836E-03
RMM:   2    -0.677444122953E+03   -0.50529E-06   -0.12701E-05   936   0.768E-03    0.483E-03
RMM:   3    -0.677444122807E+03    0.14560E-06   -0.74557E-07   867   0.192E-03    0.238E-03
RMM:   4    -0.677444122831E+03   -0.24564E-07   -0.18422E-07   580   0.907E-04
 450 F= -.68608268E+03 E0= -.68608268E+03  d E =-.191082E-05
       N       E                     dE             d eps       ncg     rms          rms(c)
DAV:   1    -0.677444049446E+03    0.73361E-04   -0.93295E-04   936   0.673E-02    0.919E-03
RMM:   2    -0.677444050037E+03   -0.59108E-06   -0.14901E-05   936   0.832E-03    0.530E-03
RMM:   3    -0.677444049856E+03    0.18120E-06   -0.87750E-07   897   0.206E-03    0.258E-03
RMM:   4    -0.677444049872E+03   -0.16542E-07   -0.20465E-07   586   0.937E-04
 451 F= -.68608268E+03 E0= -.68608268E+03  d E =-.263485E-05
       N       E                     dE             d eps       ncg     rms          rms(c)
DAV:   1    -0.677444005096E+03    0.44759E-04   -0.10567E-03   936   0.712E-02    0.947E-03
RMM:   2    -0.677444005738E+03   -0.64200E-06   -0.15742E-05   936   0.842E-03    0.554E-03
RMM:   3    -0.677444005506E+03    0.23274E-06   -0.91961E-07   912   0.203E-03    0.263E-03
RMM:   4    -0.677444005502E+03    0.36671E-08   -0.21744E-07   595   0.927E-04
 452 F= -.68608268E+03 E0= -.68608268E+03  d E =-.224560E-05
       N       E                     dE             d eps       ncg     rms          rms(c)
DAV:   1    -0.677443956341E+03    0.49165E-04   -0.11769E-03   936   0.751E-02    0.100E-02
RMM:   2    -0.677443957062E+03   -0.72073E-06   -0.17618E-05   936   0.892E-03    0.585E-03
RMM:   3    -0.677443956802E+03    0.26016E-06   -0.10308E-06   923   0.216E-03    0.279E-03
RMM:   4    -0.677443956795E+03    0.71523E-08   -0.24439E-07   608   0.978E-04
 453 F= -.68608268E+03 E0= -.68608268E+03  d E =-.271813E-05
       N       E                     dE             d eps       ncg     rms          rms(c)
DAV:   1    -0.677443904171E+03    0.52631E-04   -0.13738E-03   936   0.812E-02    0.114E-02
RMM:   2    -0.677443905036E+03   -0.86481E-06   -0.20990E-05   936   0.979E-03    0.621E-03
RMM:   3    -0.677443904712E+03    0.32357E-06   -0.11735E-06   937   0.232E-03    0.317E-03
RMM:   4    -0.677443904699E+03    0.13621E-07   -0.33577E-07   689   0.110E-03
 454 F= -.68608268E+03 E0= -.68608268E+03  d E =-.220136E-05
       N       E                     dE             d eps       ncg     rms          rms(c)
DAV:   1    -0.677443871905E+03    0.32807E-04   -0.49813E-04   960   0.490E-02    0.688E-03
RMM:   2    -0.677443872206E+03   -0.30068E-06   -0.77286E-06   936   0.594E-03    0.381E-03
RMM:   3    -0.677443872088E+03    0.11775E-06   -0.39298E-07   696   0.140E-03    0.198E-03
RMM:   4    -0.677443872104E+03   -0.16531E-07   -0.15031E-07   574   0.857E-04
 455 F= -.68608268E+03 E0= -.68608268E+03  d E =-.231269E-05
       N       E                     dE             d eps       ncg     rms          rms(c)
DAV:   1    -0.677443746124E+03    0.12596E-03   -0.14202E-03   936   0.836E-02    0.124E-02
RMM:   2    -0.677443746898E+03   -0.77355E-06   -0.23209E-05   936   0.106E-02    0.666E-03
RMM:   3    -0.677443746617E+03    0.28146E-06   -0.13227E-06   936   0.260E-03    0.370E-03
RMM:   4    -0.677443746668E+03   -0.51146E-07   -0.42672E-07   763   0.123E-03
 456 F= -.68608269E+03 E0= -.68608269E+03  d E =-.228208E-05
       N       E                     dE             d eps       ncg     rms          rms(c)
DAV:   1    -0.677443646451E+03    0.10017E-03   -0.87027E-04   936   0.655E-02    0.969E-03
RMM:   2    -0.677443646940E+03   -0.48859E-06   -0.14317E-05   936   0.824E-03    0.531E-03
RMM:   3    -0.677443646779E+03    0.16126E-06   -0.79549E-07   884   0.203E-03    0.298E-03
RMM:   4    -0.677443646836E+03   -0.57560E-07   -0.25973E-07   612   0.101E-03
 457 F= -.68608269E+03 E0= -.68608269E+03  d E =-.242079E-05
       N       E                     dE             d eps       ncg     rms          rms(c)
DAV:   1    -0.677443474171E+03    0.17261E-03   -0.16022E-03   936   0.895E-02    0.126E-02
RMM:   2    -0.677443474851E+03   -0.67949E-06   -0.26047E-05   936   0.114E-02    0.661E-03
RMM:   3    -0.677443474579E+03    0.27136E-06   -0.17294E-06   938   0.287E-03    0.312E-03
RMM:   4    -0.677443474657E+03   -0.77584E-07   -0.31194E-07   669   0.111E-03
 458 F= -.68608269E+03 E0= -.68608269E+03  d E =-.138168E-05
       N       E                     dE             d eps       ncg     rms          rms(c)
DAV:   1    -0.677443364757E+03    0.10982E-03   -0.63543E-04   936   0.565E-02    0.793E-03
RMM:   2    -0.677443365023E+03   -0.26644E-06   -0.10425E-05   936   0.725E-03    0.419E-03
RMM:   3    -0.677443364944E+03    0.79741E-07   -0.67422E-07   855   0.180E-03
 459 F= -.68608269E+03 E0= -.68608269E+03  d E =-.109200E-05
       N       E                     dE             d eps       ncg     rms          rms(c)
DAV:   1    -0.677443261690E+03    0.10333E-03   -0.19054E-03   936   0.972E-02    0.133E-02
RMM:   2    -0.677443263236E+03   -0.15460E-05   -0.30122E-05   936   0.121E-02    0.736E-03
RMM:   3    -0.677443262953E+03    0.28308E-06   -0.16777E-06   934   0.289E-03    0.345E-03
RMM:   4    -0.677443262980E+03   -0.26881E-07   -0.38363E-07   719   0.122E-03
 460 F= -.68608269E+03 E0= -.68608269E+03  d E =-.272748E-05
       N       E                     dE             d eps       ncg     rms          rms(c)
DAV:   1    -0.677443211445E+03    0.51509E-04   -0.45769E-04   976   0.475E-02    0.639E-03
RMM:   2    -0.677443211848E+03   -0.40344E-06   -0.73684E-06   936   0.591E-03    0.356E-03
RMM:   3    -0.677443211798E+03    0.50542E-07   -0.35562E-07   668   0.141E-03
 461 F= -.68608269E+03 E0= -.68608269E+03  d E =-.275404E-05
       N       E                     dE             d eps       ncg     rms          rms(c)
DAV:   1    -0.677443211291E+03    0.55668E-06   -0.15010E-03   936   0.856E-02    0.106E-02
RMM:   2    -0.677443212501E+03   -0.12096E-05   -0.22284E-05   936   0.101E-02    0.605E-03
RMM:   3    -0.677443212189E+03    0.31182E-06   -0.10925E-06   912   0.232E-03    0.307E-03
RMM:   4    -0.677443212117E+03    0.72407E-07   -0.35292E-07   704   0.114E-03
 462 F= -.68608269E+03 E0= -.68608269E+03  d E =-.252281E-05
       N       E                     dE             d eps       ncg     rms          rms(c)
DAV:   1    -0.677443208491E+03    0.36979E-05   -0.29238E-03   936   0.119E-01    0.147E-02
RMM:   2    -0.677443211044E+03   -0.25525E-05   -0.44174E-05   936   0.142E-02    0.835E-03
RMM:   3    -0.677443210462E+03    0.58177E-06   -0.21027E-06   938   0.320E-03    0.433E-03
RMM:   4    -0.677443210315E+03    0.14708E-06   -0.73616E-07   870   0.158E-03    0.674E-04
RMM:   5    -0.677443210324E+03   -0.95824E-08   -0.32751E-08   575   0.465E-04
 463 F= -.68608269E+03 E0= -.68608269E+03  d E =-.382063E-05
       N       E                     dE             d eps       ncg     rms          rms(c)
DAV:   1    -0.677443223079E+03   -0.12764E-04   -0.13996E-03   936   0.824E-02    0.103E-02
RMM:   2    -0.677443224344E+03   -0.12650E-05   -0.21166E-05   936   0.982E-03    0.580E-03
RMM:   3    -0.677443224061E+03    0.28302E-06   -0.10037E-06   912   0.220E-03    0.294E-03
RMM:   4    -0.677443223993E+03    0.68190E-07   -0.30764E-07   665   0.107E-03
 464 F= -.68608270E+03 E0= -.68608270E+03  d E =-.217822E-05
       N       E                     dE             d eps       ncg     rms          rms(c)
DAV:   1    -0.677443242046E+03   -0.17985E-04   -0.40928E-03   936   0.141E-01    0.176E-02
RMM:   2    -0.677443245941E+03   -0.38950E-05   -0.62196E-05   936   0.168E-02    0.993E-03
RMM:   3    -0.677443245188E+03    0.75276E-06   -0.29449E-06   940   0.376E-03    0.507E-03
RMM:   4    -0.677443245009E+03    0.17981E-06   -0.94304E-07   890   0.181E-03    0.762E-04
RMM:   5    -0.677443245021E+03   -0.12042E-07   -0.42748E-08   576   0.528E-04
 465 F= -.68608270E+03 E0= -.68608270E+03  d E =-.357379E-05
       N       E                     dE             d eps       ncg     rms          rms(c)
DAV:   1    -0.677443221046E+03    0.23963E-04   -0.18404E-03   936   0.944E-02    0.112E-02
RMM:   2    -0.677443222521E+03   -0.14746E-05   -0.26391E-05   936   0.110E-02    0.661E-03
RMM:   3    -0.677443222194E+03    0.32619E-06   -0.14641E-06   936   0.258E-03    0.303E-03
RMM:   4    -0.677443222181E+03    0.13551E-07   -0.30794E-07   669   0.109E-03
 466 F= -.68608270E+03 E0= -.68608270E+03  d E =-.252690E-05
       N       E                     dE             d eps       ncg     rms          rms(c)
DAV:   1    -0.677443194099E+03    0.28095E-04   -0.21369E-03   936   0.102E-01    0.121E-02
RMM:   2    -0.677443195861E+03   -0.17619E-05   -0.30791E-05   936   0.119E-02    0.715E-03
RMM:   3    -0.677443195499E+03    0.36276E-06   -0.16874E-06   936   0.277E-03    0.331E-03
RMM:   4    -0.677443195480E+03    0.18343E-07   -0.36236E-07   697   0.118E-03
 467 F= -.68608270E+03 E0= -.68608270E+03  d E =-.314651E-05
       N       E                     dE             d eps       ncg     rms          rms(c)
DAV:   1    -0.677443135854E+03    0.59645E-04   -0.15761E-03   952   0.877E-02    0.107E-02
RMM:   2    -0.677443137099E+03   -0.12458E-05   -0.22687E-05   936   0.103E-02    0.618E-03
RMM:   3    -0.677443136864E+03    0.23510E-06   -0.12812E-06   930   0.247E-03    0.280E-03
RMM:   4    -0.677443136896E+03   -0.31236E-07   -0.25797E-07   630   0.103E-03
 468 F= -.68608270E+03 E0= -.68608270E+03  d E =-.314288E-05
       N       E                     dE             d eps       ncg     rms          rms(c)
DAV:   1    -0.677442970839E+03    0.16603E-03   -0.10809E-02   936   0.230E-01    0.281E-02
RMM:   2    -0.677442979292E+03   -0.84533E-05   -0.15462E-04   936   0.269E-02    0.161E-02
RMM:   3    -0.677442977424E+03    0.18680E-05   -0.87687E-06   937   0.646E-03    0.727E-03
RMM:   4    -0.677442977311E+03    0.11249E-06   -0.19238E-06   936   0.267E-03    0.142E-03
RMM:   5    -0.677442977369E+03   -0.57422E-07   -0.92043E-08   581   0.789E-04
 469 F= -.68608271E+03 E0= -.68608271E+03  d E =-.534490E-05
       N       E                     dE             d eps       ncg     rms          rms(c)
DAV:   1    -0.677442894460E+03    0.82851E-04   -0.34308E-03   936   0.129E-01    0.160E-02
RMM:   2    -0.677442897170E+03   -0.27098E-05   -0.50749E-05   936   0.153E-02    0.916E-03
RMM:   3    -0.677442896610E+03    0.56048E-06   -0.28351E-06   937   0.367E-03    0.430E-03
RMM:   4    -0.677442896628E+03   -0.18197E-07   -0.64732E-07   847   0.156E-03
 470 F= -.68608271E+03 E0= -.68608271E+03  d E =-.297111E-05
       N       E                     dE             d eps       ncg     rms          rms(c)
DAV:   1    -0.677442813070E+03    0.83540E-04   -0.33080E-03   936   0.127E-01    0.158E-02
RMM:   2    -0.677442815760E+03   -0.26905E-05   -0.49180E-05   936   0.150E-02    0.904E-03
RMM:   3    -0.677442815245E+03    0.51561E-06   -0.27206E-06   937   0.362E-03    0.427E-03
RMM:   4    -0.677442815267E+03   -0.21832E-07   -0.62649E-07   842   0.154E-03
 471 F= -.68608271E+03 E0= -.68608271E+03  d E =-.394789E-05
       N       E                     dE             d eps       ncg     rms          rms(c)
DAV:   1    -0.677442769883E+03    0.45362E-04   -0.35962E-03   936   0.132E-01    0.162E-02
RMM:   2    -0.677442773270E+03   -0.33870E-05   -0.54304E-05   936   0.156E-02    0.936E-03
RMM:   3    -0.677442772720E+03    0.54956E-06   -0.26965E-06   938   0.355E-03    0.456E-03
RMM:   4    -0.677442772713E+03    0.75343E-08   -0.74614E-07   863   0.162E-03
 472 F= -.68608272E+03 E0= -.68608272E+03  d E =-.414905E-05
       N       E                     dE             d eps       ncg     rms          rms(c)
DAV:   1    -0.677442717517E+03    0.55203E-04   -0.46345E-03   936   0.150E-01    0.184E-02
RMM:   2    -0.677442721910E+03   -0.43926E-05   -0.70239E-05   936   0.178E-02    0.106E-02
RMM:   3    -0.677442721191E+03    0.71882E-06   -0.34793E-06   938   0.405E-03    0.519E-03
RMM:   4    -0.677442721163E+03    0.27921E-07   -0.97889E-07   894   0.185E-03
 473 F= -.68608272E+03 E0= -.68608272E+03  d E =-.569546E-05
       N       E                     dE             d eps       ncg     rms          rms(c)
DAV:   1    -0.677442725892E+03   -0.47009E-05   -0.33162E-03   936   0.127E-01    0.151E-02
RMM:   2    -0.677442728980E+03   -0.30882E-05   -0.49294E-05   936   0.149E-02    0.903E-03
RMM:   3    -0.677442728381E+03    0.59863E-06   -0.24627E-06   936   0.335E-03    0.435E-03
RMM:   4    -0.677442728294E+03    0.87486E-07   -0.69499E-07   868   0.156E-03
 474 F= -.68608272E+03 E0= -.68608272E+03  d E =-.433679E-05
       N       E                     dE             d eps       ncg     rms          rms(c)
DAV:   1    -0.677442728555E+03   -0.17404E-06   -0.37188E-04   992   0.425E-02    0.509E-03
RMM:   2    -0.677442728901E+03   -0.34600E-06   -0.56956E-06   936   0.507E-03    0.308E-03
RMM:   3    -0.677442728833E+03    0.68590E-07   -0.24972E-07   625   0.116E-03
 475 F= -.68608272E+03 E0= -.68608272E+03  d E =-.394532E-05
       N       E                     dE             d eps       ncg     rms          rms(c)
DAV:   1    -0.677442750603E+03   -0.21702E-04   -0.46846E-04   976   0.482E-02    0.641E-03
RMM:   2    -0.677442751121E+03   -0.51777E-06   -0.77602E-06   936   0.609E-03    0.352E-03
RMM:   3    -0.677442751018E+03    0.10253E-06   -0.31862E-07   652   0.137E-03    0.191E-03
RMM:   4    -0.677442750981E+03    0.37609E-07   -0.15088E-07   574   0.870E-04
 476 F= -.68608272E+03 E0= -.68608272E+03  d E =-.240524E-05
       N       E                     dE             d eps       ncg     rms          rms(c)
DAV:   1    -0.677442764831E+03   -0.13812E-04   -0.22420E-04   992   0.333E-02    0.443E-03
RMM:   2    -0.677442765090E+03   -0.25924E-06   -0.38722E-06   936   0.432E-03    0.247E-03
RMM:   3    -0.677442765035E+03    0.55148E-07   -0.14301E-07   577   0.973E-04
 477 F= -.68608272E+03 E0= -.68608272E+03  d E =-.286844E-05
       N       E                     dE             d eps       ncg     rms          rms(c)
DAV:   1    -0.677442817503E+03   -0.52414E-04   -0.67054E-04   936   0.576E-02    0.744E-03
RMM:   2    -0.677442818173E+03   -0.67009E-06   -0.10720E-05   936   0.710E-03    0.390E-03
RMM:   3    -0.677442818016E+03    0.15750E-06   -0.44760E-07   729   0.160E-03    0.227E-03
RMM:   4    -0.677442817906E+03    0.10970E-06   -0.21453E-07   589   0.981E-04    0.393E-04
RMM:   5    -0.677442817900E+03    0.62100E-08   -0.34845E-08   565   0.564E-04
 478 F= -.68608272E+03 E0= -.68608272E+03  d E =-.148129E-05
       N       E                     dE             d eps       ncg     rms          rms(c)
DAV:   1    -0.677442834107E+03   -0.16201E-04   -0.66060E-05   992   0.181E-02    0.236E-03
RMM:   2    -0.677442834169E+03   -0.61518E-07   -0.10989E-06   929   0.228E-03    0.125E-03
RMM:   3    -0.677442834142E+03    0.26375E-07   -0.39486E-08   557   0.516E-04
 479 F= -.68608273E+03 E0= -.68608273E+03  d E =-.164347E-05
       N       E                     dE             d eps       ncg     rms          rms(c)
DAV:   1    -0.677442868627E+03   -0.34458E-04   -0.44342E-04   952   0.476E-02    0.591E-03
RMM:   2    -0.677442869236E+03   -0.60943E-06   -0.80946E-06   936   0.616E-03    0.307E-03
RMM:   3    -0.677442869113E+03    0.12357E-06   -0.31386E-07   657   0.135E-03    0.160E-03
RMM:   4    -0.677442869042E+03    0.70901E-07   -0.13083E-07   571   0.818E-04
 480 F= -.68608273E+03 E0= -.68608273E+03  d E =-.107623E-05
       N       E                     dE             d eps       ncg     rms          rms(c)
DAV:   1    -0.677442872312E+03   -0.31989E-05   -0.41410E-06  1120   0.468E-03    0.606E-04
RMM:   2    -0.677442872314E+03   -0.19281E-08   -0.84328E-08   521   0.700E-04    0.331E-04
RMM:   3    -0.677442872312E+03    0.16807E-08   -0.12085E-08   500   0.313E-04
 481 F= -.68608273E+03 E0= -.68608273E+03  d E =-.108029E-05
       N       E                     dE             d eps       ncg     rms          rms(c)
DAV:   1    -0.677442865690E+03    0.66241E-05   -0.20905E-04   936   0.322E-02    0.382E-03
RMM:   2    -0.677442865961E+03   -0.27143E-06   -0.38378E-06   936   0.414E-03    0.228E-03
RMM:   3    -0.677442865929E+03    0.32327E-07   -0.14575E-07   589   0.922E-04
 482 F= -.68608273E+03 E0= -.68608273E+03  d E =-.979950E-06
       N       E                     dE             d eps       ncg     rms          rms(c)
DAV:   1    -0.677442860074E+03    0.58865E-05   -0.13098E-04   940   0.256E-02    0.307E-03
RMM:   2    -0.677442860243E+03   -0.16815E-06   -0.23177E-06   936   0.322E-03    0.186E-03
RMM:   3    -0.677442860233E+03    0.92987E-08   -0.86026E-08   567   0.733E-04
 483 F= -.68608273E+03 E0= -.68608273E+03  d E =-.117339E-05
       N       E                     dE             d eps       ncg     rms          rms(c)
DAV:   1    -0.677442850528E+03    0.97149E-05   -0.12977E-04   936   0.255E-02    0.314E-03
RMM:   2    -0.677442850742E+03   -0.21389E-06   -0.23863E-06   936   0.331E-03    0.177E-03
RMM:   3    -0.677442850752E+03   -0.10572E-07   -0.87256E-08   569   0.768E-04
 484 F= -.68608273E+03 E0= -.68608273E+03  d E =-.893735E-06
       N       E                     dE             d eps       ncg     rms          rms(c)
DAV:   1    -0.677442837781E+03    0.12961E-04   -0.20531E-04   936   0.321E-02    0.389E-03
RMM:   2    -0.677442838106E+03   -0.32548E-06   -0.37525E-06   936   0.415E-03    0.222E-03
RMM:   3    -0.677442838112E+03   -0.58644E-08   -0.13472E-07   576   0.951E-04
 485 F= -.68608273E+03 E0= -.68608273E+03  d E =-.130734E-05
       N       E                     dE             d eps       ncg     rms          rms(c)
DAV:   1    -0.677442843218E+03   -0.51121E-05   -0.15223E-04   940   0.275E-02    0.339E-03
RMM:   2    -0.677442843440E+03   -0.22146E-06   -0.28333E-06   936   0.360E-03    0.187E-03
RMM:   3    -0.677442843424E+03    0.15745E-07   -0.10457E-07   577   0.810E-04
 486 F= -.68608273E+03 E0= -.68608273E+03  d E =-.100614E-05
       N       E                     dE             d eps       ncg     rms          rms(c)
DAV:   1    -0.677442848705E+03   -0.52657E-05   -0.21328E-04   936   0.325E-02    0.403E-03
RMM:   2    -0.677442849011E+03   -0.30556E-06   -0.39244E-06   936   0.421E-03    0.221E-03
RMM:   3    -0.677442848984E+03    0.27147E-07   -0.14141E-07   585   0.932E-04
 487 F= -.68608273E+03 E0= -.68608273E+03  d E =-.147721E-05
       N       E                     dE             d eps       ncg     rms          rms(c)
DAV:   1    -0.677442872553E+03   -0.23542E-04   -0.18517E-04   936   0.304E-02    0.416E-03
RMM:   2    -0.677442872810E+03   -0.25697E-06   -0.35911E-06   936   0.400E-03    0.216E-03
RMM:   3    -0.677442872763E+03    0.46861E-07   -0.13637E-07   578   0.942E-04
 488 F= -.68608273E+03 E0= -.68608273E+03  d E =-.101869E-05
       N       E                     dE             d eps       ncg     rms          rms(c)
DAV:   1    -0.677442899154E+03   -0.26344E-04   -0.24700E-04   936   0.352E-02    0.473E-03
RMM:   2    -0.677442899496E+03   -0.34208E-06   -0.47649E-06   936   0.462E-03    0.250E-03
RMM:   3    -0.677442899434E+03    0.61606E-07   -0.18192E-07   592   0.110E-03
 489 F= -.68608273E+03 E0= -.68608273E+03  d E =-.142040E-05
       N       E                     dE             d eps       ncg     rms          rms(c)
DAV:   1    -0.677442936676E+03   -0.37181E-04   -0.27263E-04   936   0.372E-02    0.439E-03
RMM:   2    -0.677442937023E+03   -0.34631E-06   -0.50820E-06   936   0.486E-03    0.248E-03
RMM:   3    -0.677442936956E+03    0.66833E-07   -0.20961E-07   603   0.117E-03
 490 F= -.68608273E+03 E0= -.68608273E+03  d E =-.765591E-06
       N       E                     dE             d eps       ncg     rms          rms(c)
DAV:   1    -0.677442966369E+03   -0.29347E-04   -0.16924E-04   940   0.294E-02    0.347E-03
RMM:   2    -0.677442966588E+03   -0.21821E-06   -0.31553E-06   936   0.383E-03    0.197E-03
RMM:   3    -0.677442966543E+03    0.44372E-07   -0.12315E-07   575   0.916E-04
 491 F= -.68608273E+03 E0= -.68608273E+03  d E =-.128959E-05
       N       E                     dE             d eps       ncg     rms          rms(c)
DAV:   1    -0.677442981842E+03   -0.15255E-04   -0.27295E-04   936   0.368E-02    0.409E-03
RMM:   2    -0.677442982208E+03   -0.36576E-06   -0.46960E-06   936   0.461E-03    0.240E-03
RMM:   3    -0.677442982165E+03    0.43088E-07   -0.18364E-07   597   0.108E-03
 492 F= -.68608273E+03 E0= -.68608273E+03  d E =-.113649E-05
       N       E                     dE             d eps       ncg     rms          rms(c)
DAV:   1    -0.677443007073E+03   -0.24865E-04   -0.82128E-04   936   0.638E-02    0.699E-03
RMM:   2    -0.677443008147E+03   -0.10741E-05   -0.14036E-05   936   0.795E-03    0.413E-03
RMM:   3    -0.677443008025E+03    0.12276E-06   -0.61112E-07   789   0.185E-03    0.217E-03
RMM:   4    -0.677443007990E+03    0.34503E-07   -0.22595E-07   591   0.104E-03
 493 F= -.68608273E+03 E0= -.68608273E+03  d E =-.182797E-05
       N       E                     dE             d eps       ncg     rms          rms(c)
DAV:   1    -0.677443018953E+03   -0.10928E-04   -0.16254E-04   940   0.283E-02    0.307E-03
RMM:   2    -0.677443019185E+03   -0.23244E-06   -0.28352E-06   934   0.356E-03    0.181E-03
RMM:   3    -0.677443019165E+03    0.20293E-07   -0.96133E-08   572   0.776E-04
 494 F= -.68608274E+03 E0= -.68608274E+03  d E =-.866041E-06
       N       E                     dE             d eps       ncg     rms          rms(c)
DAV:   1    -0.677443049644E+03   -0.30459E-04   -0.14551E-03   936   0.847E-02    0.907E-03
RMM:   2    -0.677443051474E+03   -0.18293E-05   -0.24029E-05   936   0.103E-02    0.533E-03
RMM:   3    -0.677443051256E+03    0.21721E-06   -0.10172E-06   871   0.229E-03    0.278E-03
RMM:   4    -0.677443051205E+03    0.51157E-07   -0.36475E-07   706   0.118E-03
 495 F= -.68608274E+03 E0= -.68608274E+03  d E =-.201728E-05
       N       E                     dE             d eps       ncg     rms          rms(c)
DAV:   1    -0.677443055822E+03   -0.45655E-05   -0.90138E-05   976   0.214E-02    0.266E-03
RMM:   2    -0.677443055961E+03   -0.13933E-06   -0.17328E-06   932   0.280E-03    0.145E-03
RMM:   3    -0.677443055942E+03    0.18932E-07   -0.62156E-08   568   0.641E-04
 496 F= -.68608274E+03 E0= -.68608274E+03  d E =-.105835E-05
       N       E                     dE             d eps       ncg     rms          rms(c)
DAV:   1    -0.677443063445E+03   -0.74839E-05   -0.33335E-04   936   0.412E-02    0.504E-03
RMM:   2    -0.677443063904E+03   -0.45915E-06   -0.61298E-06   936   0.529E-03    0.271E-03
RMM:   3    -0.677443063840E+03    0.64254E-07   -0.23691E-07   621   0.121E-03
 497 F= -.68608274E+03 E0= -.68608274E+03  d E =-.183636E-05
       N       E                     dE             d eps       ncg     rms          rms(c)
DAV:   1    -0.677443083971E+03   -0.20067E-04   -0.16244E-04   956   0.289E-02    0.367E-03
RMM:   2    -0.677443084142E+03   -0.17038E-06   -0.29429E-06   936   0.369E-03    0.194E-03
RMM:   3    -0.677443084092E+03    0.50171E-07   -0.10787E-07   581   0.832E-04
 498 F= -.68608274E+03 E0= -.68608274E+03  d E =-.844214E-06
       N       E                     dE             d eps       ncg     rms          rms(c)
DAV:   1    -0.677443098541E+03   -0.14399E-04   -0.88455E-05   976   0.213E-02    0.263E-03
RMM:   2    -0.677443098628E+03   -0.87530E-07   -0.15699E-06   936   0.269E-03    0.140E-03
RMM:   3    -0.677443098598E+03    0.29624E-07   -0.56156E-08   568   0.603E-04
 499 F= -.68608274E+03 E0= -.68608274E+03  d E =-.980507E-06
