Zn2 H50 C40 S2 N4 Cl2 O12
1.0
   0.0000000000000006   -9.6942090000000007   -0.0000000000000006
 -10.2448364445438429    4.8471045000000004    1.1711515094752933
   0.0000000000000000    0.0000000000000000  -11.5327900000000003
C Cl H N O S Zn
40 2 50 4 12 2 2
direct
   0.0782168000000000    0.9729550000000000    0.1584077000000000 C
   0.1052618000000001    0.0270450000000000    0.8415923000000000 C
   0.2332638000000000    0.0509538000000000    0.1588773000000000 C
   0.1823100000000001    0.9490461999999998    0.8411227000000000 C
   0.2868414000000000    0.1857502000000000    0.1564413000000000 C
   0.1010911999999999    0.8142497999999999    0.8435587000000000 C
   0.0386514000000000    0.1707080000000001    0.1502093000000000 C
   0.8679433999999998    0.8292919999999998    0.8497907000000000 C
   0.9393251999999999    0.2321569999999999    0.1436765000000000 C
   0.7071681999999999    0.7678430000000001    0.8563235000000000 C
   0.7840594999999999    0.1613245999999998    0.1429698000000000 C
   0.6227349000000000    0.8386754000000001    0.8570302000000000 C
   0.7203082000000001    0.0242602000000000    0.1480518000000000 C
   0.6960480000000000    0.9757397999999999    0.8519482000000000 C
   0.8141715999999999    0.9604897999999999    0.1521986000000000 C
   0.8536817999999999    0.0395102000000001    0.8478014000000000 C
   0.9750136000000000    0.0321254000000000    0.1541076000000000 C
   0.9428882000000001    0.9678746000000000    0.8458924000000000 C
   0.4965724000000000    0.8264376000000000    0.1590578000000000 C
   0.6701348000000000    0.1735623999999998    0.8409422000000000 C
   0.0214810000000000    0.8271852000000000    0.1608829000000001 C
   0.1942958000000000    0.1728148000000002    0.8391170999999999 C
   0.9661680000000001    0.7916107999999999    0.2837740000000000 C
   0.1745572000000002    0.2083892000000001    0.7162260000000000 C
   0.0920234000000001    0.8377992000000001    0.3807690000000000 C
   0.2542241999999999    0.1622007999999998    0.6192310000000000 C
   0.0444734999999999    0.7354714000000000    0.4678348000000000 C
   0.3090020999999999    0.2645286000000001    0.5321652000000001 C
   0.8760528999999999    0.6967992000000001    0.4979371000000000 C
   0.1792536999999998    0.3032007999999999    0.5020629000000000 C
   0.7754193000000000    0.6221698000000000    0.3874928000000000 C
   0.1532495000000000    0.3778302000000000    0.6125072000000000 C
   0.9706626000000000    0.5723636000000001    0.2900028000000000 C
   0.3982990000000000    0.4276363999999999    0.7099972000000000 C
   0.0573618000000000    0.6131370000000000    0.4100547000000000 C
   0.4442248000000000    0.3868630000000000    0.5899453000000001 C
   0.8501582999999999    0.8109626000000001    0.5522352000000000 C
   0.0391957000000001    0.1890374000000000    0.4477648000000000 C
   0.7315375000000000    0.8383790000000000    0.5339512000000000 C
   0.8931585000000001    0.1616210000000001    0.4660488000000000 C
   0.3948402999999999    0.5515551999999999    0.3239566000000000 Cl
   0.8432851000000000    0.4484448000000000    0.6760434000000000 Cl
   0.3145261000000001    0.0082061999999999    0.1580357000000000 H
   0.3063199000000000    0.9917937999999999    0.8419643000000000 H
   0.4090280000000002    0.2480593999999999    0.1558965000000001 H
   0.1609686000000001    0.7519406000000001    0.8441035000000000 H
   0.9881048999999998    0.3367671999999999    0.1376212999999999 H
   0.6513377000000000    0.6632328000000002    0.8623787000000001 H
   0.7079925000000000    0.2088707999999999    0.1367312000000001 H
   0.4991217000000000    0.7911292000000002    0.8632687999999999 H
   0.7638739000000001    0.8548435999999999    0.1501004000000000 H
   0.9090303000000001    0.1451564000000002    0.8498996000000000 H
   0.5224378000000001    0.7708438000000000    0.0856367000000000 H
   0.7515940000000001    0.2291562000000001    0.9143633000000000 H
   0.3738689000000001    0.7980081999999999    0.1590357000000000 H
   0.5758607000000000    0.2019917999999999    0.8409643000000000 H
   0.5364809000000000    0.8074806000000001    0.2412881000000001 H
   0.7290003000000000    0.1925193999999999    0.7587119000000000 H
   0.9221960000000000    0.7767518000000000    0.0988338000000000 H
   0.1454442000000001    0.2232482000000001    0.9011662000000000 H
   0.0945332000000000    0.7106446000000000    0.0705179000000000 H
   0.3838886000000000    0.2893553999999999    0.9294821000000000 H
   0.8839378999999999    0.8322858000000000    0.3061157000000000 H
   0.0516520999999999    0.1677141999999999    0.6938843000000000 H
   0.2010669000000002    0.8493864000000000    0.3438479999999999 H
   0.3516805000000001    0.1506135999999999    0.6561520000000001 H
   0.1063487999999999    0.9333381999999999    0.4229260000000000 H
   0.1730106000000000    0.0666618000000001    0.5770740000000000 H
   0.1177105000000002    0.7742426000000000    0.5482211000000000 H
   0.3434679000000000    0.2257574000000000    0.4517789000000000 H
   0.8510581000000000    0.6278332000000000    0.5639594000000000 H
   0.2232249000000001    0.3721668000000001    0.4360406000000000 H
   0.7213093000000000    0.5162826000000000    0.3906561000000000 H
   0.2050266999999999    0.4837173999999999    0.6093439000000000 H
   0.6847281000000001    0.6516972000000001    0.3691902000000000 H
   0.0330309000000000    0.3483027999999999    0.6308098000000000 H
   0.8013420999999998    0.6130367999999999    0.2080299999999999 H
   0.1883053000000001    0.3869632000000002    0.7919700000000001 H
   0.8914298000000000    0.4686192000000000    0.2759271999999999 H
   0.4228106000000000    0.5313808000000000    0.7240728000000001 H
   0.0474241000000000    0.5952683999999999    0.2179340000000000 H
   0.4521557000000000    0.4047316000000000    0.7820660000000000 H
   0.1771364000000000    0.6325394000000000    0.3978377000000000 H
   0.5445970000000000    0.3674606000000001    0.6021623000000000 H
   0.0097910000000000    0.5344937999999999    0.4664599000000000 H
   0.4752972000000000    0.4655062000000001    0.5335401000000000 H
   0.9389050000000000    0.8750838000000001    0.6178663000000000 H
   0.0638211999999999    0.1249161999999999    0.3821337000000000 H
   0.6362776999999999    0.7787750000000000    0.4718860000000000 H
   0.8575027000000000    0.2212249999999999    0.5281140000000000 H
   0.7250117000000000    0.9225604000000001    0.5831769000000000 H
   0.8024513000000000    0.0774395999999998    0.4168231000000000 H
   0.1934431999999999    0.2441979999999999    0.1520912000000001 N
   0.9492452000000000    0.7558020000000001    0.8479088000000000 N
   0.8736429000000001    0.6454844000000000    0.2838514000000000 N
   0.2281585000000002    0.3545156000000000    0.7161486000000000 N
   0.5660778000000000    0.9642864000000000    0.1475732000000000 O
   0.6017914000000000    0.0357136000000000    0.8524268000000000 O
   0.1384812000000003    0.7885542000000001    0.1292512000000000 O
   0.3499270000000001    0.2114457999999999    0.8707488000000000 O
   0.4458755000000001    0.4312214000000001    0.0264581000000000 O
   0.0146541000000000    0.5687785999999999    0.9735419000000000 O
   0.6529214999999999    0.3937319999999999    0.1136901000000000 O
   0.2591895000000000    0.6062680000000000    0.8863099000000000 O
   0.6647350999999999    0.4658549999999999    0.9183954000000000 O
   0.1988801000000001    0.5341450000000001    0.0816046000000000 O
   0.6886212999999999    0.6157546000000000    0.0940230000000000 O
   0.0728667000000002    0.3842454000000002    0.9059770000000000 O
   0.6184320999999999    0.4777573999999999    0.0423612000000000 S
   0.1406747000000003    0.5222426000000001    0.9576388000000000 S
   0.3044218999999998    0.4414819999999998    0.1503131000000000 Zn
   0.8629399000000001    0.5585180000000002    0.8496869000000000 Zn
