Zn  H  C  S  N Cl  O                    
   1.00000000000000     
     9.6942085460000005   -0.0014793250000000   -0.0002691630000000
    -4.8485967319999999   10.2468577900000000   -1.1597674760000001
    -0.0003169600000000   -0.0126639860000000   11.5327820889999995
   Zn   H    C    S    N    Cl   O 
     2    50    40     2     4     2    12
Direct
  0.3045488903035505  0.4416090811273605  0.6502633765918091
  0.8630668033521403  0.5584809192169686  0.3496372584348393
  0.3146530667018581  0.0083331106373166  0.6579860006972922
  0.3064238715359124  0.9919258716794062  0.3419180048764119
  0.4091549818725397  0.2481864158245273  0.6558468376555027
  0.1611361628947847  0.7520523498569460  0.3438970056747479
  0.9882318662133471  0.3368941177116440  0.6375716439699985
  0.6514127966894847  0.6629437114958492  0.3621516351390923
  0.7081194604240153  0.2089977736369946  0.6366815364509861
  0.4989472765142935  0.7905552973233725  0.3632033092826887
  0.7640008771297246  0.8549706278523459  0.6500506738124443
  0.9088154650701483  0.1449379496318812  0.3501365852884462
  0.5225648329322681  0.7709708742975536  0.5855870290407381
  0.7514240540494157  0.2288291234142150  0.4143944447722134
  0.3739959726278457  0.7981352741245473  0.6589860052506182
  0.5755604273070958  0.2015066973954660  0.3410483093371113
  0.5366078915455219  0.8076076608493210  0.7412384511769261
  0.7286771565563583  0.1920486180632253  0.2587595821147346
  0.9223230705096768  0.7768788806096723  0.5987841494337829
  0.1455949045990437  0.2232955677677779  0.4013385573467190
  0.0946601427867861  0.7107714953549404  0.5704681742373054
  0.3841032833610996  0.2894241876395398  0.4295865566305608
  0.8840649081290550  0.8324128237544883  0.8060659783059094
  0.0516675822923602  0.1675649371508499  0.1940659464433736
  0.2011938946452929  0.8495134469261245  0.8437983259393746
  0.3516577152306226  0.1504607850388240  0.1563529219776854
  0.1064758058170625  0.9334651656948125  0.9228762944069473
  0.1729540219405266  0.0665466509632253  0.0772437376664712
  0.1178374483502580  0.7743695213190165  0.0481714037797047
  0.3435850369426134  0.2255504707282370  0.9519375720276315
  0.8511851000773234  0.6279601672124144  0.0639097210025810
  0.2234271602498268  0.3719349922038617  0.9360758021922493
  0.7214363313128089  0.5164096129681397  0.8906063756444453
  0.2052148147203923  0.4835441444648012  0.1093260930854072
  0.6848551018359998  0.6518242025234713  0.8691405742739775
  0.0331020782329929  0.3481227874158108  0.1307429885276505
  0.8014690415540144  0.6131637244473538  0.7079803474893112
  0.1883398777353520  0.3868714198357992  0.2919938622145608
  0.8915567144343157  0.4687460978496745  0.7758775275397412
  0.4230108231134722  0.5312823924695778  0.2242067766706626
  0.0475510252065021  0.5953953636262668  0.7178842809289065
  0.4522571305270162  0.4045759263595272  0.2821345020429931
  0.1772634046595911  0.6326663195579201  0.8977880144990635
  0.5448414424810863  0.3676103137383322  0.1022276435793898
  0.0099179795482272  0.5346207969007040  0.9664102205158542
  0.4752294722767587  0.4654156844273913  0.0335844278354145
  0.9390319786034098  0.8752108544664097  0.1178166574059105
  0.0639046859289039  0.1245980475278472  0.8823397412128884
  0.6364047202095904  0.7789020726767006  0.9718363271749766
  0.8575986865038416  0.2211529854533438  0.0279947085701266
  0.7251386113532874  0.9226872892299198  0.0831272005014227
  0.8024988523558392  0.0772761010018641  0.9167777757369748
  0.0783437959819295  0.9730820450020232  0.6583580558385833
  0.1053099700887827  0.0270652513042577  0.3417560232495163
  0.2333908395929285  0.0510808927703366  0.6588275681984612
  0.1823970514977091  0.9491172782637349  0.3411210247811596
  0.2869684034071653  0.1858771823412013  0.6563916228944038
  0.1012061442951122  0.8142963488588819  0.3434281192184514
  0.0387783732304499  0.1708349050996958  0.6501596186019327
  0.8679968849519639  0.8291970171081076  0.3498001898545837
  0.9394521664865252  0.2322839533161272  0.6436268528038980
  0.7071820167494067  0.7675843623260334  0.3562583333351910
  0.7841865211907262  0.1614516402783508  0.6429201018555943
  0.6225961226701457  0.8382679980385319  0.3570711306567276
  0.7204351956985207  0.0243871880380624  0.6480021320392595
  0.6958277969139957  0.9753808028093900  0.3521025708778041
  0.8142985568975192  0.9606167684380225  0.6521489095983810
  0.8535072205878080  0.0392910950891832  0.3480459646049638
  0.9751405738571677  0.0322523779715098  0.6540579430484428
  0.9428803376197763  0.9678076362551167  0.3460514190986075
  0.4966993983524404  0.8265646525421602  0.6590080724042195
  0.6698673211435064  0.1731398722944206  0.3410219898228064
  0.0216080375876473  0.8273122279834340  0.6608332292921446
  0.1943964792783319  0.1728319577512707  0.3393021022642202
  0.9662950435473547  0.7917377897232356  0.7837243224715849
  0.1746128622364012  0.2083066447430326  0.2163818107089455
  0.0921503772964414  0.8379261148876012  0.8807193425164570
  0.2542435852034188  0.1620865860098135  0.1194006071639535
  0.0446005108236065  0.7355983805512949  0.9677851359573140
  0.3091266145901415  0.2643811615063640  0.0322856943758865
  0.8761798568688093  0.6969261732148126  0.9978874182529864
  0.1794343854661165  0.3030121417376463  0.0021228116276717
  0.7755462474989798  0.6222967062686422  0.8874431294829321
  0.1533456899827144  0.3776534824376725  0.1124985706920469
  0.9707895735030192  0.5724906297025640  0.7899531303870972
  0.3984228689630669  0.4275418030496425  0.2100964277139283
  0.0574888005874428  0.6132640331068657  0.9100049816831302
  0.4443466466875563  0.3868295566455728  0.0900287486763318
  0.8502852381697963  0.8110894964165638  0.0521855072566382
  0.0393188458102856  0.1888287910973006  0.9478535178473493
  0.7316644926910598  0.8385059960937511  0.0339015266822145
  0.8932464790510650  0.1614841378299303  0.9660144788891216
  0.6185590410715420  0.4778843403891457  0.5423115741036710
  0.1407809650783207  0.5223789766892182  0.4575830878978167
  0.1935702316998302  0.2443250261481396  0.6520414816487516
  0.9493328345223304  0.7557671725361104  0.3477868289244128
  0.8737699345001531  0.6456114429602238  0.7838017115434255
  0.2282156718435289  0.3544018779883373  0.2162067382784727
  0.3949672892337475  0.5516821202060882  0.8239069478082968
  0.8432754137716785  0.4481898623202767  0.1761138802639337
  0.5662047895786131  0.9644134848334787  0.6475235322124249
  0.6015431819092711  0.0352913038376883  0.3525820212472794
  0.1386081298889863  0.7886811168195180  0.6292015196683494
  0.3500900212911304  0.2114546053132855  0.3709237174656508
  0.4460025291087959  0.4313484487168182  0.5264084504652260
  0.0147821620255684  0.5689050681475081  0.4735840434364533
  0.6530484618085737  0.3938590040624490  0.6136403675115432
  0.2593322135312164  0.6064596187712539  0.3862790356755212
  0.6648620625288260  0.4659820179960548  0.4183456955925493
  0.1990742922742328  0.5341841223497070  0.5815104198601944
  0.6887483020238605  0.6158815786911163  0.5939733150881636
  0.0728538888201626  0.3844044473275758  0.4058699235873107
 
  0.00000000E+00  0.00000000E+00  0.00000000E+00
  0.00000000E+00  0.00000000E+00  0.00000000E+00
  0.00000000E+00  0.00000000E+00  0.00000000E+00
  0.00000000E+00  0.00000000E+00  0.00000000E+00
  0.00000000E+00  0.00000000E+00  0.00000000E+00
  0.00000000E+00  0.00000000E+00  0.00000000E+00
  0.00000000E+00  0.00000000E+00  0.00000000E+00
  0.00000000E+00  0.00000000E+00  0.00000000E+00
  0.00000000E+00  0.00000000E+00  0.00000000E+00
  0.00000000E+00  0.00000000E+00  0.00000000E+00
  0.00000000E+00  0.00000000E+00  0.00000000E+00
  0.00000000E+00  0.00000000E+00  0.00000000E+00
  0.00000000E+00  0.00000000E+00  0.00000000E+00
  0.00000000E+00  0.00000000E+00  0.00000000E+00
  0.00000000E+00  0.00000000E+00  0.00000000E+00
  0.00000000E+00  0.00000000E+00  0.00000000E+00
  0.00000000E+00  0.00000000E+00  0.00000000E+00
  0.00000000E+00  0.00000000E+00  0.00000000E+00
  0.00000000E+00  0.00000000E+00  0.00000000E+00
  0.00000000E+00  0.00000000E+00  0.00000000E+00
  0.00000000E+00  0.00000000E+00  0.00000000E+00
  0.00000000E+00  0.00000000E+00  0.00000000E+00
  0.00000000E+00  0.00000000E+00  0.00000000E+00
  0.00000000E+00  0.00000000E+00  0.00000000E+00
  0.00000000E+00  0.00000000E+00  0.00000000E+00
  0.00000000E+00  0.00000000E+00  0.00000000E+00
  0.00000000E+00  0.00000000E+00  0.00000000E+00
  0.00000000E+00  0.00000000E+00  0.00000000E+00
  0.00000000E+00  0.00000000E+00  0.00000000E+00
  0.00000000E+00  0.00000000E+00  0.00000000E+00
  0.00000000E+00  0.00000000E+00  0.00000000E+00
  0.00000000E+00  0.00000000E+00  0.00000000E+00
  0.00000000E+00  0.00000000E+00  0.00000000E+00
  0.00000000E+00  0.00000000E+00  0.00000000E+00
  0.00000000E+00  0.00000000E+00  0.00000000E+00
  0.00000000E+00  0.00000000E+00  0.00000000E+00
  0.00000000E+00  0.00000000E+00  0.00000000E+00
  0.00000000E+00  0.00000000E+00  0.00000000E+00
  0.00000000E+00  0.00000000E+00  0.00000000E+00
  0.00000000E+00  0.00000000E+00  0.00000000E+00
  0.00000000E+00  0.00000000E+00  0.00000000E+00
  0.00000000E+00  0.00000000E+00  0.00000000E+00
  0.00000000E+00  0.00000000E+00  0.00000000E+00
  0.00000000E+00  0.00000000E+00  0.00000000E+00
  0.00000000E+00  0.00000000E+00  0.00000000E+00
  0.00000000E+00  0.00000000E+00  0.00000000E+00
  0.00000000E+00  0.00000000E+00  0.00000000E+00
  0.00000000E+00  0.00000000E+00  0.00000000E+00
  0.00000000E+00  0.00000000E+00  0.00000000E+00
  0.00000000E+00  0.00000000E+00  0.00000000E+00
  0.00000000E+00  0.00000000E+00  0.00000000E+00
  0.00000000E+00  0.00000000E+00  0.00000000E+00
  0.00000000E+00  0.00000000E+00  0.00000000E+00
  0.00000000E+00  0.00000000E+00  0.00000000E+00
  0.00000000E+00  0.00000000E+00  0.00000000E+00
  0.00000000E+00  0.00000000E+00  0.00000000E+00
  0.00000000E+00  0.00000000E+00  0.00000000E+00
  0.00000000E+00  0.00000000E+00  0.00000000E+00
  0.00000000E+00  0.00000000E+00  0.00000000E+00
  0.00000000E+00  0.00000000E+00  0.00000000E+00
  0.00000000E+00  0.00000000E+00  0.00000000E+00
  0.00000000E+00  0.00000000E+00  0.00000000E+00
  0.00000000E+00  0.00000000E+00  0.00000000E+00
  0.00000000E+00  0.00000000E+00  0.00000000E+00
  0.00000000E+00  0.00000000E+00  0.00000000E+00
  0.00000000E+00  0.00000000E+00  0.00000000E+00
  0.00000000E+00  0.00000000E+00  0.00000000E+00
  0.00000000E+00  0.00000000E+00  0.00000000E+00
  0.00000000E+00  0.00000000E+00  0.00000000E+00
  0.00000000E+00  0.00000000E+00  0.00000000E+00
  0.00000000E+00  0.00000000E+00  0.00000000E+00
  0.00000000E+00  0.00000000E+00  0.00000000E+00
  0.00000000E+00  0.00000000E+00  0.00000000E+00
  0.00000000E+00  0.00000000E+00  0.00000000E+00
  0.00000000E+00  0.00000000E+00  0.00000000E+00
  0.00000000E+00  0.00000000E+00  0.00000000E+00
  0.00000000E+00  0.00000000E+00  0.00000000E+00
  0.00000000E+00  0.00000000E+00  0.00000000E+00
  0.00000000E+00  0.00000000E+00  0.00000000E+00
  0.00000000E+00  0.00000000E+00  0.00000000E+00
  0.00000000E+00  0.00000000E+00  0.00000000E+00
  0.00000000E+00  0.00000000E+00  0.00000000E+00
  0.00000000E+00  0.00000000E+00  0.00000000E+00
  0.00000000E+00  0.00000000E+00  0.00000000E+00
  0.00000000E+00  0.00000000E+00  0.00000000E+00
  0.00000000E+00  0.00000000E+00  0.00000000E+00
  0.00000000E+00  0.00000000E+00  0.00000000E+00
  0.00000000E+00  0.00000000E+00  0.00000000E+00
  0.00000000E+00  0.00000000E+00  0.00000000E+00
  0.00000000E+00  0.00000000E+00  0.00000000E+00
  0.00000000E+00  0.00000000E+00  0.00000000E+00
  0.00000000E+00  0.00000000E+00  0.00000000E+00
  0.00000000E+00  0.00000000E+00  0.00000000E+00
  0.00000000E+00  0.00000000E+00  0.00000000E+00
  0.00000000E+00  0.00000000E+00  0.00000000E+00
  0.00000000E+00  0.00000000E+00  0.00000000E+00
  0.00000000E+00  0.00000000E+00  0.00000000E+00
  0.00000000E+00  0.00000000E+00  0.00000000E+00
  0.00000000E+00  0.00000000E+00  0.00000000E+00
  0.00000000E+00  0.00000000E+00  0.00000000E+00
  0.00000000E+00  0.00000000E+00  0.00000000E+00
  0.00000000E+00  0.00000000E+00  0.00000000E+00
  0.00000000E+00  0.00000000E+00  0.00000000E+00
  0.00000000E+00  0.00000000E+00  0.00000000E+00
  0.00000000E+00  0.00000000E+00  0.00000000E+00
  0.00000000E+00  0.00000000E+00  0.00000000E+00
  0.00000000E+00  0.00000000E+00  0.00000000E+00
  0.00000000E+00  0.00000000E+00  0.00000000E+00
  0.00000000E+00  0.00000000E+00  0.00000000E+00
  0.00000000E+00  0.00000000E+00  0.00000000E+00
  0.00000000E+00  0.00000000E+00  0.00000000E+00
  0.00000000E+00  0.00000000E+00  0.00000000E+00
