Zn4 H28 C42 N12 O10 F12
1.0
   0.0000000000000000    0.0000000000000000   -7.0986430000000000
  10.0424215481329160    0.0000000000000000   -1.0004286013982508
   5.0212107740664589  -16.9036749999999998   -0.5002143006991264
C F H N O Zn
42 12 28 12 10 4
direct
   0.7235391000000000    0.0898394000000000    0.9414680000000000 C
   0.2235391000000000    0.0313074000000000    0.0585320000000000 C
   0.3619009999999999    0.0876041000000000    0.4995933999999999 C
   0.8619010000000000    0.5871974999999998    0.5004066000000000 C
   0.9230351999999999    0.1571054999999999    0.1688726000000001 C
   0.4230351999999998    0.3259780999999999    0.8311274000000002 C
   0.3151529999999999    0.1571146000000001    0.3508393999999999 C
   0.8151530000000000    0.5079540000000000    0.6491606000000001 C
   0.6354874000000001    0.0613282000000001    0.4031038000000000 C
   0.1354874000000000    0.4644320000000000    0.5968962000000002 C
   0.0780665999999999    0.0678866000000000    0.5803849999999999 C
   0.5780665999999999    0.6482716000000001    0.4196149999999998 C
   0.0625239000000000    0.1551133000000000    0.2311833999999999 C
   0.5625239000000000    0.3862966999999999    0.7688166000000001 C
   0.5096159000000000    0.2941419000000000    0.4180052000000000 C
   0.0096158999999999    0.7121470999999999    0.5819948000000001 C
   0.1190180000000000    0.0319602000000000    0.2897078000000000 C
   0.6190180000000001    0.3216679999999999    0.7102922000000000 C
   0.4681989000000000    0.0130513999999999    0.5666682000000001 C
   0.9681989000000000    0.5797196000000000    0.4333317999999999 C
   0.9871376000000001    0.1270682000000001    0.8815497999999999 C
   0.4871375999999999    0.0086180000000001    0.1184501999999999 C
   0.4524527999999999    0.1492458999999998    0.4183614000000003 C
   0.9524528000000000    0.5676073000000000    0.5816386000000000 C
   0.2417821999999999    0.0335383000000001    0.3493314000000000 C
   0.7417821999999999    0.3828697000000000    0.6506685999999999 C
   0.2613501000000000    0.2794205000000000    0.2913531999999999 C
   0.7613501000000000    0.5707737000000001    0.7086467999999999 C
   0.1341241999999999    0.2781250000000000    0.2330350000000001 C
   0.6341242000000000    0.5111600000000001    0.7669649999999999 C
   0.1661497999999999    0.1147461999999998    0.5075204000000002 C
   0.6661497999999999    0.6222666000000001    0.4924795999999998 C
   0.1837636000000000    0.9935716000000000    0.6474518000000000 C
   0.6837636000000000    0.6410233999999999    0.3525482000000002 C
   0.4812708999999999    0.5130079999999999    0.1132626000000001 C
   0.9812708999999999    0.6262706000000000    0.8867373999999999 C
   0.3796568000000000    0.9662001000000000    0.6396128000000001 C
   0.8796568000000000    0.6058129000000001    0.3603871999999999 C
   0.2002221000000000    0.5576099000000000    0.0661879999999998 C
   0.7002221000000000    0.6237978999999998    0.9338120000000003 C
   0.0877920000000000    0.9440968000000002    0.7257103999999999 C
   0.5877920000000000    0.6698072000000000    0.2742895999999999 C
   0.6155278000000000    0.2881965000000001    0.4822587999999998 F
   0.1155277999999998    0.7704553000000001    0.5177411999999999 F
   0.7898605999999999    0.0756557000000000    0.4433780000000000 F
   0.2898606000000000    0.5190337000000000    0.5566220000000000 F
   0.3537752999999999    0.3833332999999999    0.4196178000000000 F
   0.8537752999999999    0.8029510999999999    0.5803822000000001 F
   0.6112475000000002    0.9238881000000001    0.4247079999999999 F
   0.1112475000000001    0.3485961000000000    0.5752920000000001 F
   0.6825936000000001    0.0974379000000001    0.3251305999999999 F
   0.1825936000000000    0.4225685000000000    0.6748694000000000 F
   0.6128936999999999    0.3525092000000001    0.3527241999999999 F
   0.1128937000000000    0.7052334000000000    0.6472758000000001 F
   0.5890572000000001    0.0496126000000001    0.9606133999999998 H
   0.0890571999999998    0.0102259999999998    0.0393866000000003 H
   0.9260019000000002    0.0897542000000000    0.5861520000000000 H
   0.4260019000000000    0.6759062000000000    0.4138480000000000 H
   0.0622297999999999    0.9354278000000000    0.2898951999999999 H
   0.5622297999999999    0.2253230000000000    0.7101048000000001 H
   0.6205734000000001    0.9909129000000000    0.5629606000000000 H
   0.1205734000000001    0.5538734999999998    0.4370394000000002 H
   0.1107296000000000    0.1218403000000001    0.8447945999999998 H
   0.6107296000000000    0.9666349000000000    0.1552054000000000 H
   0.2785069000000000    0.9379800000000000    0.3959953999999999 H
   0.7785069000000000    0.3339754000000000    0.6040046000000000 H
   0.3147860000000000    0.3773630000000000    0.2898538000000001 H
   0.8147860000000000    0.6672168000000002    0.7101461999999998 H
   0.0877125000000001    0.3736491000000000    0.1880618000000001 H
   0.5877125000000000    0.5617109000000000    0.8119381999999999 H
   0.0816357000000000    0.1740551000000000    0.4563804000000000 H
   0.5816356999999999    0.6304354999999999    0.5436196000000000 H
   0.3912582999999999    0.9272442000000000    0.8079761999999999 H
   0.8912582999999999    0.7352204000000001    0.1920237999999997 H
   0.4621234000000000    0.0623932000000000    0.8265493999999999 H
   0.9621234000000000    0.8889426000000001    0.1734505999999997 H
   0.6089709000000001    0.5158597000000000    0.1449654000000001 H
   0.1089708999999999    0.6608251000000001    0.8550346000000002 H
   0.4643789999999999    0.9071182000000000    0.6907744000000000 H
   0.9643790000000000    0.5978926000000000    0.3092256000000000 H
   0.0552596000000000    0.6023955000000001    0.0535769999999998 H
   0.5552596000000000    0.6559725000000000    0.9464230000000000 H
   0.7926294000000000    0.1899139000000001    0.9645103999999999 N
   0.2926293999999999    0.1544243000000001    0.0354895999999999 N
   0.8405570999999998    0.0473078000000000    0.8893316000000000 N
   0.3405570999999999    0.9366394000000001    0.1106683999999999 N
   0.4630222999999999    0.4299222999999998    0.0680772000000003 N
   0.9630223000000000    0.4979995000000001    0.9319227999999999 N
   0.2831617999999999    0.4574633000000000    0.0378187999999999 N
   0.7831618000000000    0.4952820999999999    0.9621812000000001 N
   0.3188790999999999    0.5959023000000001    0.1137920000000000 N
   0.8188791000000000    0.7096943000000001    0.8862080000000001 N
   0.9633152000000000    0.2133840000000000    0.9262952000000000 N
   0.4633152000000000    0.1396792000000001    0.0737047999999999 N
   0.8750192000000001    0.0449040999999999    0.1605422000000001 O
   0.3750192000000000    0.2054463000000000    0.8394577999999999 O
   0.8575055000000000    0.2780297000000000    0.1257926000000000 O
   0.3575055000000000    0.4038223000000001    0.8742074000000000 O
   0.5037814000000000    0.9638050000000000    0.8262749999999999 O
   0.0037814000000000    0.7900799999999999    0.1737250000000002 O
   0.9045917999999999    0.9583980000000000    0.7250048000000000 O
   0.4045917999999999    0.6834028000000001    0.2749951999999998 O
   0.1831267999999999    0.8915965000000001    0.7886156000000000 O
   0.6831267999999999    0.6802120999999999    0.2113844000000002 O
   0.6709909999999999    0.2948558999999999    0.0405466000000001 Zn
   0.1709910000000000    0.3354025000000000    0.9594533999999999 Zn
   0.7846679000000001    0.9126452000000000    0.8303840000000000 Zn
   0.2846678999999999    0.7430292000000001    0.1696160000000000 Zn
