Zn  H  C  N  O  F                       
   1.00000000000000     
    -7.0956147700000001    0.0188337490000000   -0.2064716520000000
    -0.9424862560000000   -9.6252729580000000   -2.8838922089999999
    -0.9558168140000000   -9.6210525950000001   14.7561577469999996
   Zn   H    C    N    O    F 
     4    28    42    12    10    12
Direct
  0.1709909951052211  0.3354024658765553  0.9596101908260053
  0.6710825026976934  0.2952658995482551  0.0402933168948891
  0.2846678708858477  0.7430292806049650  0.1697726631770351
  0.7845365829023407  0.9127189728470171  0.8302694989566035
  0.0890572415264401  0.0102260191737216  0.0395433921762844
  0.5886256497657882  0.0499652677583100  0.9603488387487999
  0.4260018458485959  0.6759062892533905  0.4140046678276619
  0.9259840832978412  0.0897806543169679  0.5859978824545848
  0.5622298260841134  0.2253229650356587  0.7102615629397917
  0.0623467227547607  0.9360621383841377  0.2894340933525328
  0.1205734002073129  0.5538734438237114  0.4371962138894077
  0.6205451145222867  0.9910662530218559  0.5629055586856424
  0.6107296213481419  0.9666348665965145  0.1553621988784073
  0.1104001161499113  0.1219764372640313  0.8445783519767218
  0.7785069242455265  0.3339754595244813  0.6041612585955676
  0.2782764010491050  0.9382142962792202  0.3957178547265414
  0.8147860417432540  0.6672168132585554  0.7103028965427214
  0.3149216167307642  0.3777149191154550  0.2898634978191836
  0.5877124588311275  0.5617109755419918  0.8120948605870950
  0.0879643945177477  0.3743862239209221  0.1879697761254704
  0.5816356702561123  0.6304354947463437  0.5437763289639079
  0.0815470168183126  0.1737931418652963  0.4562026206618555
  0.8912582953342110  0.7352203898951970  0.1921805103696173
  0.3911370461532044  0.9270693982998353  0.8078347447498899
  0.9621234012047779  0.8889426710206152  0.1736072557098680
  0.4619111555016673  0.0622867768547124  0.8263214665299756
  0.1089708556449267  0.6608250890011433  0.8551912994310840
  0.6090594208498246  0.5161358832179417  0.1447432179708699
  0.9643789660619433  0.5978925614138504  0.3093823403240208
  0.4643260889250200  0.9072870688817076  0.6907237275905089
  0.5552595866491146  0.6559725167614445  0.9465797014395889
  0.0550349194779187  0.6024054076262004  0.0536552553875964
  0.2235391205468815  0.0313073541635092  0.0586888227349434
  0.7231627493718733  0.0900858783050609  0.9412274392997872
  0.8619010091930264  0.5871974876604185  0.5005633926987869
  0.3618456510893395  0.0875146899848289  0.4994798733070027
  0.4230351829141910  0.3259781296673765  0.8312841846663233
  0.9234525336163912  0.1577214715498627  0.1685220865614312
  0.8151530305683252  0.5079539343027832  0.6493174273952746
  0.3151288325729169  0.1573653614240342  0.3507288278673784
  0.1354873527229046  0.4644320031645961  0.5970528564503610
  0.6354011494608685  0.0610422932830303  0.4029817125151851
  0.5780666177907321  0.6482715058091060  0.4197718417397809
  0.0780694694955812  0.0679036082878355  0.5802794986372817
  0.5625239137032878  0.3862966485331256  0.7689734232562131
  0.0628250675888893  0.1557807194086820  0.2308667647036913
  0.0096159231088748  0.7121470728721775  0.5821515978571341
  0.5099212017292487  0.2939796575297962  0.4179292484264323
  0.6190180104173564  0.3216680208686427  0.7104488682107970
  0.1191527740950704  0.0325307151891749  0.2893630455436877
  0.9681989359958081  0.5797195921403926  0.4334884838337061
  0.4681508757927730  0.0131683033873173  0.5666052095407039
  0.4871376499910838  0.0086179920230833  0.1186069914272565
  0.9868108079871263  0.1272256795412403  0.8813218065789670
  0.9524528066996396  0.5676073150611742  0.5817952725446460
  0.4524851506322705  0.1491600304358300  0.4182583916520812
  0.7417821997684939  0.3828696982262727  0.6508253774895962
  0.2416994775639338  0.0338943138684442  0.3491031829855586
  0.7613501350634522  0.5707737130474939  0.7088035560220973
  0.2614667124851167  0.2798164064910509  0.2912794707398376
  0.6341241785795191  0.5111600054580663  0.7671217140734825
  0.1342888611825259  0.2787491938064264  0.2328905349358692
  0.6661497740594911  0.6222665335683146  0.4926364150509670
  0.1660646970881317  0.1145777534972723  0.5073785243658193
  0.6837635800064845  0.6410233618517935  0.3527049631894101
  0.1837100209927200  0.9936862202704901  0.6473822673991236
  0.9812708868206812  0.6262705365292547  0.8868942421508734
  0.4812739831317927  0.5132965394416047  0.1130972814182201
  0.8796567825439965  0.6058129414280842  0.3605439506813539
  0.3796135776893905  0.9663114018464327  0.6395504526019735
  0.7002220596408790  0.6237978280258858  0.9339688513737769
  0.2000829873347953  0.5577330946640444  0.0661658412762449
  0.5877919780874379  0.6698072082765663  0.2744463863604523
  0.0876717979318471  0.9441846293228551  0.7256135791508029
  0.2926294507388363  0.1544243131024388  0.0356463226113988
  0.7923759674225224  0.1901176852089108  0.9642769025736868
  0.3405570661438162  0.9366394085858900  0.1108250874752699
  0.8401488302307740  0.0475391912039811  0.8890955928352184
  0.9630222676725637  0.4979994393053175  0.9320795926306999
  0.4629855776375891  0.4302293623307278  0.0679078199322802
  0.7831618219715395  0.4952821206178513  0.9623379749352168
  0.2830420883916389  0.4576826024164760  0.0377298391915488
  0.8188790963994350  0.7096942922920277  0.8863646881786451
  0.3188327996387201  0.5960848948226101  0.1137074127088269
  0.4633152026468537  0.1396792554235518  0.0738614611234922
  0.9631012281221061  0.2134908401605244  0.9260796683353192
  0.3750192213742451  0.2054462874655059  0.8396146204439603
  0.8754295889204968  0.0454602486262417  0.1602642022952949
  0.3575054700175002  0.4038223189891710  0.8743641133254911
  0.8579021984268635  0.2786136360934250  0.1253974246101279
  0.0037813988027793  0.7900800211518799  0.1738817389415459
  0.5036569042146013  0.9636785752416799  0.8260901121535085
  0.4045917760627091  0.6834027433307668  0.2751520178290008
  0.9044768765194462  0.9585545574182888  0.7249046153024139
  0.6831268320201147  0.6802121085070780  0.2115411599173456
  0.1830210563160719  0.8915785937192808  0.7885010054431092
  0.1155278214649229  0.7704553196723865  0.5178979138718773
  0.6162118345638774  0.2878440483895375  0.4820998532269201
  0.2898606250575213  0.5190337321668821  0.5567787685232588
  0.7900036102541179  0.0754316256867753  0.4431031532889875
  0.8537753077694887  0.8029511161765726  0.5805389867239015
  0.3542357136665544  0.3832085158552800  0.4197259064646985
  0.1112474973191624  0.3485960632040275  0.5754487767685248
  0.6109520062492635  0.9236316595715692  0.4247778130673296
  0.1825935773679603  0.4225684688043927  0.6750261472735275
  0.6822630862056442  0.0968724394451570  0.3249712928058912
  0.1128937180654219  0.7052333886228865  0.6474325221542117
  0.6129503128525684  0.3524548310594042  0.3525747484004071
 
  0.00000000E+00  0.00000000E+00  0.00000000E+00
  0.00000000E+00  0.00000000E+00  0.00000000E+00
  0.00000000E+00  0.00000000E+00  0.00000000E+00
  0.00000000E+00  0.00000000E+00  0.00000000E+00
  0.00000000E+00  0.00000000E+00  0.00000000E+00
  0.00000000E+00  0.00000000E+00  0.00000000E+00
  0.00000000E+00  0.00000000E+00  0.00000000E+00
  0.00000000E+00  0.00000000E+00  0.00000000E+00
  0.00000000E+00  0.00000000E+00  0.00000000E+00
  0.00000000E+00  0.00000000E+00  0.00000000E+00
  0.00000000E+00  0.00000000E+00  0.00000000E+00
  0.00000000E+00  0.00000000E+00  0.00000000E+00
  0.00000000E+00  0.00000000E+00  0.00000000E+00
  0.00000000E+00  0.00000000E+00  0.00000000E+00
  0.00000000E+00  0.00000000E+00  0.00000000E+00
  0.00000000E+00  0.00000000E+00  0.00000000E+00
  0.00000000E+00  0.00000000E+00  0.00000000E+00
  0.00000000E+00  0.00000000E+00  0.00000000E+00
  0.00000000E+00  0.00000000E+00  0.00000000E+00
  0.00000000E+00  0.00000000E+00  0.00000000E+00
  0.00000000E+00  0.00000000E+00  0.00000000E+00
  0.00000000E+00  0.00000000E+00  0.00000000E+00
  0.00000000E+00  0.00000000E+00  0.00000000E+00
  0.00000000E+00  0.00000000E+00  0.00000000E+00
  0.00000000E+00  0.00000000E+00  0.00000000E+00
  0.00000000E+00  0.00000000E+00  0.00000000E+00
  0.00000000E+00  0.00000000E+00  0.00000000E+00
  0.00000000E+00  0.00000000E+00  0.00000000E+00
  0.00000000E+00  0.00000000E+00  0.00000000E+00
  0.00000000E+00  0.00000000E+00  0.00000000E+00
  0.00000000E+00  0.00000000E+00  0.00000000E+00
  0.00000000E+00  0.00000000E+00  0.00000000E+00
  0.00000000E+00  0.00000000E+00  0.00000000E+00
  0.00000000E+00  0.00000000E+00  0.00000000E+00
  0.00000000E+00  0.00000000E+00  0.00000000E+00
  0.00000000E+00  0.00000000E+00  0.00000000E+00
  0.00000000E+00  0.00000000E+00  0.00000000E+00
  0.00000000E+00  0.00000000E+00  0.00000000E+00
  0.00000000E+00  0.00000000E+00  0.00000000E+00
  0.00000000E+00  0.00000000E+00  0.00000000E+00
  0.00000000E+00  0.00000000E+00  0.00000000E+00
  0.00000000E+00  0.00000000E+00  0.00000000E+00
  0.00000000E+00  0.00000000E+00  0.00000000E+00
  0.00000000E+00  0.00000000E+00  0.00000000E+00
  0.00000000E+00  0.00000000E+00  0.00000000E+00
  0.00000000E+00  0.00000000E+00  0.00000000E+00
  0.00000000E+00  0.00000000E+00  0.00000000E+00
  0.00000000E+00  0.00000000E+00  0.00000000E+00
  0.00000000E+00  0.00000000E+00  0.00000000E+00
  0.00000000E+00  0.00000000E+00  0.00000000E+00
  0.00000000E+00  0.00000000E+00  0.00000000E+00
  0.00000000E+00  0.00000000E+00  0.00000000E+00
  0.00000000E+00  0.00000000E+00  0.00000000E+00
  0.00000000E+00  0.00000000E+00  0.00000000E+00
  0.00000000E+00  0.00000000E+00  0.00000000E+00
  0.00000000E+00  0.00000000E+00  0.00000000E+00
  0.00000000E+00  0.00000000E+00  0.00000000E+00
  0.00000000E+00  0.00000000E+00  0.00000000E+00
  0.00000000E+00  0.00000000E+00  0.00000000E+00
  0.00000000E+00  0.00000000E+00  0.00000000E+00
  0.00000000E+00  0.00000000E+00  0.00000000E+00
  0.00000000E+00  0.00000000E+00  0.00000000E+00
  0.00000000E+00  0.00000000E+00  0.00000000E+00
  0.00000000E+00  0.00000000E+00  0.00000000E+00
  0.00000000E+00  0.00000000E+00  0.00000000E+00
  0.00000000E+00  0.00000000E+00  0.00000000E+00
  0.00000000E+00  0.00000000E+00  0.00000000E+00
  0.00000000E+00  0.00000000E+00  0.00000000E+00
  0.00000000E+00  0.00000000E+00  0.00000000E+00
  0.00000000E+00  0.00000000E+00  0.00000000E+00
  0.00000000E+00  0.00000000E+00  0.00000000E+00
  0.00000000E+00  0.00000000E+00  0.00000000E+00
  0.00000000E+00  0.00000000E+00  0.00000000E+00
  0.00000000E+00  0.00000000E+00  0.00000000E+00
  0.00000000E+00  0.00000000E+00  0.00000000E+00
  0.00000000E+00  0.00000000E+00  0.00000000E+00
  0.00000000E+00  0.00000000E+00  0.00000000E+00
  0.00000000E+00  0.00000000E+00  0.00000000E+00
  0.00000000E+00  0.00000000E+00  0.00000000E+00
  0.00000000E+00  0.00000000E+00  0.00000000E+00
  0.00000000E+00  0.00000000E+00  0.00000000E+00
  0.00000000E+00  0.00000000E+00  0.00000000E+00
  0.00000000E+00  0.00000000E+00  0.00000000E+00
  0.00000000E+00  0.00000000E+00  0.00000000E+00
  0.00000000E+00  0.00000000E+00  0.00000000E+00
  0.00000000E+00  0.00000000E+00  0.00000000E+00
  0.00000000E+00  0.00000000E+00  0.00000000E+00
  0.00000000E+00  0.00000000E+00  0.00000000E+00
  0.00000000E+00  0.00000000E+00  0.00000000E+00
  0.00000000E+00  0.00000000E+00  0.00000000E+00
  0.00000000E+00  0.00000000E+00  0.00000000E+00
  0.00000000E+00  0.00000000E+00  0.00000000E+00
  0.00000000E+00  0.00000000E+00  0.00000000E+00
  0.00000000E+00  0.00000000E+00  0.00000000E+00
  0.00000000E+00  0.00000000E+00  0.00000000E+00
  0.00000000E+00  0.00000000E+00  0.00000000E+00
  0.00000000E+00  0.00000000E+00  0.00000000E+00
  0.00000000E+00  0.00000000E+00  0.00000000E+00
  0.00000000E+00  0.00000000E+00  0.00000000E+00
  0.00000000E+00  0.00000000E+00  0.00000000E+00
  0.00000000E+00  0.00000000E+00  0.00000000E+00
  0.00000000E+00  0.00000000E+00  0.00000000E+00
  0.00000000E+00  0.00000000E+00  0.00000000E+00
  0.00000000E+00  0.00000000E+00  0.00000000E+00
  0.00000000E+00  0.00000000E+00  0.00000000E+00
  0.00000000E+00  0.00000000E+00  0.00000000E+00
  0.00000000E+00  0.00000000E+00  0.00000000E+00
  0.00000000E+00  0.00000000E+00  0.00000000E+00
