submit directory /gpfs/home3/srinidhi/BEC_work/highthroughput/mof_calcs/02-02-2022_Zn/PACGAE_FSR
 running on  128 total cores
 distrk:  each k-point on   32 cores,    4 groups
 distr:  one band on   16 cores,    2 groups
 using from now: INCAR     
 vasp.5.4.4.18Apr17-6-g9f103f2a35 (build Oct 14 2021 09:59:43) complex           
 POSCAR found type information on POSCAR  C  F  H  N  O  Zn
 POSCAR found :  6 types and     108 ions
 scaLAPACK will be used

 ----------------------------------------------------------------------------- 
|                                                                             |
|           W    W    AA    RRRRR   N    N  II  N    N   GGGG   !!!           |
|           W    W   A  A   R    R  NN   N  II  NN   N  G    G  !!!           |
|           W    W  A    A  R    R  N N  N  II  N N  N  G       !!!           |
|           W WW W  AAAAAA  RRRRR   N  N N  II  N  N N  G  GGG   !            |
|           WW  WW  A    A  R   R   N   NN  II  N   NN  G    G                |
|           W    W  A    A  R    R  N    N  II  N    N   GGGG   !!!           |
|                                                                             |
|      You have enabled k-point parallelism (KPAR>1).                         |
|      This developmental code was originally  written by Paul Kent at ORNL,  |
|      and carefully double checked in Vienna.                                |
|      GW as well as linear response parallelism added by Martijn Marsman     |
|      and Georg Kresse.                                                      |
|      Carefully verify results versus KPAR=1.                                |
|      Report problems to Paul Kent and Vienna.                               |
|                                                                             |
 ----------------------------------------------------------------------------- 


 ----------------------------------------------------------------------------- 
|                                                                             |
|  ADVICE TO THIS USER RUNNING 'VASP/VAMP'   (HEAR YOUR MASTER'S VOICE ...):  |
|                                                                             |
|      You have a (more or less) 'large supercell' and for larger cells       |
|      it might be more efficient to use real space projection opertators     |
|      So try LREAL= Auto  in the INCAR   file.                               |
|      Mind:          For very  accurate calculation you might also keep the  |
|      reciprocal projection scheme          (i.e. LREAL=.FALSE.)             |
|                                                                             |
 ----------------------------------------------------------------------------- 

 LDA part: xc-table for Pade appr. of Perdew


 VERY BAD NEWS! internal error in subroutine IBZKPT:
 Reciprocal lattice and k-lattice belong to different class of lattices. Often results are still useful...     168


 VERY BAD NEWS! internal error in subroutine IBZKPT:
 Reciprocal lattice and k-lattice belong to different class of lattices. Often results are still useful...     168


 VERY BAD NEWS! internal error in subroutine IBZKPT:
 Reciprocal lattice and k-lattice belong to different class of lattices. Often results are still useful...     168


 VERY BAD NEWS! internal error in subroutine IBZKPT:
 Reciprocal lattice and k-lattice belong to different class of lattices. Often results are still useful...     168


 VERY BAD NEWS! internal error in subroutine IBZKPT:
 Reciprocal lattice and k-lattice belong to different class of lattices. Often results are still useful...     168


 VERY BAD NEWS! internal error in subroutine IBZKPT:
 Reciprocal lattice and k-lattice belong to different class of lattices. Often results are still useful...     168


 VERY BAD NEWS! internal error in subroutine IBZKPT:
 Reciprocal lattice and k-lattice belong to different class of lattices. Often results are still useful...     168


 VERY BAD NEWS! internal error in subroutine IBZKPT:
 Reciprocal lattice and k-lattice belong to different class of lattices. Often results are still useful...     168


 VERY BAD NEWS! internal error in subroutine IBZKPT:
 Reciprocal lattice and k-lattice belong to different class of lattices. Often results are still useful...     168


 VERY BAD NEWS! internal error in subroutine IBZKPT:
 Reciprocal lattice and k-lattice belong to different class of lattices. Often results are still useful...     168


 VERY BAD NEWS! internal error in subroutine IBZKPT:
 Reciprocal lattice and k-lattice belong to different class of lattices. Often results are still useful...     168


 VERY BAD NEWS! internal error in subroutine IBZKPT:
 Reciprocal lattice and k-lattice belong to different class of lattices. Often results are still useful...     168


 VERY BAD NEWS! internal error in subroutine IBZKPT:
 Reciprocal lattice and k-lattice belong to different class of lattices. Often results are still useful...     168


 VERY BAD NEWS! internal error in subroutine IBZKPT:
 Reciprocal lattice and k-lattice belong to different class of lattices. Often results are still useful...     168


 VERY BAD NEWS! internal error in subroutine IBZKPT:
 Reciprocal lattice and k-lattice belong to different class of lattices. Often results are still useful...     168


 VERY BAD NEWS! internal error in subroutine IBZKPT:
 Reciprocal lattice and k-lattice belong to different class of lattices. Often results are still useful...     168


 VERY BAD NEWS! internal error in subroutine IBZKPT:
 Reciprocal lattice and k-lattice belong to different class of lattices. Often results are still useful...     168


 VERY BAD NEWS! internal error in subroutine IBZKPT:
 Reciprocal lattice and k-lattice belong to different class of lattices. Often results are still useful...     168


 VERY BAD NEWS! internal error in subroutine IBZKPT:
 Reciprocal lattice and k-lattice belong to different class of lattices. Often results are still useful...     168


 VERY BAD NEWS! internal error in subroutine IBZKPT:
 Reciprocal lattice and k-lattice belong to different class of lattices. Often results are still useful...     168


 VERY BAD NEWS! internal error in subroutine IBZKPT:
 Reciprocal lattice and k-lattice belong to different class of lattices. Often results are still useful...     168


 VERY BAD NEWS! internal error in subroutine IBZKPT:
 Reciprocal lattice and k-lattice belong to different class of lattices. Often results are still useful...     168


 VERY BAD NEWS! internal error in subroutine IBZKPT:
 Reciprocal lattice and k-lattice belong to different class of lattices. Often results are still useful...     168


 VERY BAD NEWS! internal error in subroutine IBZKPT:
 Reciprocal lattice and k-lattice belong to different class of lattices. Often results are still useful...     168


 VERY BAD NEWS! internal error in subroutine IBZKPT:
 Reciprocal lattice and k-lattice belong to different class of lattices. Often results are still useful...     168


 VERY BAD NEWS! internal error in subroutine IBZKPT:
 Reciprocal lattice and k-lattice belong to different class of lattices. Often results are still useful...     168


 VERY BAD NEWS! internal error in subroutine IBZKPT:
 Reciprocal lattice and k-lattice belong to different class of lattices. Often results are still useful...     168


 VERY BAD NEWS! internal error in subroutine IBZKPT:
 Reciprocal lattice and k-lattice belong to different class of lattices. Often results are still useful...     168


 VERY BAD NEWS! internal error in subroutine IBZKPT:
 Reciprocal lattice and k-lattice belong to different class of lattices. Often results are still useful...     168


 VERY BAD NEWS! internal error in subroutine IBZKPT:
 Reciprocal lattice and k-lattice belong to different class of lattices. Often results are still useful...     168


 VERY BAD NEWS! internal error in subroutine IBZKPT:
 Reciprocal lattice and k-lattice belong to different class of lattices. Often results are still useful...     168


 VERY BAD NEWS! internal error in subroutine IBZKPT:
 Reciprocal lattice and k-lattice belong to different class of lattices. Often results are still useful...     168


 VERY BAD NEWS! internal error in subroutine IBZKPT:
 Reciprocal lattice and k-lattice belong to different class of lattices. Often results are still useful...     168


 VERY BAD NEWS! internal error in subroutine IBZKPT:
 Reciprocal lattice and k-lattice belong to different class of lattices. Often results are still useful...     168


 VERY BAD NEWS! internal error in subroutine IBZKPT:
 Reciprocal lattice and k-lattice belong to different class of lattices. Often results are still useful...     168


 VERY BAD NEWS! internal error in subroutine IBZKPT:
 Reciprocal lattice and k-lattice belong to different class of lattices. Often results are still useful...     168


 VERY BAD NEWS! internal error in subroutine IBZKPT:
 Reciprocal lattice and k-lattice belong to different class of lattices. Often results are still useful...     168


 VERY BAD NEWS! internal error in subroutine IBZKPT:
 Reciprocal lattice and k-lattice belong to different class of lattices. Often results are still useful...     168


 VERY BAD NEWS! internal error in subroutine IBZKPT:
 Reciprocal lattice and k-lattice belong to different class of lattices. Often results are still useful...     168


 VERY BAD NEWS! internal error in subroutine IBZKPT:
 Reciprocal lattice and k-lattice belong to different class of lattices. Often results are still useful...     168


 VERY BAD NEWS! internal error in subroutine IBZKPT:
 Reciprocal lattice and k-lattice belong to different class of lattices. Often results are still useful...     168


 VERY BAD NEWS! internal error in subroutine IBZKPT:
 Reciprocal lattice and k-lattice belong to different class of lattices. Often results are still useful...     168


 VERY BAD NEWS! internal error in subroutine IBZKPT:
 Reciprocal lattice and k-lattice belong to different class of lattices. Often results are still useful...     168


 VERY BAD NEWS! internal error in subroutine IBZKPT:
 Reciprocal lattice and k-lattice belong to different class of lattices. Often results are still useful...     168


 VERY BAD NEWS! internal error in subroutine IBZKPT:
 Reciprocal lattice and k-lattice belong to different class of lattices. Often results are still useful...     168


 VERY BAD NEWS! internal error in subroutine IBZKPT:
 Reciprocal lattice and k-lattice belong to different class of lattices. Often results are still useful...     168


 VERY BAD NEWS! internal error in subroutine IBZKPT:
 Reciprocal lattice and k-lattice belong to different class of lattices. Often results are still useful...     168


 VERY BAD NEWS! internal error in subroutine IBZKPT:
 Reciprocal lattice and k-lattice belong to different class of lattices. Often results are still useful...     168


 VERY BAD NEWS! internal error in subroutine IBZKPT:
 Reciprocal lattice and k-lattice belong to different class of lattices. Often results are still useful...     168


 VERY BAD NEWS! internal error in subroutine IBZKPT:
 Reciprocal lattice and k-lattice belong to different class of lattices. Often results are still useful...     168


 VERY BAD NEWS! internal error in subroutine IBZKPT:
 Reciprocal lattice and k-lattice belong to different class of lattices. Often results are still useful...     168


 VERY BAD NEWS! internal error in subroutine IBZKPT:
 Reciprocal lattice and k-lattice belong to different class of lattices. Often results are still useful...     168


 VERY BAD NEWS! internal error in subroutine IBZKPT:
 Reciprocal lattice and k-lattice belong to different class of lattices. Often results are still useful...     168


 VERY BAD NEWS! internal error in subroutine IBZKPT:
 Reciprocal lattice and k-lattice belong to different class of lattices. Often results are still useful...     168


 VERY BAD NEWS! internal error in subroutine IBZKPT:
 Reciprocal lattice and k-lattice belong to different class of lattices. Often results are still useful...     168


 VERY BAD NEWS! internal error in subroutine IBZKPT:
 Reciprocal lattice and k-lattice belong to different class of lattices. Often results are still useful...     168


 VERY BAD NEWS! internal error in subroutine IBZKPT:
 Reciprocal lattice and k-lattice belong to different class of lattices. Often results are still useful...     168


 VERY BAD NEWS! internal error in subroutine IBZKPT:
 Reciprocal lattice and k-lattice belong to different class of lattices. Often results are still useful...     168


 VERY BAD NEWS! internal error in subroutine IBZKPT:
 Reciprocal lattice and k-lattice belong to different class of lattices. Often results are still useful...     168


 VERY BAD NEWS! internal error in subroutine IBZKPT:
 Reciprocal lattice and k-lattice belong to different class of lattices. Often results are still useful...     168


 VERY BAD NEWS! internal error in subroutine IBZKPT:
 Reciprocal lattice and k-lattice belong to different class of lattices. Often results are still useful...     168


 VERY BAD NEWS! internal error in subroutine IBZKPT:
 Reciprocal lattice and k-lattice belong to different class of lattices. Often results are still useful...     168


 VERY BAD NEWS! internal error in subroutine IBZKPT:
 Reciprocal lattice and k-lattice belong to different class of lattices. Often results are still useful...     168


 VERY BAD NEWS! internal error in subroutine IBZKPT:
 Reciprocal lattice and k-lattice belong to different class of lattices. Often results are still useful...     168


 VERY BAD NEWS! internal error in subroutine IBZKPT:
 Reciprocal lattice and k-lattice belong to different class of lattices. Often results are still useful...     168


 VERY BAD NEWS! internal error in subroutine IBZKPT:
 Reciprocal lattice and k-lattice belong to different class of lattices. Often results are still useful...     168


 VERY BAD NEWS! internal error in subroutine IBZKPT:
 Reciprocal lattice and k-lattice belong to different class of lattices. Often results are still useful...     168


 VERY BAD NEWS! internal error in subroutine IBZKPT:
 Reciprocal lattice and k-lattice belong to different class of lattices. Often results are still useful...     168


 VERY BAD NEWS! internal error in subroutine IBZKPT:
 Reciprocal lattice and k-lattice belong to different class of lattices. Often results are still useful...     168


 VERY BAD NEWS! internal error in subroutine IBZKPT:
 Reciprocal lattice and k-lattice belong to different class of lattices. Often results are still useful...     168


 VERY BAD NEWS! internal error in subroutine IBZKPT:
 Reciprocal lattice and k-lattice belong to different class of lattices. Often results are still useful...     168


 VERY BAD NEWS! internal error in subroutine IBZKPT:
 Reciprocal lattice and k-lattice belong to different class of lattices. Often results are still useful...     168


 VERY BAD NEWS! internal error in subroutine IBZKPT:
 Reciprocal lattice and k-lattice belong to different class of lattices. Often results are still useful...     168


 VERY BAD NEWS! internal error in subroutine IBZKPT:
 Reciprocal lattice and k-lattice belong to different class of lattices. Often results are still useful...     168


 VERY BAD NEWS! internal error in subroutine IBZKPT:
 Reciprocal lattice and k-lattice belong to different class of lattices. Often results are still useful...     168


 VERY BAD NEWS! internal error in subroutine IBZKPT:
 Reciprocal lattice and k-lattice belong to different class of lattices. Often results are still useful...     168


 VERY BAD NEWS! internal error in subroutine IBZKPT:
 Reciprocal lattice and k-lattice belong to different class of lattices. Often results are still useful...     168


 VERY BAD NEWS! internal error in subroutine IBZKPT:
 Reciprocal lattice and k-lattice belong to different class of lattices. Often results are still useful...     168


 VERY BAD NEWS! internal error in subroutine IBZKPT:
 Reciprocal lattice and k-lattice belong to different class of lattices. Often results are still useful...     168


 VERY BAD NEWS! internal error in subroutine IBZKPT:
 Reciprocal lattice and k-lattice belong to different class of lattices. Often results are still useful...     168


 VERY BAD NEWS! internal error in subroutine IBZKPT:
 Reciprocal lattice and k-lattice belong to different class of lattices. Often results are still useful...     168


 VERY BAD NEWS! internal error in subroutine IBZKPT:
 Reciprocal lattice and k-lattice belong to different class of lattices. Often results are still useful...     168


 VERY BAD NEWS! internal error in subroutine IBZKPT:
 Reciprocal lattice and k-lattice belong to different class of lattices. Often results are still useful...     168


 VERY BAD NEWS! internal error in subroutine IBZKPT:
 Reciprocal lattice and k-lattice belong to different class of lattices. Often results are still useful...     168


 VERY BAD NEWS! internal error in subroutine IBZKPT:
 Reciprocal lattice and k-lattice belong to different class of lattices. Often results are still useful...     168


 VERY BAD NEWS! internal error in subroutine IBZKPT:
 Reciprocal lattice and k-lattice belong to different class of lattices. Often results are still useful...     168


 VERY BAD NEWS! internal error in subroutine IBZKPT:
 Reciprocal lattice and k-lattice belong to different class of lattices. Often results are still useful...     168


 VERY BAD NEWS! internal error in subroutine IBZKPT:
 Reciprocal lattice and k-lattice belong to different class of lattices. Often results are still useful...     168


 VERY BAD NEWS! internal error in subroutine IBZKPT:
 Reciprocal lattice and k-lattice belong to different class of lattices. Often results are still useful...     168


 VERY BAD NEWS! internal error in subroutine IBZKPT:
 Reciprocal lattice and k-lattice belong to different class of lattices. Often results are still useful...     168


 VERY BAD NEWS! internal error in subroutine IBZKPT:
 Reciprocal lattice and k-lattice belong to different class of lattices. Often results are still useful...     168


 VERY BAD NEWS! internal error in subroutine IBZKPT:
 Reciprocal lattice and k-lattice belong to different class of lattices. Often results are still useful...     168


 VERY BAD NEWS! internal error in subroutine IBZKPT:
 Reciprocal lattice and k-lattice belong to different class of lattices. Often results are still useful...     168


 VERY BAD NEWS! internal error in subroutine IBZKPT:
 Reciprocal lattice and k-lattice belong to different class of lattices. Often results are still useful...     168


 VERY BAD NEWS! internal error in subroutine IBZKPT:
 Reciprocal lattice and k-lattice belong to different class of lattices. Often results are still useful...     168


 VERY BAD NEWS! internal error in subroutine IBZKPT:
 Reciprocal lattice and k-lattice belong to different class of lattices. Often results are still useful...     168


 VERY BAD NEWS! internal error in subroutine IBZKPT:
 Reciprocal lattice and k-lattice belong to different class of lattices. Often results are still useful...     168


 VERY BAD NEWS! internal error in subroutine IBZKPT:
 Reciprocal lattice and k-lattice belong to different class of lattices. Often results are still useful...     168


 VERY BAD NEWS! internal error in subroutine IBZKPT:
 Reciprocal lattice and k-lattice belong to different class of lattices. Often results are still useful...     168


 VERY BAD NEWS! internal error in subroutine IBZKPT:
 Reciprocal lattice and k-lattice belong to different class of lattices. Often results are still useful...     168


 VERY BAD NEWS! internal error in subroutine IBZKPT:
 Reciprocal lattice and k-lattice belong to different class of lattices. Often results are still useful...     168


 VERY BAD NEWS! internal error in subroutine IBZKPT:
 Reciprocal lattice and k-lattice belong to different class of lattices. Often results are still useful...     168


 VERY BAD NEWS! internal error in subroutine IBZKPT:
 Reciprocal lattice and k-lattice belong to different class of lattices. Often results are still useful...     168


 VERY BAD NEWS! internal error in subroutine IBZKPT:
 Reciprocal lattice and k-lattice belong to different class of lattices. Often results are still useful...     168


 VERY BAD NEWS! internal error in subroutine IBZKPT:
 Reciprocal lattice and k-lattice belong to different class of lattices. Often results are still useful...     168


 VERY BAD NEWS! internal error in subroutine IBZKPT:
 Reciprocal lattice and k-lattice belong to different class of lattices. Often results are still useful...     168


 VERY BAD NEWS! internal error in subroutine IBZKPT:
 Reciprocal lattice and k-lattice belong to different class of lattices. Often results are still useful...     168


 VERY BAD NEWS! internal error in subroutine IBZKPT:
 Reciprocal lattice and k-lattice belong to different class of lattices. Often results are still useful...     168


 VERY BAD NEWS! internal error in subroutine IBZKPT:
 Reciprocal lattice and k-lattice belong to different class of lattices. Often results are still useful...     168


 VERY BAD NEWS! internal error in subroutine IBZKPT:
 Reciprocal lattice and k-lattice belong to different class of lattices. Often results are still useful...     168


 VERY BAD NEWS! internal error in subroutine IBZKPT:
 Reciprocal lattice and k-lattice belong to different class of lattices. Often results are still useful...     168


 VERY BAD NEWS! internal error in subroutine IBZKPT:
 Reciprocal lattice and k-lattice belong to different class of lattices. Often results are still useful...     168


 VERY BAD NEWS! internal error in subroutine IBZKPT:
 Reciprocal lattice and k-lattice belong to different class of lattices. Often results are still useful...     168


 VERY BAD NEWS! internal error in subroutine IBZKPT:
 Reciprocal lattice and k-lattice belong to different class of lattices. Often results are still useful...     168


 VERY BAD NEWS! internal error in subroutine IBZKPT:
 Reciprocal lattice and k-lattice belong to different class of lattices. Often results are still useful...     168


 VERY BAD NEWS! internal error in subroutine IBZKPT:
 Reciprocal lattice and k-lattice belong to different class of lattices. Often results are still useful...     168


 VERY BAD NEWS! internal error in subroutine IBZKPT:
 Reciprocal lattice and k-lattice belong to different class of lattices. Often results are still useful...     168


 VERY BAD NEWS! internal error in subroutine IBZKPT:
 Reciprocal lattice and k-lattice belong to different class of lattices. Often results are still useful...     168


 VERY BAD NEWS! internal error in subroutine IBZKPT:
 Reciprocal lattice and k-lattice belong to different class of lattices. Often results are still useful...     168


 VERY BAD NEWS! internal error in subroutine IBZKPT:
 Reciprocal lattice and k-lattice belong to different class of lattices. Often results are still useful...     168


 VERY BAD NEWS! internal error in subroutine IBZKPT:
 Reciprocal lattice and k-lattice belong to different class of lattices. Often results are still useful...     168


 VERY BAD NEWS! internal error in subroutine IBZKPT:
 Reciprocal lattice and k-lattice belong to different class of lattices. Often results are still useful...     168


 VERY BAD NEWS! internal error in subroutine IBZKPT:
 Reciprocal lattice and k-lattice belong to different class of lattices. Often results are still useful...     168


 VERY BAD NEWS! internal error in subroutine IBZKPT:
 Reciprocal lattice and k-lattice belong to different class of lattices. Often results are still useful...     168


 VERY BAD NEWS! internal error in subroutine IBZKPT:
 Reciprocal lattice and k-lattice belong to different class of lattices. Often results are still useful...     168


 VERY BAD NEWS! internal error in subroutine IBZKPT:
 Reciprocal lattice and k-lattice belong to different class of lattices. Often results are still useful...     168


 VERY BAD NEWS! internal error in subroutine IBZKPT:
 Reciprocal lattice and k-lattice belong to different class of lattices. Often results are still useful...     168


 VERY BAD NEWS! internal error in subroutine IBZKPT:
 Reciprocal lattice and k-lattice belong to different class of lattices. Often results are still useful...     168
 POSCAR, INCAR and KPOINTS ok, starting setup
 FFT: planning ...
 WAVECAR not read
 entering main loop
       N       E                     dE             d eps       ncg     rms          rms(c)
DAV:   1     0.380874633576E+04    0.38087E+04   -0.21723E+05  2240   0.153E+03
DAV:   2    -0.221140237175E+03   -0.40299E+04   -0.38213E+04  2640   0.384E+02
DAV:   3    -0.740541983101E+03   -0.51940E+03   -0.51094E+03  2560   0.156E+02
DAV:   4    -0.762253503434E+03   -0.21712E+02   -0.21546E+02  2568   0.367E+01
DAV:   5    -0.763046056616E+03   -0.79255E+00   -0.79148E+00  3264   0.651E+00    0.468E+01
RMM:   6    -0.715471119411E+03    0.47575E+02   -0.11549E+02  2240   0.176E+01    0.246E+01
RMM:   7    -0.707868012784E+03    0.76031E+01   -0.27019E+01  2279   0.804E+00    0.119E+01
RMM:   8    -0.707306740452E+03    0.56127E+00   -0.53959E+00  2275   0.421E+00    0.305E+00
RMM:   9    -0.707255577846E+03    0.51163E-01   -0.39614E-01  2309   0.131E+00    0.899E-01
RMM:  10    -0.707262065578E+03   -0.64877E-02   -0.68807E-02  2294   0.492E-01    0.369E-01
RMM:  11    -0.707263376882E+03   -0.13113E-02   -0.11458E-02  2328   0.196E-01    0.156E-01
RMM:  12    -0.707264014030E+03   -0.63715E-03   -0.27400E-03  2267   0.102E-01    0.543E-02
RMM:  13    -0.707263978036E+03    0.35994E-04   -0.78647E-04  2276   0.477E-02    0.350E-02
RMM:  14    -0.707263936433E+03    0.41603E-04   -0.17394E-04  2285   0.226E-02    0.108E-02
RMM:  15    -0.707263926955E+03    0.94782E-05   -0.55769E-05  2302   0.120E-02    0.933E-03
RMM:  16    -0.707263922355E+03    0.46006E-05   -0.11225E-05  2282   0.596E-03    0.248E-03
RMM:  17    -0.707263922015E+03    0.33963E-06   -0.31332E-06  2295   0.293E-03    0.172E-03
RMM:  18    -0.707263921898E+03    0.11728E-06   -0.66553E-07  1889   0.148E-03    0.790E-04
RMM:  19    -0.707263922005E+03   -0.10745E-06   -0.92897E-08  1346   0.603E-04    0.306E-04
RMM:  20    -0.707263922040E+03   -0.35147E-07   -0.50484E-08  1344   0.456E-04
   1 F= -.71550647E+03 E0= -.71550647E+03  d E =-.715506E+03
 curvature:   0.00 expect dE= 0.000E+00 dE for cont linesearch  0.000E+00
 trial: gam= 0.00000 g(F)=  0.870E-03 g(S)=  0.412E-04 ort = 0.000E+00 (trialstep = 0.100E+01)
 search vector abs. value=  0.911E-03
 bond charge predicted
       N       E                     dE             d eps       ncg     rms          rms(c)
DAV:   1    -0.707264177191E+03   -0.25519E-03   -0.15516E-01  2424   0.893E-01    0.957E-02
RMM:   2    -0.707264448392E+03   -0.27120E-03   -0.39183E-03  2240   0.137E-01    0.598E-02
RMM:   3    -0.707264398046E+03    0.50346E-04   -0.18699E-04  2327   0.340E-02    0.358E-02
RMM:   4    -0.707264384530E+03    0.13517E-04   -0.75305E-05  2286   0.168E-02    0.884E-03
RMM:   5    -0.707264383947E+03    0.58288E-06   -0.50561E-06  2286   0.529E-03    0.392E-03
RMM:   6    -0.707264383824E+03    0.12290E-06   -0.15800E-06  2166   0.243E-03    0.183E-03
RMM:   7    -0.707264383737E+03    0.87231E-07   -0.20064E-07  1371   0.111E-03
   2 F= -.71550654E+03 E0= -.71550654E+03  d E =-.688082E-04
 trial-energy change:   -0.000069  1 .order   -0.000065   -0.000911    0.000781
 step:   0.5418(harm=  0.5383)  dis= 0.00075  next Energy=  -715.506718 (dE=-0.247E-03)
 bond charge predicted
       N       E                     dE             d eps       ncg     rms          rms(c)
DAV:   1    -0.707264339637E+03    0.44187E-04   -0.32524E-02  2448   0.409E-01    0.439E-02
RMM:   2    -0.707264397154E+03   -0.57517E-04   -0.81361E-04  2240   0.628E-02    0.275E-02
RMM:   3    -0.707264386724E+03    0.10430E-04   -0.38460E-05  2325   0.155E-02    0.164E-02
RMM:   4    -0.707264384016E+03    0.27085E-05   -0.15651E-05  2284   0.765E-03    0.405E-03
RMM:   5    -0.707264383822E+03    0.19320E-06   -0.10316E-06  2210   0.242E-03    0.178E-03
RMM:   6    -0.707264383750E+03    0.72410E-07   -0.28806E-07  1473   0.110E-03
   3 F= -.71550672E+03 E0= -.71550672E+03  d E =-.249071E-03
 curvature:  -0.27 expect dE=-0.198E-03 dE for cont linesearch -0.408E-08
 trial: gam= 0.81107 g(F)=  0.724E-03 g(S)=  0.111E-04 ort =-0.372E-05 (trialstep = 0.623E+00)
 search vector abs. value=  0.133E-02
 bond charge predicted
       N       E                     dE             d eps       ncg     rms          rms(c)
DAV:   1    -0.707264707065E+03   -0.32324E-03   -0.80993E-02  2368   0.642E-01    0.648E-02
RMM:   2    -0.707264863519E+03   -0.15645E-03   -0.18734E-03  2241   0.919E-02    0.377E-02
RMM:   3    -0.707264843556E+03    0.19963E-04   -0.69683E-05  2350   0.221E-02    0.245E-02
RMM:   4    -0.707264839534E+03    0.40216E-05   -0.25270E-05  2282   0.100E-02    0.661E-03
RMM:   5    -0.707264839385E+03    0.14920E-06   -0.21542E-06  2263   0.337E-03    0.215E-03
RMM:   6    -0.707264839403E+03   -0.17677E-07   -0.37454E-07  1595   0.129E-03
   4 F= -.71550695E+03 E0= -.71550695E+03  d E =-.235372E-03
 trial-energy change:   -0.000235  1 .order   -0.000235   -0.000456   -0.000015
 step:   0.6441(harm=  0.6441)  dis= 0.00113  next Energy=  -715.506955 (dE=-0.236E-03)
 bond charge predicted
       N       E                     dE             d eps       ncg     rms          rms(c)
DAV:   1    -0.707264847035E+03   -0.76502E-05   -0.94230E-05  2560   0.220E-02    0.221E-03
RMM:   2    -0.707264847231E+03   -0.19583E-06   -0.22200E-06  2241   0.324E-03    0.134E-03
RMM:   3    -0.707264847217E+03    0.14599E-07   -0.72784E-08  1331   0.837E-04
   5 F= -.71550696E+03 E0= -.71550696E+03  d E =-.235707E-03
 curvature:  -0.58 expect dE=-0.450E-03 dE for cont linesearch -0.487E-08
 trial: gam= 1.02865 g(F)=  0.746E-03 g(S)=  0.237E-04 ort = 0.333E-05 (trialstep = 0.382E+00)
 search vector abs. value=  0.218E-02
 bond charge predicted
       N       E                     dE             d eps       ncg     rms          rms(c)
DAV:   1    -0.707264558088E+03    0.28914E-03   -0.48011E-02  2336   0.494E-01    0.507E-02
RMM:   2    -0.707264643388E+03   -0.85299E-04   -0.11238E-03  2241   0.705E-02    0.296E-02
RMM:   3    -0.707264630724E+03    0.12663E-04   -0.45294E-05  2301   0.178E-02    0.187E-02
RMM:   4    -0.707264628079E+03    0.26451E-05   -0.13945E-05  2289   0.759E-03    0.537E-03
RMM:   5    -0.707264628113E+03   -0.33426E-07   -0.12690E-06  2250   0.249E-03    0.166E-03
RMM:   6    -0.707264628124E+03   -0.11067E-07   -0.15684E-07  1354   0.901E-04
   6 F= -.71550715E+03 E0= -.71550715E+03  d E =-.190827E-03
 trial-energy change:   -0.000191  1 .order   -0.000192   -0.000295   -0.000088
 step:   0.5521(harm=  0.5450)  dis= 0.00096  next Energy=  -715.507166 (dE=-0.210E-03)
 bond charge predicted
       N       E                     dE             d eps       ncg     rms          rms(c)
DAV:   1    -0.707264449567E+03    0.17855E-03   -0.95815E-03  2352   0.221E-01    0.227E-02
RMM:   2    -0.707264466766E+03   -0.17199E-04   -0.22566E-04  2242   0.316E-02    0.133E-02
RMM:   3    -0.707264464279E+03    0.24865E-05   -0.91171E-06  2299   0.796E-03    0.837E-03
RMM:   4    -0.707264463836E+03    0.44300E-06   -0.28152E-06  2278   0.340E-03    0.242E-03
RMM:   5    -0.707264463871E+03   -0.34852E-07   -0.22808E-07  1396   0.113E-03
   7 F= -.71550716E+03 E0= -.71550716E+03  d E =-.209541E-03
 curvature:  -0.77 expect dE=-0.509E-03 dE for cont linesearch -0.640E-08
 trial: gam= 0.87777 g(F)=  0.654E-03 g(S)=  0.946E-05 ort =-0.427E-05 (trialstep = 0.388E+00)
 search vector abs. value=  0.234E-02
 bond charge predicted
       N       E                     dE             d eps       ncg     rms          rms(c)
DAV:   1    -0.707264186608E+03    0.27723E-03   -0.52432E-02  2304   0.519E-01    0.488E-02
RMM:   2    -0.707264289172E+03   -0.10256E-03   -0.12481E-03  2243   0.732E-02    0.278E-02
RMM:   3    -0.707264275938E+03    0.13235E-04   -0.44274E-05  2343   0.174E-02    0.180E-02
RMM:   4    -0.707264274371E+03    0.15669E-05   -0.15423E-05  2299   0.795E-03    0.408E-03
RMM:   5    -0.707264274350E+03    0.20984E-07   -0.10107E-06  2135   0.230E-03    0.156E-03
RMM:   6    -0.707264274368E+03   -0.18052E-07   -0.18774E-07  1357   0.974E-04
   8 F= -.71550736E+03 E0= -.71550736E+03  d E =-.191889E-03
 trial-energy change:   -0.000192  1 .order   -0.000194   -0.000256   -0.000133
 step:   0.9831(harm=  0.8057)  dis= 0.00192  next Energy=  -715.507450 (dE=-0.285E-03)
 bond charge predicted
       N       E                     dE             d eps       ncg     rms          rms(c)
DAV:   1    -0.707263547706E+03    0.72664E-03   -0.12306E-01  2304   0.795E-01    0.747E-02
RMM:   2    -0.707263787625E+03   -0.23992E-03   -0.29298E-03  2243   0.112E-01    0.426E-02
RMM:   3    -0.707263756498E+03    0.31128E-04   -0.10396E-04  2341   0.266E-02    0.275E-02
RMM:   4    -0.707263752395E+03    0.41022E-05   -0.36189E-05  2301   0.122E-02    0.628E-03
RMM:   5    -0.707263752288E+03    0.10712E-06   -0.24105E-06  2253   0.354E-03    0.242E-03
RMM:   6    -0.707263752300E+03   -0.11263E-07   -0.50864E-07  1845   0.150E-03
   9 F= -.71550742E+03 E0= -.71550742E+03  d E =-.254239E-03
 curvature:  -1.17 expect dE=-0.140E-02 dE for cont linesearch -0.954E-05
 ZBRENT: interpolating
 opt :   0.8119  next Energy=  -715.507431 (dE=-0.266E-03)
 bond charge predicted
       N       E                     dE             d eps       ncg     rms          rms(c)
DAV:   1    -0.707263915842E+03   -0.16355E-03   -0.10178E-02  2304   0.228E-01    0.215E-02
RMM:   2    -0.707263935341E+03   -0.19500E-04   -0.24116E-04  2244   0.322E-02    0.123E-02
RMM:   3    -0.707263932588E+03    0.27534E-05   -0.84642E-06  2331   0.757E-03    0.789E-03
RMM:   4    -0.707263931959E+03    0.62934E-06   -0.29844E-06  2265   0.349E-03    0.180E-03
RMM:   5    -0.707263931908E+03    0.50532E-07   -0.16675E-07  1367   0.105E-03
  10 F= -.71550743E+03 E0= -.71550743E+03  d E =-.265595E-03
 curvature:  -1.45 expect dE=-0.116E-02 dE for cont linesearch -0.128E-07
 trial: gam= 1.17313 g(F)=  0.773E-03 g(S)=  0.269E-04 ort = 0.455E-05 (trialstep = 0.274E+00)
 search vector abs. value=  0.403E-02
 bond charge predicted
       N       E                     dE             d eps       ncg     rms          rms(c)
DAV:   1    -0.707264075027E+03   -0.14307E-03   -0.41620E-02  2304   0.462E-01    0.417E-02
RMM:   2    -0.707264164720E+03   -0.89693E-04   -0.10247E-03  2245   0.647E-02    0.241E-02
RMM:   3    -0.707264153455E+03    0.11265E-04   -0.31745E-05  2297   0.146E-02    0.159E-02
RMM:   4    -0.707264152238E+03    0.12168E-05   -0.13099E-05  2299   0.717E-03    0.357E-03
RMM:   5    -0.707264152151E+03    0.87028E-07   -0.78206E-07  2064   0.200E-03
  11 F= -.71550762E+03 E0= -.71550762E+03  d E =-.185882E-03
 trial-energy change:   -0.000186  1 .order   -0.000185   -0.000221   -0.000150
 step:   0.7905(harm=  0.8498)  dis= 0.00205  next Energy=  -715.507760 (dE=-0.330E-03)
 bond charge predicted
       N       E                     dE             d eps       ncg     rms          rms(c)
DAV:   1    -0.707264098953E+03    0.53285E-04   -0.14715E-01  2272   0.868E-01    0.784E-02
RMM:   2    -0.707264419091E+03   -0.32014E-03   -0.36389E-03  2245   0.122E-01    0.455E-02
RMM:   3    -0.707264379584E+03    0.39506E-04   -0.11308E-04  2300   0.275E-02    0.302E-02
RMM:   4    -0.707264375524E+03    0.40608E-05   -0.46570E-05  2297   0.135E-02    0.677E-03
RMM:   5    -0.707264375129E+03    0.39521E-06   -0.28918E-06  2272   0.381E-03    0.250E-03
RMM:   6    -0.707264375165E+03   -0.36187E-07   -0.46349E-07  1723   0.140E-03
  12 F= -.71550778E+03 E0= -.71550778E+03  d E =-.344763E-03
 curvature:  -2.10 expect dE=-0.205E-02 dE for cont linesearch -0.178E-05
 trial: gam= 1.16138 g(F)=  0.965E-03 g(S)=  0.889E-05 ort = 0.584E-04 (trialstep = 0.233E+00)
 search vector abs. value=  0.654E-02
 bond charge predicted
       N       E                     dE             d eps       ncg     rms          rms(c)
DAV:   1    -0.707264419848E+03   -0.44719E-04   -0.49835E-02  2304   0.506E-01    0.451E-02
RMM:   2    -0.707264524552E+03   -0.10470E-03   -0.12242E-03  2244   0.706E-02    0.264E-02
RMM:   3    -0.707264511153E+03    0.13398E-04   -0.38412E-05  2308   0.161E-02    0.174E-02
RMM:   4    -0.707264509696E+03    0.14572E-05   -0.16201E-05  2298   0.826E-03    0.401E-03
RMM:   5    -0.707264509583E+03    0.11290E-06   -0.10105E-06  2187   0.228E-03    0.158E-03
RMM:   6    -0.707264509570E+03    0.13082E-07   -0.22380E-07  1404   0.104E-03
  13 F= -.71550797E+03 E0= -.71550797E+03  d E =-.199584E-03
 trial-energy change:   -0.000200  1 .order   -0.000199   -0.000242   -0.000155
 step:   0.5990(harm=  0.6486)  dis= 0.00202  next Energy=  -715.508100 (dE=-0.325E-03)
 bond charge predicted
       N       E                     dE             d eps       ncg     rms          rms(c)
DAV:   1    -0.707264324126E+03    0.18546E-03   -0.12372E-01  2256   0.797E-01    0.710E-02
RMM:   2    -0.707264584012E+03   -0.25989E-03   -0.30362E-03  2244   0.111E-01    0.416E-02
RMM:   3    -0.707264550613E+03    0.33399E-04   -0.95043E-05  2309   0.254E-02    0.274E-02
RMM:   4    -0.707264547011E+03    0.36025E-05   -0.40439E-05  2296   0.130E-02    0.634E-03
RMM:   5    -0.707264546677E+03    0.33356E-06   -0.25508E-06  2267   0.360E-03    0.249E-03
RMM:   6    -0.707264546637E+03    0.40509E-07   -0.60577E-07  1894   0.160E-03
  14 F= -.71550811E+03 E0= -.71550811E+03  d E =-.339246E-03
 curvature:  -2.01 expect dE=-0.165E-02 dE for cont linesearch -0.187E-05
 trial: gam= 0.89512 g(F)=  0.806E-03 g(S)=  0.152E-04 ort = 0.782E-04 (trialstep = 0.306E+00)
 search vector abs. value=  0.620E-02
 bond charge predicted
       N       E                     dE             d eps       ncg     rms          rms(c)
DAV:   1    -0.707264517713E+03    0.28965E-04   -0.83584E-02  2256   0.654E-01    0.592E-02
RMM:   2    -0.707264693735E+03   -0.17602E-03   -0.20357E-03  2244   0.914E-02    0.337E-02
RMM:   3    -0.707264671375E+03    0.22360E-04   -0.61765E-05  2301   0.205E-02    0.223E-02
RMM:   4    -0.707264669306E+03    0.20692E-05   -0.26322E-05  2305   0.997E-03    0.508E-03
RMM:   5    -0.707264668957E+03    0.34886E-06   -0.19265E-06  2229   0.304E-03    0.178E-03
RMM:   6    -0.707264668982E+03   -0.24709E-07   -0.23851E-07  1427   0.107E-03
  15 F= -.71550833E+03 E0= -.71550833E+03  d E =-.210573E-03
 trial-energy change:   -0.000211  1 .order   -0.000209   -0.000272   -0.000146
 step:   0.6257(harm=  0.6608)  dis= 0.00212  next Energy=  -715.508403 (dE=-0.288E-03)
 bond charge predicted
       N       E                     dE             d eps       ncg     rms          rms(c)
DAV:   1    -0.707264496273E+03    0.17268E-03   -0.91441E-02  2256   0.684E-01    0.619E-02
RMM:   2    -0.707264688859E+03   -0.19259E-03   -0.22273E-03  2244   0.956E-02    0.353E-02
RMM:   3    -0.707264664307E+03    0.24553E-04   -0.67398E-05  2303   0.214E-02    0.233E-02
RMM:   4    -0.707264662018E+03    0.22892E-05   -0.28883E-05  2303   0.104E-02    0.533E-03
RMM:   5    -0.707264661621E+03    0.39631E-06   -0.21226E-06  2229   0.319E-03    0.187E-03
RMM:   6    -0.707264661642E+03   -0.20711E-07   -0.26308E-07  1443   0.112E-03
  16 F= -.71550841E+03 E0= -.71550841E+03  d E =-.295458E-03
 curvature:  -2.28 expect dE=-0.170E-02 dE for cont linesearch -0.818E-06
 trial: gam= 0.95107 g(F)=  0.720E-03 g(S)=  0.268E-04 ort = 0.472E-04 (trialstep = 0.356E+00)
 search vector abs. value=  0.645E-02
 bond charge predicted
       N       E                     dE             d eps       ncg     rms          rms(c)
DAV:   1    -0.707264275654E+03    0.38597E-03   -0.11583E-01  2256   0.770E-01    0.718E-02
RMM:   2    -0.707264507717E+03   -0.23206E-03   -0.27784E-03  2244   0.107E-01    0.407E-02
RMM:   3    -0.707264475754E+03    0.31963E-04   -0.87743E-05  2296   0.247E-02    0.264E-02
RMM:   4    -0.707264472382E+03    0.33723E-05   -0.32725E-05  2285   0.116E-02    0.567E-03
RMM:   5    -0.707264472207E+03    0.17475E-06   -0.20951E-06  2259   0.331E-03    0.221E-03
RMM:   6    -0.707264472197E+03    0.10328E-07   -0.41439E-07  1700   0.133E-03
  17 F= -.71550863E+03 E0= -.71550863E+03  d E =-.216373E-03
 trial-energy change:   -0.000216  1 .order   -0.000217   -0.000282   -0.000152
 step:   0.7716(harm=  0.7716)  dis= 0.00260  next Energy=  -715.508715 (dE=-0.305E-03)
 bond charge predicted
       N       E                     dE             d eps       ncg     rms          rms(c)
DAV:   1    -0.707263823011E+03    0.64920E-03   -0.15821E-01  2240   0.900E-01    0.839E-02
RMM:   2    -0.707264139744E+03   -0.31673E-03   -0.37965E-03  2244   0.125E-01    0.476E-02
RMM:   3    -0.707264096090E+03    0.43654E-04   -0.12016E-04  2300   0.289E-02    0.308E-02
RMM:   4    -0.707264091371E+03    0.47198E-05   -0.44712E-05  2283   0.136E-02    0.666E-03
RMM:   5    -0.707264091117E+03    0.25388E-06   -0.28633E-06  2270   0.386E-03    0.261E-03
RMM:   6    -0.707264091093E+03    0.23225E-07   -0.61079E-07  1955   0.158E-03
  18 F= -.71550872E+03 E0= -.71550872E+03  d E =-.309957E-03
 curvature:  -3.14 expect dE=-0.268E-02 dE for cont linesearch -0.684E-10
 trial: gam= 1.16933 g(F)=  0.840E-03 g(S)=  0.126E-04 ort = 0.375E-06 (trialstep = 0.293E+00)
 search vector abs. value=  0.967E-02
 bond charge predicted
       N       E                     dE             d eps       ncg     rms          rms(c)
DAV:   1    -0.707263789293E+03    0.30182E-03   -0.11705E-01  2240   0.777E-01    0.718E-02
RMM:   2    -0.707264031827E+03   -0.24253E-03   -0.28622E-03  2246   0.108E-01    0.408E-02
RMM:   3    -0.707263999179E+03    0.32649E-04   -0.91267E-05  2315   0.248E-02    0.264E-02
RMM:   4    -0.707263995751E+03    0.34273E-05   -0.32546E-05  2290   0.114E-02    0.543E-03
RMM:   5    -0.707263995545E+03    0.20661E-06   -0.21467E-06  2263   0.331E-03    0.207E-03
RMM:   6    -0.707263995562E+03   -0.16902E-07   -0.29456E-07  1463   0.117E-03
  19 F= -.71550891E+03 E0= -.71550891E+03  d E =-.188566E-03
 trial-energy change:   -0.000189  1 .order   -0.000187   -0.000250   -0.000125
 step:   0.5513(harm=  0.5843)  dis= 0.00221  next Energy=  -715.508964 (dE=-0.245E-03)
 bond charge predicted
       N       E                     dE             d eps       ncg     rms          rms(c)
DAV:   1    -0.707263646989E+03    0.34856E-03   -0.91422E-02  2240   0.686E-01    0.635E-02
RMM:   2    -0.707263836635E+03   -0.18965E-03   -0.22365E-03  2246   0.956E-02    0.361E-02
RMM:   3    -0.707263811083E+03    0.25551E-04   -0.71200E-05  2315   0.218E-02    0.234E-02
RMM:   4    -0.707263808445E+03    0.26384E-05   -0.25437E-05  2290   0.101E-02    0.480E-03
RMM:   5    -0.707263808290E+03    0.15474E-06   -0.16797E-06  2257   0.292E-03    0.183E-03
RMM:   6    -0.707263808309E+03   -0.18568E-07   -0.22019E-07  1401   0.103E-03
  20 F= -.71550897E+03 E0= -.71550897E+03  d E =-.252577E-03
 curvature:  -3.27 expect dE=-0.166E-02 dE for cont linesearch -0.829E-06
 trial: gam= 0.49141 g(F)=  0.493E-03 g(S)=  0.147E-04 ort = 0.495E-04 (trialstep = 0.344E+00)
 search vector abs. value=  0.289E-02
 bond charge predicted
       N       E                     dE             d eps       ncg     rms          rms(c)
DAV:   1    -0.707263902262E+03   -0.93972E-04   -0.48409E-02  2288   0.502E-01    0.473E-02
RMM:   2    -0.707264008883E+03   -0.10662E-03   -0.12402E-03  2246   0.712E-02    0.274E-02
RMM:   3    -0.707263994448E+03    0.14435E-04   -0.39381E-05  2315   0.163E-02    0.178E-02
RMM:   4    -0.707263992739E+03    0.17094E-05   -0.13954E-05  2303   0.753E-03    0.371E-03
RMM:   5    -0.707263992583E+03    0.15561E-06   -0.91505E-07  2147   0.220E-03    0.134E-03
RMM:   6    -0.707263992563E+03    0.19794E-07   -0.13130E-07  1356   0.800E-04
  21 F= -.71550912E+03 E0= -.71550912E+03  d E =-.152389E-03
 trial-energy change:   -0.000152  1 .order   -0.000150   -0.000183   -0.000117
 step:   0.7650(harm=  0.9516)  dis= 0.00167  next Energy=  -715.509200 (dE=-0.228E-03)
 bond charge predicted
       N       E                     dE             d eps       ncg     rms          rms(c)
DAV:   1    -0.707263991092E+03    0.14915E-05   -0.72206E-02  2240   0.613E-01    0.578E-02
RMM:   2    -0.707264150076E+03   -0.15898E-03   -0.18503E-03  2246   0.870E-02    0.335E-02
RMM:   3    -0.707264128511E+03    0.21565E-04   -0.58705E-05  2315   0.199E-02    0.218E-02
RMM:   4    -0.707264125970E+03    0.25409E-05   -0.20908E-05  2304   0.921E-03    0.454E-03
RMM:   5    -0.707264125744E+03    0.22570E-06   -0.13806E-06  2230   0.268E-03    0.164E-03
RMM:   6    -0.707264125719E+03    0.25182E-07   -0.19159E-07  1378   0.957E-04
  22 F= -.71550922E+03 E0= -.71550922E+03  d E =-.246890E-03
 curvature:  -2.34 expect dE=-0.138E-02 dE for cont linesearch -0.865E-05
 trial: gam= 1.04237 g(F)=  0.586E-03 g(S)=  0.558E-05 ort = 0.103E-03 (trialstep = 0.314E+00)
 search vector abs. value=  0.395E-02
 bond charge predicted
       N       E                     dE             d eps       ncg     rms          rms(c)
DAV:   1    -0.707264411142E+03   -0.28540E-03   -0.56462E-02  2256   0.541E-01    0.506E-02
RMM:   2    -0.707264533759E+03   -0.12262E-03   -0.14320E-03  2245   0.770E-02    0.291E-02
RMM:   3    -0.707264517360E+03    0.16399E-04   -0.47098E-05  2328   0.177E-02    0.191E-02
RMM:   4    -0.707264515154E+03    0.22060E-05   -0.16231E-05  2293   0.798E-03    0.401E-03
RMM:   5    -0.707264515032E+03    0.12280E-06   -0.10188E-06  2184   0.238E-03    0.147E-03
RMM:   6    -0.707264514991E+03    0.40403E-07   -0.13335E-07  1351   0.822E-04
  23 F= -.71550939E+03 E0= -.71550939E+03  d E =-.165868E-03
 trial-energy change:   -0.000166  1 .order   -0.000164   -0.000219   -0.000108
 step:   0.5605(harm=  0.6158)  dis= 0.00144  next Energy=  -715.509429 (dE=-0.209E-03)
 bond charge predicted
       N       E                     dE             d eps       ncg     rms          rms(c)
DAV:   1    -0.707264677416E+03   -0.16238E-03   -0.34926E-02  2288   0.426E-01    0.398E-02
RMM:   2    -0.707264753290E+03   -0.75874E-04   -0.88643E-04  2244   0.606E-02    0.229E-02
RMM:   3    -0.707264743113E+03    0.10177E-04   -0.29198E-05  2328   0.139E-02    0.150E-02
RMM:   4    -0.707264741694E+03    0.14198E-05   -0.10058E-05  2295   0.630E-03    0.316E-03
RMM:   5    -0.707264741603E+03    0.90811E-07   -0.60956E-07  1905   0.187E-03
  24 F= -.71550944E+03 E0= -.71550944E+03  d E =-.216796E-03
 curvature:  -1.68 expect dE=-0.892E-03 dE for cont linesearch -0.180E-05
 trial: gam= 1.08272 g(F)=  0.526E-03 g(S)=  0.457E-05 ort = 0.651E-04 (trialstep = 0.271E+00)
 search vector abs. value=  0.530E-02
 bond charge predicted
       N       E                     dE             d eps       ncg     rms          rms(c)
DAV:   1    -0.707264986980E+03   -0.24529E-03   -0.55745E-02  2256   0.537E-01    0.498E-02
RMM:   2    -0.707265107955E+03   -0.12098E-03   -0.14035E-03  2247   0.758E-02    0.284E-02
RMM:   3    -0.707265092176E+03    0.15779E-04   -0.45447E-05  2316   0.175E-02    0.185E-02
RMM:   4    -0.707265090423E+03    0.17535E-05   -0.15713E-05  2300   0.796E-03    0.395E-03
RMM:   5    -0.707265090219E+03    0.20357E-06   -0.10576E-06  2171   0.235E-03    0.145E-03
RMM:   6    -0.707265090176E+03    0.43179E-07   -0.14816E-07  1353   0.863E-04
  25 F= -.71550958E+03 E0= -.71550958E+03  d E =-.140004E-03
 trial-energy change:   -0.000140  1 .order   -0.000139   -0.000163   -0.000115
 step:   0.7517(harm=  0.9289)  dis= 0.00219  next Energy=  -715.509685 (dE=-0.248E-03)
 bond charge predicted
       N       E                     dE             d eps       ncg     rms          rms(c)
DAV:   1    -0.707265273568E+03   -0.18335E-03   -0.17637E-01  2240   0.956E-01    0.884E-02
RMM:   2    -0.707265653997E+03   -0.38043E-03   -0.44253E-03  2248   0.135E-01    0.503E-02
RMM:   3    -0.707265604276E+03    0.49721E-04   -0.14286E-04  2314   0.310E-02    0.327E-02
RMM:   4    -0.707265598929E+03    0.53473E-05   -0.49492E-05  2301   0.141E-02    0.696E-03
RMM:   5    -0.707265598408E+03    0.52101E-06   -0.33083E-06  2272   0.412E-03    0.259E-03
RMM:   6    -0.707265598326E+03    0.81433E-07   -0.50927E-07  1783   0.148E-03
  26 F= -.71550971E+03 E0= -.71550971E+03  d E =-.277728E-03
 curvature:  -3.80 expect dE=-0.210E-02 dE for cont linesearch -0.102E-04
 ZBRENT: extrapolating
 opt :   0.9392  next Energy=  -715.509725 (dE=-0.289E-03)
 bond charge predicted
       N       E                     dE             d eps       ncg     rms          rms(c)
DAV:   1    -0.707265705479E+03   -0.10707E-03   -0.26809E-02  2272   0.373E-01    0.345E-02
RMM:   2    -0.707265763420E+03   -0.57941E-04   -0.67404E-04  2248   0.526E-02    0.196E-02
RMM:   3    -0.707265755896E+03    0.75237E-05   -0.21965E-05  2313   0.122E-02    0.128E-02
RMM:   4    -0.707265754973E+03    0.92346E-06   -0.75350E-06  2301   0.553E-03    0.269E-03
RMM:   5    -0.707265754864E+03    0.10872E-06   -0.46135E-07  1705   0.160E-03    0.102E-03
RMM:   6    -0.707265754837E+03    0.26346E-07   -0.99821E-08  1344   0.740E-04
  27 F= -.71550973E+03 E0= -.71550973E+03  d E =-.290014E-03
 curvature:  -4.16 expect dE=-0.339E-02 dE for cont linesearch -0.168E-07
 trial: gam= 1.48430 g(F)=  0.805E-03 g(S)=  0.109E-04 ort = 0.463E-05 (trialstep = 0.171E+00)
 search vector abs. value=  0.125E-01
 bond charge predicted
       N       E                     dE             d eps       ncg     rms          rms(c)
DAV:   1    -0.707265797598E+03   -0.42734E-04   -0.53298E-02  2240   0.525E-01    0.474E-02
RMM:   2    -0.707265913655E+03   -0.11606E-03   -0.13344E-03  2247   0.737E-02    0.270E-02
RMM:   3    -0.707265898810E+03    0.14844E-04   -0.42111E-05  2320   0.167E-02    0.178E-02
RMM:   4    -0.707265897262E+03    0.15486E-05   -0.15909E-05  2299   0.794E-03    0.374E-03
RMM:   5    -0.707265897019E+03    0.24314E-06   -0.10522E-06  2179   0.230E-03    0.140E-03
RMM:   6    -0.707265896989E+03    0.29737E-07   -0.15177E-07  1358   0.868E-04
  28 F= -.71550985E+03 E0= -.71550985E+03  d E =-.124106E-03
 trial-energy change:   -0.000124  1 .order   -0.000119   -0.000141   -0.000098
 step:   0.3412(harm=  0.5611)  dis= 0.00149  next Energy=  -715.509903 (dE=-0.177E-03)
 bond charge predicted
       N       E                     dE             d eps       ncg     rms          rms(c)
DAV:   1    -0.707265893473E+03    0.35452E-05   -0.52418E-02  2240   0.520E-01    0.470E-02
RMM:   2    -0.707266007616E+03   -0.11414E-03   -0.13127E-03  2247   0.731E-02    0.268E-02
RMM:   3    -0.707265993015E+03    0.14601E-04   -0.41400E-05  2320   0.166E-02    0.176E-02
RMM:   4    -0.707265991486E+03    0.15289E-05   -0.15674E-05  2299   0.787E-03    0.370E-03
RMM:   5    -0.707265991245E+03    0.24104E-06   -0.10347E-06  2174   0.227E-03    0.138E-03
RMM:   6    -0.707265991214E+03    0.30734E-07   -0.14856E-07  1358   0.857E-04
  29 F= -.71550993E+03 E0= -.71550993E+03  d E =-.200608E-03
 curvature:  -2.91 expect dE=-0.123E-02 dE for cont linesearch -0.245E-04
 ZBRENT: increasing intervall
 opt :   0.6809  next Energy=  -715.509953 (dE=-0.227E-03)
 bond charge predicted
       N       E                     dE             d eps       ncg     rms          rms(c)
DAV:   1    -0.707265661446E+03    0.32980E-03   -0.20961E-01  2240   0.104E+00    0.940E-02
RMM:   2    -0.707266117444E+03   -0.45600E-03   -0.52439E-03  2248   0.146E-01    0.535E-02
RMM:   3    -0.707266059299E+03    0.58145E-04   -0.16523E-04  2319   0.331E-02    0.352E-02
RMM:   4    -0.707266053603E+03    0.56954E-05   -0.62513E-05  2299   0.157E-02    0.742E-03
RMM:   5    -0.707266052729E+03    0.87464E-06   -0.41842E-06  2271   0.455E-03    0.277E-03
RMM:   6    -0.707266052664E+03    0.64942E-07   -0.68206E-07  1999   0.166E-03
  30 F= -.71550995E+03 E0= -.71550995E+03  d E =-.227400E-03
 curvature:  -3.15 expect dE=-0.322E-02 dE for cont linesearch -0.755E-05
 ZBRENT: bracketing found
 ZBRENT: interpolating
 opt :   0.5629  next Energy=  -715.509964 (dE=-0.238E-03)
 bond charge predicted
       N       E                     dE             d eps       ncg     rms          rms(c)
DAV:   1    -0.707266004386E+03    0.48343E-04   -0.25269E-02  2256   0.361E-01    0.327E-02
RMM:   2    -0.707266059309E+03   -0.54923E-04   -0.63078E-04  2247   0.507E-02    0.187E-02
RMM:   3    -0.707266052256E+03    0.70527E-05   -0.19696E-05  2317   0.114E-02    0.123E-02
RMM:   4    -0.707266051732E+03    0.52395E-06   -0.76081E-06  2293   0.547E-03    0.264E-03
RMM:   5    -0.707266051655E+03    0.77132E-07   -0.48891E-07  1735   0.160E-03
  31 F= -.71550996E+03 E0= -.71550996E+03  d E =-.238202E-03
 curvature:  -4.27 expect dE=-0.299E-02 dE for cont linesearch -0.107E-06
 trial: gam= 0.75762 g(F)=  0.682E-03 g(S)=  0.193E-04 ort = 0.177E-04 (trialstep = 0.250E+00)
 search vector abs. value=  0.791E-02
 bond charge predicted
       N       E                     dE             d eps       ncg     rms          rms(c)
DAV:   1    -0.707265887912E+03    0.16382E-03   -0.73409E-02  2240   0.615E-01    0.559E-02
RMM:   2    -0.707266043006E+03   -0.15509E-03   -0.18093E-03  2248   0.857E-02    0.317E-02
RMM:   3    -0.707266022387E+03    0.20619E-04   -0.56108E-05  2302   0.194E-02    0.208E-02
RMM:   4    -0.707266020374E+03    0.20123E-05   -0.22468E-05  2292   0.945E-03    0.449E-03
RMM:   5    -0.707266020111E+03    0.26327E-06   -0.14574E-06  2235   0.273E-03    0.167E-03
RMM:   6    -0.707266020087E+03    0.24454E-07   -0.23294E-07  1426   0.102E-03
  32 F= -.71551011E+03 E0= -.71551011E+03  d E =-.148638E-03
 trial-energy change:   -0.000149  1 .order   -0.000151   -0.000178   -0.000124
 step:   0.8188(harm=  0.8188)  dis= 0.00291  next Energy=  -715.510257 (dE=-0.292E-03)
 bond charge predicted
       N       E                     dE             d eps       ncg     rms          rms(c)
DAV:   1    -0.707265065018E+03    0.95509E-03   -0.38190E-01  2240   0.140E+00    0.127E-01
RMM:   2    -0.707265875863E+03   -0.81085E-03   -0.94413E-03  2247   0.196E-01    0.725E-02
RMM:   3    -0.707265769155E+03    0.10671E-03   -0.29378E-04  2305   0.443E-02    0.476E-02
RMM:   4    -0.707265759243E+03    0.99120E-05   -0.11681E-04  2289   0.216E-02    0.103E-02
RMM:   5    -0.707265757935E+03    0.13078E-05   -0.76987E-06  2292   0.627E-03    0.382E-03
RMM:   6    -0.707265757868E+03    0.67128E-07   -0.14102E-06  2173   0.226E-03    0.208E-03
RMM:   7    -0.707265757847E+03    0.21009E-07   -0.33193E-07  1526   0.128E-03
  33 F= -.71551026E+03 E0= -.71551026E+03  d E =-.297950E-03
 curvature:  -4.53 expect dE=-0.375E-02 dE for cont linesearch -0.471E-06
 trial: gam= 1.14174 g(F)=  0.820E-03 g(S)=  0.693E-05 ort = 0.287E-04 (trialstep = 0.257E+00)
 search vector abs. value=  0.112E-01
 bond charge predicted
       N       E                     dE             d eps       ncg     rms          rms(c)
DAV:   1    -0.707265429333E+03    0.32854E-03   -0.11216E-01  2240   0.760E-01    0.691E-02
RMM:   2    -0.707265663793E+03   -0.23446E-03   -0.27454E-03  2247   0.106E-01    0.392E-02
RMM:   3    -0.707265632725E+03    0.31068E-04   -0.84718E-05  2312   0.236E-02    0.255E-02
RMM:   4    -0.707265630063E+03    0.26623E-05   -0.34312E-05  2277   0.116E-02    0.556E-03
RMM:   5    -0.707265629645E+03    0.41839E-06   -0.23798E-06  2263   0.346E-03    0.203E-03
RMM:   6    -0.707265629673E+03   -0.28202E-07   -0.35372E-07  1525   0.126E-03
  34 F= -.71551044E+03 E0= -.71551044E+03  d E =-.180785E-03
 trial-energy change:   -0.000181  1 .order   -0.000179   -0.000220   -0.000138
 step:   0.5932(harm=  0.6846)  dis= 0.00260  next Energy=  -715.510537 (dE=-0.275E-03)
 bond charge predicted
       N       E                     dE             d eps       ncg     rms          rms(c)
DAV:   1    -0.707264991684E+03    0.63796E-03   -0.19298E-01  2240   0.996E-01    0.906E-02
RMM:   2    -0.707265394541E+03   -0.40286E-03   -0.47140E-03  2247   0.138E-01    0.512E-02
RMM:   3    -0.707265341533E+03    0.53008E-04   -0.14580E-04  2311   0.310E-02    0.333E-02
RMM:   4    -0.707265337002E+03    0.45311E-05   -0.58291E-05  2279   0.152E-02    0.718E-03
RMM:   5    -0.707265336291E+03    0.71106E-06   -0.39850E-06  2274   0.450E-03    0.266E-03
RMM:   6    -0.707265336328E+03   -0.37231E-07   -0.66545E-07  1938   0.164E-03
  35 F= -.71551056E+03 E0= -.71551056E+03  d E =-.293123E-03
 curvature:  -4.26 expect dE=-0.284E-02 dE for cont linesearch -0.549E-05
 trial: gam= 0.72336 g(F)=  0.662E-03 g(S)=  0.520E-05 ort = 0.120E-03 (trialstep = 0.324E+00)
 search vector abs. value=  0.670E-02
 bond charge predicted
       N       E                     dE             d eps       ncg     rms          rms(c)
DAV:   1    -0.707264939599E+03    0.39669E-03   -0.10837E-01  2240   0.746E-01    0.686E-02
RMM:   2    -0.707265163917E+03   -0.22432E-03   -0.26632E-03  2247   0.104E-01    0.392E-02
RMM:   3    -0.707265133205E+03    0.30712E-04   -0.82586E-05  2301   0.234E-02    0.255E-02
RMM:   4    -0.707265130389E+03    0.28158E-05   -0.31740E-05  2290   0.113E-02    0.567E-03
RMM:   5    -0.707265130203E+03    0.18602E-06   -0.20421E-06  2272   0.328E-03    0.217E-03
RMM:   6    -0.707265130226E+03   -0.22810E-07   -0.41235E-07  1687   0.127E-03
  36 F= -.71551075E+03 E0= -.71551075E+03  d E =-.192654E-03
 trial-energy change:   -0.000193  1 .order   -0.000192   -0.000244   -0.000140
 step:   0.7254(harm=  0.7571)  dis= 0.00234  next Energy=  -715.510836 (dE=-0.280E-03)
 bond charge predicted
       N       E                     dE             d eps       ncg     rms          rms(c)
DAV:   1    -0.707264436743E+03    0.69346E-03   -0.16643E-01  2240   0.924E-01    0.851E-02
RMM:   2    -0.707264781442E+03   -0.34470E-03   -0.40901E-03  2247   0.129E-01    0.487E-02
RMM:   3    -0.707264734163E+03    0.47279E-04   -0.12669E-04  2301   0.289E-02    0.316E-02
RMM:   4    -0.707264729756E+03    0.44068E-05   -0.48872E-05  2290   0.140E-02    0.706E-03
RMM:   5    -0.707264729439E+03    0.31661E-06   -0.31546E-06  2273   0.407E-03    0.270E-03
RMM:   6    -0.707264729463E+03   -0.24032E-07   -0.66586E-07  1998   0.158E-03
  37 F= -.71551084E+03 E0= -.71551084E+03  d E =-.286306E-03
 curvature:  -3.35 expect dE=-0.250E-02 dE for cont linesearch -0.427E-06
 trial: gam= 1.29709 g(F)=  0.732E-03 g(S)=  0.140E-04 ort = 0.293E-04 (trialstep = 0.224E+00)
 search vector abs. value=  0.121E-01
 bond charge predicted
       N       E                     dE             d eps       ncg     rms          rms(c)
DAV:   1    -0.707264192899E+03    0.53654E-03   -0.92284E-02  2240   0.690E-01    0.650E-02
RMM:   2    -0.707264383276E+03   -0.19038E-03   -0.22918E-03  2245   0.964E-02    0.362E-02
RMM:   3    -0.707264357497E+03    0.25779E-04   -0.72547E-05  2315   0.223E-02    0.232E-02
RMM:   4    -0.707264355516E+03    0.19806E-05   -0.26317E-05  2285   0.107E-02    0.544E-03
RMM:   5    -0.707264355295E+03    0.22112E-06   -0.17449E-06  2247   0.303E-03    0.209E-03
RMM:   6    -0.707264355303E+03   -0.79599E-08   -0.43228E-07  1715   0.138E-03
  38 F= -.71551099E+03 E0= -.71551099E+03  d E =-.147976E-03
 trial-energy change:   -0.000148  1 .order   -0.000146   -0.000176   -0.000116
 step:   0.5051(harm=  0.6553)  dis= 0.00211  next Energy=  -715.511067 (dE=-0.225E-03)
 bond charge predicted
       N       E                     dE             d eps       ncg     rms          rms(c)
DAV:   1    -0.707263539111E+03    0.81618E-03   -0.14543E-01  2240   0.866E-01    0.817E-02
RMM:   2    -0.707263839251E+03   -0.30014E-03   -0.36129E-03  2245   0.121E-01    0.455E-02
RMM:   3    -0.707263798480E+03    0.40771E-04   -0.11427E-04  2315   0.280E-02    0.292E-02
RMM:   4    -0.707263795230E+03    0.32498E-05   -0.41671E-05  2285   0.134E-02    0.689E-03
RMM:   5    -0.707263794861E+03    0.36885E-06   -0.27750E-06  2266   0.382E-03    0.264E-03
RMM:   6    -0.707263794863E+03   -0.21173E-08   -0.72433E-07  1982   0.174E-03
  39 F= -.71551109E+03 E0= -.71551109E+03  d E =-.243305E-03
 curvature:  -4.44 expect dE=-0.259E-02 dE for cont linesearch -0.117E-04
 ZBRENT: increasing intervall
 opt :   1.0674  next Energy=  -715.510995 (dE=-0.153E-03)
 bond charge predicted
       N       E                     dE             d eps       ncg     rms          rms(c)
DAV:   1    -0.707261371789E+03    0.24231E-02   -0.58166E-01  2240   0.173E+00    0.164E-01
RMM:   2    -0.707262571868E+03   -0.12001E-02   -0.14452E-02  2245   0.242E-01    0.910E-02
RMM:   3    -0.707262408553E+03    0.16331E-03   -0.45625E-04  2316   0.560E-02    0.584E-02
RMM:   4    -0.707262394779E+03    0.13775E-04   -0.16639E-04  2285   0.268E-02    0.137E-02
RMM:   5    -0.707262393210E+03    0.15683E-05   -0.11129E-05  2283   0.762E-03    0.524E-03
RMM:   6    -0.707262393146E+03    0.63894E-07   -0.28661E-06  2248   0.339E-03    0.262E-03
RMM:   7    -0.707262393222E+03   -0.76023E-07   -0.57116E-07  1888   0.190E-03
  40 F= -.71551100E+03 E0= -.71551100E+03  d E =-.154613E-03
 curvature:  34.23 expect dE= 0.871E-01 dE for cont linesearch  0.672E-03
 ZBRENT: bracketing found
 ZBRENT: interpolating
 opt :   0.6556  next Energy=  -715.511098 (dE=-0.257E-03)
 bond charge predicted
       N       E                     dE             d eps       ncg     rms          rms(c)
DAV:   1    -0.707262909682E+03   -0.51654E-03   -0.31178E-01  2240   0.127E+00    0.119E-01
RMM:   2    -0.707263553910E+03   -0.64423E-03   -0.77251E-03  2245   0.177E-01    0.667E-02
RMM:   3    -0.707263465910E+03    0.88000E-04   -0.24381E-04  2314   0.409E-02    0.428E-02
RMM:   4    -0.707263457632E+03    0.82784E-05   -0.89846E-05  2286   0.197E-02    0.101E-02
RMM:   5    -0.707263456626E+03    0.10057E-05   -0.59562E-06  2277   0.559E-03    0.386E-03
RMM:   6    -0.707263456479E+03    0.14634E-06   -0.15844E-06  2155   0.254E-03    0.191E-03
RMM:   7    -0.707263456384E+03    0.95766E-07   -0.28193E-07  1488   0.142E-03
  41 F= -.71551110E+03 E0= -.71551110E+03  d E =-.255986E-03
 curvature:  -0.68 expect dE=-0.606E-03 dE for cont linesearch -0.166E-07
 trial: gam= 1.12221 g(F)=  0.885E-03 g(S)=  0.223E-05 ort = 0.171E-04 (trialstep = 0.232E+00)
 search vector abs. value=  0.162E-01
 bond charge predicted
       N       E                     dE             d eps       ncg     rms          rms(c)
DAV:   1    -0.707262876362E+03    0.58012E-03   -0.12785E-01  2240   0.813E-01    0.780E-02
RMM:   2    -0.707263143366E+03   -0.26700E-03   -0.32344E-03  2246   0.114E-01    0.439E-02
RMM:   3    -0.707263106037E+03    0.37329E-04   -0.10157E-04  2309   0.262E-02    0.281E-02
RMM:   4    -0.707263103540E+03    0.24970E-05   -0.36715E-05  2286   0.124E-02    0.664E-03
RMM:   5    -0.707263103264E+03    0.27602E-06   -0.26367E-06  2262   0.369E-03    0.238E-03
RMM:   6    -0.707263103298E+03   -0.34182E-07   -0.54783E-07  1834   0.151E-03
  42 F= -.71551127E+03 E0= -.71551127E+03  d E =-.169476E-03
 trial-energy change:   -0.000169  1 .order   -0.000172   -0.000210   -0.000133
 step:   0.6303(harm=  0.6303)  dis= 0.00298  next Energy=  -715.511383 (dE=-0.286E-03)
 bond charge predicted
       N       E                     dE             d eps       ncg     rms          rms(c)
DAV:   1    -0.707261663073E+03    0.14402E-02   -0.37576E-01  2240   0.139E+00    0.134E-01
RMM:   2    -0.707262448800E+03   -0.78573E-03   -0.95252E-03  2247   0.196E-01    0.751E-02
RMM:   3    -0.707262339603E+03    0.10920E-03   -0.29964E-04  2310   0.450E-02    0.482E-02
RMM:   4    -0.707262332118E+03    0.74847E-05   -0.10750E-04  2285   0.213E-02    0.114E-02
RMM:   5    -0.707262331258E+03    0.86001E-06   -0.77738E-06  2276   0.634E-03    0.408E-03
RMM:   6    -0.707262331298E+03   -0.40069E-07   -0.16966E-06  2223   0.254E-03    0.209E-03
RMM:   7    -0.707262331369E+03   -0.70697E-07   -0.29423E-07  1500   0.137E-03
  43 F= -.71551139E+03 E0= -.71551139E+03  d E =-.294217E-03
 curvature:  -5.62 expect dE=-0.425E-02 dE for cont linesearch -0.589E-06
 trial: gam= 0.75846 g(F)=  0.752E-03 g(S)=  0.410E-05 ort = 0.411E-04 (trialstep = 0.312E+00)
 search vector abs. value=  0.101E-01
 bond charge predicted
       N       E                     dE             d eps       ncg     rms          rms(c)
DAV:   1    -0.707261877686E+03    0.45361E-03   -0.14457E-01  2240   0.868E-01    0.845E-02
RMM:   2    -0.707262191840E+03   -0.31415E-03   -0.38098E-03  2248   0.124E-01    0.481E-02
RMM:   3    -0.707262146581E+03    0.45259E-04   -0.11782E-04  2311   0.282E-02    0.311E-02
RMM:   4    -0.707262143563E+03    0.30183E-05   -0.50212E-05  2290   0.140E-02    0.749E-03
RMM:   5    -0.707262143001E+03    0.56202E-06   -0.35316E-06  2270   0.426E-03    0.269E-03
RMM:   6    -0.707262143023E+03   -0.21435E-07   -0.79579E-07  2036   0.168E-03
  44 F= -.71551159E+03 E0= -.71551159E+03  d E =-.194496E-03
 trial-energy change:   -0.000194  1 .order   -0.000194   -0.000245   -0.000142
 step:   0.7076(harm=  0.7415)  dis= 0.00252  next Energy=  -715.511678 (dE=-0.286E-03)
 bond charge predicted
       N       E                     dE             d eps       ncg     rms          rms(c)
DAV:   1    -0.707261331381E+03    0.81162E-03   -0.23273E-01  2240   0.110E+00    0.107E-01
RMM:   2    -0.707261836556E+03   -0.50517E-03   -0.61217E-03  2248   0.157E-01    0.610E-02
RMM:   3    -0.707261764343E+03    0.72213E-04   -0.18985E-04  2312   0.360E-02    0.394E-02
RMM:   4    -0.707261759548E+03    0.47948E-05   -0.79728E-05  2288   0.177E-02    0.941E-03
RMM:   5    -0.707261758656E+03    0.89164E-06   -0.55800E-06  2273   0.537E-03    0.341E-03
RMM:   6    -0.707261758670E+03   -0.13781E-07   -0.12852E-06  2158   0.212E-03    0.175E-03
RMM:   7    -0.707261758709E+03   -0.38977E-07   -0.22423E-07  1426   0.118E-03
  45 F= -.71551169E+03 E0= -.71551169E+03  d E =-.296449E-03
 curvature:  -4.73 expect dE=-0.409E-02 dE for cont linesearch -0.113E-05
 trial: gam= 1.15387 g(F)=  0.860E-03 g(S)=  0.412E-05 ort = 0.491E-04 (trialstep = 0.274E+00)
 search vector abs. value=  0.144E-01
 bond charge predicted
       N       E                     dE             d eps       ncg     rms          rms(c)
DAV:   1    -0.707261217513E+03    0.54116E-03   -0.16009E-01  2240   0.915E-01    0.884E-02
RMM:   2    -0.707261573406E+03   -0.35589E-03   -0.42397E-03  2247   0.130E-01    0.498E-02
RMM:   3    -0.707261523819E+03    0.49587E-04   -0.12918E-04  2318   0.295E-02    0.323E-02
RMM:   4    -0.707261521194E+03    0.26245E-05   -0.55704E-05  2286   0.147E-02    0.774E-03
RMM:   5    -0.707261520394E+03    0.80051E-06   -0.41583E-06  2262   0.455E-03    0.264E-03
RMM:   6    -0.707261520469E+03   -0.75488E-07   -0.73120E-07  1972   0.168E-03
  46 F= -.71551189E+03 E0= -.71551189E+03  d E =-.199192E-03
 trial-energy change:   -0.000199  1 .order   -0.000200   -0.000252   -0.000148
 step:   0.7386(harm=  0.6655)  dis= 0.00296  next Energy=  -715.512009 (dE=-0.320E-03)
 bond charge predicted
       N       E                     dE             d eps       ncg     rms          rms(c)
DAV:   1    -0.707260011139E+03    0.15093E-02   -0.46126E-01  2240   0.155E+00    0.150E-01
RMM:   2    -0.707261036108E+03   -0.10250E-02   -0.12198E-02  2247   0.221E-01    0.844E-02
RMM:   3    -0.707260894318E+03    0.14179E-03   -0.37260E-04  2319   0.502E-02    0.548E-02
RMM:   4    -0.707260886592E+03    0.77264E-05   -0.15839E-04  2285   0.248E-02    0.130E-02
RMM:   5    -0.707260884216E+03    0.23764E-05   -0.11753E-05  2273   0.766E-03    0.448E-03
RMM:   6    -0.707260884328E+03   -0.11273E-06   -0.21775E-06  2275   0.282E-03    0.242E-03
RMM:   7    -0.707260884422E+03   -0.93256E-07   -0.42443E-07  1694   0.152E-03
  47 F= -.71551200E+03 E0= -.71551200E+03  d E =-.306632E-03
 curvature:  -5.04 expect dE=-0.512E-02 dE for cont linesearch -0.216E-05
 trial: gam= 1.35918 g(F)=  0.998E-03 g(S)=  0.182E-04 ort =-0.786E-04 (trialstep = 0.193E+00)
 search vector abs. value=  0.275E-01
 bond charge predicted
       N       E                     dE             d eps       ncg     rms          rms(c)
DAV:   1    -0.707260254466E+03    0.62986E-03   -0.14850E-01  2240   0.881E-01    0.858E-02
RMM:   2    -0.707260577967E+03   -0.32350E-03   -0.39208E-03  2247   0.125E-01    0.486E-02
RMM:   3    -0.707260531443E+03    0.46524E-04   -0.12111E-04  2306   0.287E-02    0.314E-02
RMM:   4    -0.707260528939E+03    0.25040E-05   -0.48633E-05  2291   0.139E-02    0.755E-03
RMM:   5    -0.707260528455E+03    0.48425E-06   -0.35808E-06  2267   0.425E-03    0.264E-03
RMM:   6    -0.707260528514E+03   -0.59248E-07   -0.70554E-07  1956   0.163E-03
  48 F= -.71551213E+03 E0= -.71551213E+03  d E =-.135532E-03
 trial-energy change:   -0.000136  1 .order   -0.000138   -0.000175   -0.000101
 step:   0.4546(harm=  0.4546)  dis= 0.00243  next Energy=  -715.512202 (dE=-0.207E-03)
 bond charge predicted
       N       E                     dE             d eps       ncg     rms          rms(c)
DAV:   1    -0.707259423881E+03    0.11046E-02   -0.27413E-01  2240   0.120E+00    0.116E-01
RMM:   2    -0.707260019993E+03   -0.59611E-03   -0.72241E-03  2247   0.170E-01    0.658E-02
RMM:   3    -0.707259934857E+03    0.85136E-04   -0.22380E-04  2308   0.392E-02    0.426E-02
RMM:   4    -0.707259930194E+03    0.46629E-05   -0.88049E-05  2289   0.187E-02    0.101E-02
RMM:   5    -0.707259929311E+03    0.88307E-06   -0.64060E-06  2271   0.570E-03    0.358E-03
RMM:   6    -0.707259929379E+03   -0.67757E-07   -0.13295E-06  2174   0.221E-03    0.188E-03
RMM:   7    -0.707259929457E+03   -0.78595E-07   -0.28188E-07  1483   0.128E-03
  49 F= -.71551220E+03 E0= -.71551220E+03  d E =-.204409E-03
 curvature:  -6.87 expect dE=-0.378E-02 dE for cont linesearch -0.176E-06
 trial: gam= 0.26432 g(F)=  0.536E-03 g(S)=  0.154E-04 ort = 0.265E-04 (trialstep = 0.245E+00)
 search vector abs. value=  0.249E-02
 bond charge predicted
       N       E                     dE             d eps       ncg     rms          rms(c)
DAV:   1    -0.707259705769E+03    0.22361E-03   -0.21754E-02  2304   0.339E-01    0.324E-02
RMM:   2    -0.707259750273E+03   -0.44504E-04   -0.56193E-04  2245   0.481E-02    0.180E-02
RMM:   3    -0.707259743515E+03    0.67587E-05   -0.18542E-05  2338   0.109E-02    0.116E-02
RMM:   4    -0.707259742966E+03    0.54866E-06   -0.72817E-06  2299   0.517E-03    0.280E-03
RMM:   5    -0.707259742958E+03    0.82509E-08   -0.41648E-07  1659   0.153E-03
  50 F= -.71551230E+03 E0= -.71551230E+03  d E =-.103861E-03
 trial-energy change:   -0.000104  1 .order   -0.000105   -0.000137   -0.000074
 step:   0.5357(harm=  0.5357)  dis= 0.00082  next Energy=  -715.512349 (dE=-0.149E-03)
 bond charge predicted
       N       E                     dE             d eps       ncg     rms          rms(c)
DAV:   1    -0.707259388584E+03    0.35438E-03   -0.30558E-02  2256   0.401E-01    0.383E-02
RMM:   2    -0.707259451535E+03   -0.62951E-04   -0.78796E-04  2245   0.570E-02    0.214E-02
RMM:   3    -0.707259442148E+03    0.93866E-05   -0.26102E-05  2340   0.130E-02    0.138E-02
RMM:   4    -0.707259441410E+03    0.73841E-06   -0.10132E-05  2301   0.612E-03    0.332E-03
RMM:   5    -0.707259441390E+03    0.20005E-07   -0.61155E-07  1956   0.181E-03
  51 F= -.71551235E+03 E0= -.71551235E+03  d E =-.146246E-03
 curvature:  -1.19 expect dE=-0.521E-03 dE for cont linesearch -0.897E-10
 trial: gam= 0.82868 g(F)=  0.427E-03 g(S)=  0.100E-04 ort =-0.432E-06 (trialstep = 0.303E+00)
 search vector abs. value=  0.214E-02
 bond charge predicted
       N       E                     dE             d eps       ncg     rms          rms(c)
DAV:   1    -0.707259158466E+03    0.28294E-03   -0.29058E-02  2256   0.389E-01    0.368E-02
RMM:   2    -0.707259217733E+03   -0.59266E-04   -0.73490E-04  2244   0.544E-02    0.202E-02
RMM:   3    -0.707259208397E+03    0.93354E-05   -0.22609E-05  2316   0.119E-02    0.128E-02
RMM:   4    -0.707259207703E+03    0.69439E-06   -0.85106E-06  2285   0.567E-03    0.285E-03
RMM:   5    -0.707259207737E+03   -0.33669E-07   -0.47860E-07  1759   0.166E-03
  52 F= -.71551244E+03 E0= -.71551244E+03  d E =-.963227E-04
 trial-energy change:   -0.000096  1 .order   -0.000099   -0.000132   -0.000065
 step:   0.5982(harm=  0.5982)  dis= 0.00096  next Energy=  -715.512476 (dE=-0.130E-03)
 bond charge predicted
       N       E                     dE             d eps       ncg     rms          rms(c)
DAV:   1    -0.707258870708E+03    0.33699E-03   -0.27496E-02  2256   0.379E-01    0.358E-02
RMM:   2    -0.707258926963E+03   -0.56255E-04   -0.69653E-04  2244   0.529E-02    0.196E-02
RMM:   3    -0.707258918126E+03    0.88365E-05   -0.21363E-05  2314   0.116E-02    0.124E-02
RMM:   4    -0.707258917475E+03    0.65154E-06   -0.80655E-06  2286   0.552E-03    0.278E-03
RMM:   5    -0.707258917509E+03   -0.33695E-07   -0.45216E-07  1713   0.161E-03
  53 F= -.71551247E+03 E0= -.71551247E+03  d E =-.126893E-03
 curvature:  -1.47 expect dE=-0.469E-03 dE for cont linesearch -0.205E-11
 trial: gam= 0.71954 g(F)=  0.317E-03 g(S)=  0.288E-05 ort = 0.547E-07 (trialstep = 0.362E+00)
 search vector abs. value=  0.143E-02
 bond charge predicted
       N       E                     dE             d eps       ncg     rms          rms(c)
DAV:   1    -0.707258697532E+03    0.21994E-03   -0.28912E-02  2256   0.389E-01    0.365E-02
RMM:   2    -0.707258761927E+03   -0.64395E-04   -0.76712E-04  2243   0.558E-02    0.198E-02
RMM:   3    -0.707258752376E+03    0.95515E-05   -0.22398E-05  2322   0.121E-02    0.127E-02
RMM:   4    -0.707258751919E+03    0.45656E-06   -0.87295E-06  2289   0.573E-03    0.278E-03
RMM:   5    -0.707258751907E+03    0.12504E-07   -0.44182E-07  1684   0.161E-03
  54 F= -.71551256E+03 E0= -.71551256E+03  d E =-.867021E-04
 trial-energy change:   -0.000087  1 .order   -0.000087   -0.000116   -0.000057
 step:   0.7183(harm=  0.7183)  dis= 0.00083  next Energy=  -715.512587 (dE=-0.115E-03)
 bond charge predicted
       N       E                     dE             d eps       ncg     rms          rms(c)
DAV:   1    -0.707258479078E+03    0.27284E-03   -0.27952E-02  2240   0.383E-01    0.359E-02
RMM:   2    -0.707258541599E+03   -0.62521E-04   -0.74315E-04  2243   0.549E-02    0.196E-02
RMM:   3    -0.707258532359E+03    0.92400E-05   -0.21722E-05  2324   0.119E-02    0.125E-02
RMM:   4    -0.707258531918E+03    0.44076E-06   -0.84723E-06  2289   0.563E-03    0.274E-03
RMM:   5    -0.707258531906E+03    0.11998E-07   -0.43086E-07  1668   0.159E-03
  55 F= -.71551259E+03 E0= -.71551259E+03  d E =-.114595E-03
 curvature:  -1.61 expect dE=-0.554E-03 dE for cont linesearch -0.114E-08
 trial: gam= 1.07858 g(F)=  0.339E-03 g(S)=  0.606E-05 ort = 0.101E-05 (trialstep = 0.308E+00)
 search vector abs. value=  0.201E-02
 bond charge predicted
       N       E                     dE             d eps       ncg     rms          rms(c)
DAV:   1    -0.707258403023E+03    0.12890E-03   -0.28708E-02  2240   0.388E-01    0.362E-02
RMM:   2    -0.707258469907E+03   -0.66884E-04   -0.78220E-04  2245   0.561E-02    0.202E-02
RMM:   3    -0.707258459340E+03    0.10568E-04   -0.21652E-05  2315   0.118E-02    0.131E-02
RMM:   4    -0.707258458677E+03    0.66227E-06   -0.98725E-06  2303   0.601E-03    0.298E-03
RMM:   5    -0.707258458590E+03    0.86980E-07   -0.57021E-07  1865   0.174E-03
  56 F= -.71551266E+03 E0= -.71551266E+03  d E =-.776430E-04
 trial-energy change:   -0.000078  1 .order   -0.000077   -0.000107   -0.000048
 step:   0.5581(harm=  0.5581)  dis= 0.00082  next Energy=  -715.512684 (dE=-0.966E-04)
 bond charge predicted
       N       E                     dE             d eps       ncg     rms          rms(c)
DAV:   1    -0.707258321296E+03    0.13738E-03   -0.18879E-02  2256   0.315E-01    0.294E-02
RMM:   2    -0.707258365379E+03   -0.44083E-04   -0.51541E-04  2245   0.456E-02    0.164E-02
RMM:   3    -0.707258358439E+03    0.69393E-05   -0.14316E-05  2313   0.963E-03    0.106E-02
RMM:   4    -0.707258358035E+03    0.40421E-06   -0.64936E-06  2307   0.486E-03    0.242E-03
RMM:   5    -0.707258357983E+03    0.52321E-07   -0.35946E-07  1583   0.142E-03
  57 F= -.71551269E+03 E0= -.71551269E+03  d E =-.991743E-04
 curvature:  -1.62 expect dE=-0.505E-03 dE for cont linesearch -0.263E-08
 trial: gam= 0.90543 g(F)=  0.309E-03 g(S)=  0.301E-05 ort = 0.181E-05 (trialstep = 0.358E+00)
 search vector abs. value=  0.196E-02
 bond charge predicted
       N       E                     dE             d eps       ncg     rms          rms(c)
DAV:   1    -0.707258354557E+03    0.34778E-05   -0.37539E-02  2240   0.442E-01    0.400E-02
RMM:   2    -0.707258443397E+03   -0.88840E-04   -0.10182E-03  2247   0.635E-02    0.224E-02
RMM:   3    -0.707258430251E+03    0.13146E-04   -0.28291E-05  2328   0.135E-02    0.148E-02
RMM:   4    -0.707258429533E+03    0.71825E-06   -0.11086E-05  2293   0.663E-03    0.338E-03
RMM:   5    -0.707258429365E+03    0.16793E-06   -0.75189E-07  2052   0.199E-03    0.127E-03
RMM:   6    -0.707258429361E+03    0.41655E-08   -0.16846E-07  1374   0.862E-04
  58 F= -.71551277E+03 E0= -.71551277E+03  d E =-.840550E-04
 trial-energy change:   -0.000084  1 .order   -0.000084   -0.000112   -0.000057
 step:   0.7228(harm=  0.7228)  dis= 0.00112  next Energy=  -715.512800 (dE=-0.113E-03)
 bond charge predicted
       N       E                     dE             d eps       ncg     rms          rms(c)
DAV:   1    -0.707258372305E+03    0.57060E-04   -0.38904E-02  2240   0.450E-01    0.407E-02
RMM:   2    -0.707258463994E+03   -0.91688E-04   -0.10534E-03  2247   0.645E-02    0.227E-02
RMM:   3    -0.707258450398E+03    0.13596E-04   -0.29265E-05  2326   0.138E-02    0.150E-02
RMM:   4    -0.707258449621E+03    0.77683E-06   -0.11386E-05  2299   0.673E-03    0.340E-03
RMM:   5    -0.707258449455E+03    0.16630E-06   -0.75416E-07  2066   0.199E-03    0.129E-03
RMM:   6    -0.707258449449E+03    0.55152E-08   -0.17177E-07  1374   0.863E-04
  59 F= -.71551280E+03 E0= -.71551280E+03  d E =-.117064E-03
 curvature:  -2.26 expect dE=-0.757E-03 dE for cont linesearch -0.114E-08
 trial: gam= 1.08365 g(F)=  0.333E-03 g(S)=  0.133E-05 ort = 0.994E-06 (trialstep = 0.320E+00)
 search vector abs. value=  0.264E-02
 bond charge predicted
       N       E                     dE             d eps       ncg     rms          rms(c)
DAV:   1    -0.707258511360E+03   -0.61905E-04   -0.42063E-02  2240   0.468E-01    0.408E-02
RMM:   2    -0.707258613221E+03   -0.10186E-03   -0.11444E-03  2245   0.672E-02    0.233E-02
RMM:   3    -0.707258598051E+03    0.15170E-04   -0.31332E-05  2339   0.140E-02    0.154E-02
RMM:   4    -0.707258596970E+03    0.10809E-05   -0.12710E-05  2294   0.704E-03    0.337E-03
RMM:   5    -0.707258596788E+03    0.18210E-06   -0.74942E-07  2054   0.198E-03    0.129E-03
RMM:   6    -0.707258596789E+03   -0.60390E-09   -0.14052E-07  1365   0.834E-04
  60 F= -.71551289E+03 E0= -.71551289E+03  d E =-.834776E-04
 trial-energy change:   -0.000083  1 .order   -0.000081   -0.000107   -0.000054
 step:   0.5415(harm=  0.6487)  dis= 0.00098  next Energy=  -715.512907 (dE=-0.103E-03)
 bond charge predicted
       N       E                     dE             d eps       ncg     rms          rms(c)
DAV:   1    -0.707258625904E+03   -0.29116E-04   -0.20076E-02  2256   0.323E-01    0.282E-02
RMM:   2    -0.707258674552E+03   -0.48648E-04   -0.54666E-04  2245   0.464E-02    0.161E-02
RMM:   3    -0.707258667296E+03    0.72562E-05   -0.14963E-05  2336   0.964E-03    0.106E-02
RMM:   4    -0.707258666746E+03    0.54979E-06   -0.60628E-06  2296   0.486E-03    0.233E-03
RMM:   5    -0.707258666658E+03    0.87821E-07   -0.32387E-07  1529   0.137E-03
  61 F= -.71551291E+03 E0= -.71551291E+03  d E =-.109226E-03
 curvature:  -2.28 expect dE=-0.516E-03 dE for cont linesearch -0.277E-05
 ZBRENT: extrapolating
 opt :   0.6522  next Energy=  -715.512916 (dE=-0.112E-03)
 bond charge predicted
       N       E                     dE             d eps       ncg     rms          rms(c)
DAV:   1    -0.707258681691E+03   -0.14945E-04   -0.50223E-03  2304   0.162E-01    0.142E-02
RMM:   2    -0.707258694023E+03   -0.12332E-04   -0.13788E-04  2244   0.233E-02    0.813E-03
RMM:   3    -0.707258692194E+03    0.18292E-05   -0.37845E-06  2312   0.484E-03    0.539E-03
RMM:   4    -0.707258692044E+03    0.14989E-06   -0.15304E-06  2209   0.246E-03    0.119E-03
RMM:   5    -0.707258692020E+03    0.24309E-07   -0.88526E-08  1344   0.798E-04
  62 F= -.71551292E+03 E0= -.71551292E+03  d E =-.112415E-03
 curvature:  -2.58 expect dE=-0.812E-03 dE for cont linesearch -0.122E-08
 trial: gam= 0.94789 g(F)=  0.312E-03 g(S)=  0.276E-05 ort = 0.112E-05 (trialstep = 0.380E+00)
 search vector abs. value=  0.269E-02
 bond charge predicted
       N       E                     dE             d eps       ncg     rms          rms(c)
DAV:   1    -0.707258660518E+03    0.31526E-04   -0.61620E-02  2240   0.567E-01    0.493E-02
RMM:   2    -0.707258814126E+03   -0.15361E-03   -0.17121E-03  2244   0.825E-02    0.281E-02
RMM:   3    -0.707258791385E+03    0.22740E-04   -0.46388E-05  2338   0.172E-02    0.186E-02
RMM:   4    -0.707258789933E+03    0.14528E-05   -0.19536E-05  2305   0.870E-03    0.411E-03
RMM:   5    -0.707258789584E+03    0.34843E-06   -0.11702E-06  2190   0.241E-03    0.156E-03
RMM:   6    -0.707258789583E+03    0.15498E-08   -0.20446E-07  1398   0.962E-04
  63 F= -.71551300E+03 E0= -.71551300E+03  d E =-.850650E-04
 trial-energy change:   -0.000085  1 .order   -0.000086   -0.000120   -0.000052
 step:   0.7478(harm=  0.6755)  dis= 0.00148  next Energy=  -715.513025 (dE=-0.109E-03)
 bond charge predicted
       N       E                     dE             d eps       ncg     rms          rms(c)
DAV:   1    -0.707258701026E+03    0.88558E-04   -0.57940E-02  2240   0.550E-01    0.478E-02
RMM:   2    -0.707258845337E+03   -0.14431E-03   -0.16092E-03  2244   0.800E-02    0.272E-02
RMM:   3    -0.707258823987E+03    0.21350E-04   -0.43636E-05  2341   0.166E-02    0.180E-02
RMM:   4    -0.707258822613E+03    0.13745E-05   -0.18247E-05  2303   0.839E-03    0.394E-03
RMM:   5    -0.707258822292E+03    0.32068E-06   -0.10735E-06  2173   0.232E-03    0.152E-03
RMM:   6    -0.707258822290E+03    0.21755E-08   -0.19586E-07  1395   0.940E-04
  64 F= -.71551302E+03 E0= -.71551302E+03  d E =-.105754E-03
 curvature:  -2.71 expect dE=-0.828E-03 dE for cont linesearch -0.929E-06
 trial: gam= 1.06115 g(F)=  0.296E-03 g(S)=  0.104E-04 ort =-0.304E-04 (trialstep = 0.373E+00)
 search vector abs. value=  0.327E-02
 bond charge predicted
       N       E                     dE             d eps       ncg     rms          rms(c)
DAV:   1    -0.707258618851E+03    0.20344E-03   -0.68718E-02  2240   0.598E-01    0.565E-02
RMM:   2    -0.707258790454E+03   -0.17160E-03   -0.19772E-03  2246   0.875E-02    0.317E-02
RMM:   3    -0.707258762234E+03    0.28220E-04   -0.52494E-05  2305   0.183E-02    0.205E-02
RMM:   4    -0.707258760625E+03    0.16095E-05   -0.18898E-05  2307   0.871E-03    0.460E-03
RMM:   5    -0.707258760494E+03    0.13079E-06   -0.12043E-06  2223   0.253E-03    0.167E-03
RMM:   6    -0.707258760504E+03   -0.10237E-07   -0.22846E-07  1401   0.101E-03
  65 F= -.71551309E+03 E0= -.71551309E+03  d E =-.720149E-04
 trial-energy change:   -0.000072  1 .order   -0.000071   -0.000102   -0.000040
 step:   0.5855(harm=  0.6148)  dis= 0.00125  next Energy=  -715.513105 (dE=-0.836E-04)
 bond charge predicted
       N       E                     dE             d eps       ncg     rms          rms(c)
DAV:   1    -0.707258651209E+03    0.10928E-03   -0.22361E-02  2240   0.341E-01    0.322E-02
RMM:   2    -0.707258707050E+03   -0.55841E-04   -0.64313E-04  2246   0.499E-02    0.181E-02
RMM:   3    -0.707258697952E+03    0.90983E-05   -0.17059E-05  2305   0.105E-02    0.117E-02
RMM:   4    -0.707258697475E+03    0.47698E-06   -0.61200E-06  2308   0.497E-03    0.263E-03
RMM:   5    -0.707258697439E+03    0.36103E-07   -0.34491E-07  1543   0.143E-03
  66 F= -.71551311E+03 E0= -.71551311E+03  d E =-.852002E-04
 curvature:  -3.62 expect dE=-0.927E-03 dE for cont linesearch -0.306E-06
 trial: gam= 0.60823 g(F)=  0.253E-03 g(S)=  0.350E-05 ort = 0.166E-04 (trialstep = 0.415E+00)
 search vector abs. value=  0.149E-02
 bond charge predicted
       N       E                     dE             d eps       ncg     rms          rms(c)
DAV:   1    -0.707258509217E+03    0.18826E-03   -0.38578E-02  2240   0.447E-01    0.451E-02
RMM:   2    -0.707258602956E+03   -0.93739E-04   -0.11284E-03  2246   0.669E-02    0.247E-02
RMM:   3    -0.707258586706E+03    0.16250E-04   -0.31058E-05  2326   0.141E-02    0.158E-02
RMM:   4    -0.707258585629E+03    0.10767E-05   -0.13113E-05  2298   0.707E-03    0.345E-03
RMM:   5    -0.707258585519E+03    0.11049E-06   -0.93220E-07  2131   0.219E-03    0.130E-03
RMM:   6    -0.707258585563E+03   -0.44354E-07   -0.14473E-07  1387   0.820E-04
  67 F= -.71551318E+03 E0= -.71551318E+03  d E =-.733120E-04
 trial-energy change:   -0.000073  1 .order   -0.000072   -0.000111   -0.000034
 step:   0.5772(harm=  0.5975)  dis= 0.00067  next Energy=  -715.513187 (dE=-0.799E-04)
 bond charge predicted
       N       E                     dE             d eps       ncg     rms          rms(c)
DAV:   1    -0.707258509364E+03    0.76155E-04   -0.58594E-03  2288   0.174E-01    0.175E-02
RMM:   2    -0.707258523476E+03   -0.14112E-04   -0.17080E-04  2246   0.260E-02    0.957E-03
RMM:   3    -0.707258521038E+03    0.24376E-05   -0.47122E-06  2325   0.550E-03    0.612E-03
RMM:   4    -0.707258520921E+03    0.11675E-06   -0.19527E-06  2244   0.273E-03    0.130E-03
RMM:   5    -0.707258520921E+03    0.90949E-10   -0.11816E-07  1349   0.893E-04
  68 F= -.71551319E+03 E0= -.71551319E+03  d E =-.809145E-04
 curvature:  -1.65 expect dE=-0.404E-03 dE for cont linesearch -0.127E-06
 trial: gam= 1.01759 g(F)=  0.244E-03 g(S)=  0.136E-05 ort = 0.107E-04 (trialstep = 0.368E+00)
 search vector abs. value=  0.181E-02
 bond charge predicted
       N       E                     dE             d eps       ncg     rms          rms(c)
DAV:   1    -0.707258280504E+03    0.24042E-03   -0.36169E-02  2240   0.431E-01    0.438E-02
RMM:   2    -0.707258366735E+03   -0.86231E-04   -0.10551E-03  2246   0.644E-02    0.240E-02
RMM:   3    -0.707258351147E+03    0.15588E-04   -0.29120E-05  2322   0.141E-02    0.152E-02
RMM:   4    -0.707258350320E+03    0.82707E-06   -0.11596E-05  2300   0.664E-03    0.331E-03
RMM:   5    -0.707258350240E+03    0.79599E-07   -0.68615E-07  1913   0.186E-03
  69 F= -.71551326E+03 E0= -.71551326E+03  d E =-.691578E-04
 trial-energy change:   -0.000069  1 .order   -0.000070   -0.000094   -0.000047
 step:   1.0186(harm=  0.7273)  dis= 0.00134  next Energy=  -715.513291 (dE=-0.103E-03)
 bond charge predicted
       N       E                     dE             d eps       ncg     rms          rms(c)
DAV:   1    -0.707257715791E+03    0.63453E-03   -0.11260E-01  2240   0.761E-01    0.773E-02
RMM:   2    -0.707257985108E+03   -0.26932E-03   -0.32903E-03  2246   0.114E-01    0.423E-02
RMM:   3    -0.707257936514E+03    0.48595E-04   -0.90751E-05  2315   0.249E-02    0.269E-02
RMM:   4    -0.707257933664E+03    0.28499E-05   -0.36424E-05  2307   0.118E-02    0.586E-03
RMM:   5    -0.707257933326E+03    0.33729E-06   -0.22818E-06  2239   0.332E-03    0.233E-03
RMM:   6    -0.707257933344E+03   -0.17902E-07   -0.54129E-07  1767   0.138E-03
  70 F= -.71551326E+03 E0= -.71551326E+03  d E =-.756638E-04
 curvature:  -0.87 expect dE=-0.462E-03 dE for cont linesearch -0.514E-05
 ZBRENT: interpolating
 opt :   0.7266  next Energy=  -715.513278 (dE=-0.907E-04)
 bond charge predicted
       N       E                     dE             d eps       ncg     rms          rms(c)
DAV:   1    -0.707258094624E+03   -0.16130E-03   -0.22692E-02  2240   0.342E-01    0.346E-02
RMM:   2    -0.707258148822E+03   -0.54198E-04   -0.66098E-04  2246   0.509E-02    0.190E-02
RMM:   3    -0.707258138852E+03    0.99702E-05   -0.18033E-05  2317   0.110E-02    0.121E-02
RMM:   4    -0.707258138001E+03    0.85108E-06   -0.73376E-06  2296   0.527E-03    0.264E-03
RMM:   5    -0.707258137853E+03    0.14821E-06   -0.41565E-07  1600   0.150E-03    0.103E-03
RMM:   6    -0.707258137813E+03    0.39930E-07   -0.12830E-07  1357   0.791E-04
  71 F= -.71551328E+03 E0= -.71551328E+03  d E =-.899182E-04
 curvature:  -2.56 expect dE=-0.619E-03 dE for cont linesearch -0.485E-07
 trial: gam= 1.02970 g(F)=  0.240E-03 g(S)=  0.220E-05 ort = 0.585E-05 (trialstep = 0.366E+00)
 search vector abs. value=  0.217E-02
 bond charge predicted
       N       E                     dE             d eps       ncg     rms          rms(c)
DAV:   1    -0.707257722245E+03    0.41561E-03   -0.43436E-02  2240   0.474E-01    0.475E-02
RMM:   2    -0.707257828370E+03   -0.10613E-03   -0.12821E-03  2246   0.705E-02    0.257E-02
RMM:   3    -0.707257808772E+03    0.19599E-04   -0.35177E-05  2314   0.154E-02    0.161E-02
RMM:   4    -0.707257807691E+03    0.10808E-05   -0.12456E-05  2291   0.727E-03    0.388E-03
RMM:   5    -0.707257807640E+03    0.51194E-07   -0.73442E-07  2056   0.203E-03
  72 F= -.71551334E+03 E0= -.71551334E+03  d E =-.636424E-04
 trial-energy change:   -0.000064  1 .order   -0.000066   -0.000091   -0.000040
 step:   0.6589(harm=  0.6589)  dis= 0.00096  next Energy=  -715.513359 (dE=-0.816E-04)
 bond charge predicted
       N       E                     dE             d eps       ncg     rms          rms(c)
DAV:   1    -0.707257453395E+03    0.35430E-03   -0.27684E-02  2240   0.378E-01    0.379E-02
RMM:   2    -0.707257521898E+03   -0.68502E-04   -0.82104E-04  2246   0.564E-02    0.206E-02
RMM:   3    -0.707257509420E+03    0.12478E-04   -0.22490E-05  2316   0.122E-02    0.130E-02
RMM:   4    -0.707257508824E+03    0.59583E-06   -0.80082E-06  2291   0.574E-03    0.304E-03
RMM:   5    -0.707257508792E+03    0.31789E-07   -0.43974E-07  1684   0.161E-03
  73 F= -.71551336E+03 E0= -.71551336E+03  d E =-.789846E-04
 curvature:  -2.88 expect dE=-0.596E-03 dE for cont linesearch -0.250E-08
 trial: gam= 0.82690 g(F)=  0.197E-03 g(S)=  0.922E-05 ort = 0.137E-05 (trialstep = 0.425E+00)
 search vector abs. value=  0.169E-02
 bond charge predicted
       N       E                     dE             d eps       ncg     rms          rms(c)
DAV:   1    -0.707257248359E+03    0.26047E-03   -0.46028E-02  2240   0.484E-01    0.466E-02
RMM:   2    -0.707257362267E+03   -0.11391E-03   -0.13365E-03  2251   0.710E-02    0.264E-02
RMM:   3    -0.707257341687E+03    0.20580E-04   -0.34678E-05  2304   0.144E-02    0.168E-02
RMM:   4    -0.707257340505E+03    0.11818E-05   -0.13813E-05  2300   0.718E-03    0.352E-03
RMM:   5    -0.707257340372E+03    0.13305E-06   -0.84310E-07  2069   0.211E-03    0.134E-03
RMM:   6    -0.707257340396E+03   -0.23538E-07   -0.16084E-07  1369   0.855E-04
  74 F= -.71551342E+03 E0= -.71551342E+03  d E =-.632550E-04
 trial-energy change:   -0.000063  1 .order   -0.000064   -0.000088   -0.000039
 step:   0.8108(harm=  0.7655)  dis= 0.00103  next Energy=  -715.513437 (dE=-0.807E-04)
 bond charge predicted
       N       E                     dE             d eps       ncg     rms          rms(c)
DAV:   1    -0.707257070743E+03    0.26963E-03   -0.37935E-02  2240   0.440E-01    0.422E-02
RMM:   2    -0.707257164164E+03   -0.93421E-04   -0.10992E-03  2251   0.644E-02    0.239E-02
RMM:   3    -0.707257147252E+03    0.16912E-04   -0.28615E-05  2303   0.131E-02    0.151E-02
RMM:   4    -0.707257146262E+03    0.98973E-06   -0.11214E-05  2302   0.649E-03    0.314E-03
RMM:   5    -0.707257146163E+03    0.99222E-07   -0.63016E-07  1868   0.185E-03
  75 F= -.71551344E+03 E0= -.71551344E+03  d E =-.793362E-04
 curvature:  -3.06 expect dE=-0.861E-03 dE for cont linesearch -0.167E-06
 trial: gam= 1.39766 g(F)=  0.277E-03 g(S)=  0.458E-05 ort =-0.959E-05 (trialstep = 0.239E+00)
 search vector abs. value=  0.356E-02
 bond charge predicted
       N       E                     dE             d eps       ncg     rms          rms(c)
DAV:   1    -0.707257071546E+03    0.74717E-04   -0.30255E-02  2240   0.393E-01    0.374E-02
RMM:   2    -0.707257146447E+03   -0.74902E-04   -0.86712E-04  2250   0.575E-02    0.212E-02
RMM:   3    -0.707257133550E+03    0.12898E-04   -0.22554E-05  2314   0.117E-02    0.137E-02
RMM:   4    -0.707257132806E+03    0.74347E-06   -0.97969E-06  2312   0.614E-03    0.305E-03
RMM:   5    -0.707257132641E+03    0.16500E-06   -0.66273E-07  1897   0.185E-03    0.109E-03
RMM:   6    -0.707257132658E+03   -0.16749E-07   -0.12360E-07  1363   0.790E-04
  76 F= -.71551349E+03 E0= -.71551349E+03  d E =-.516575E-04
 trial-energy change:   -0.000052  1 .order   -0.000051   -0.000064   -0.000038
 step:   0.5192(harm=  0.5958)  dis= 0.00093  next Energy=  -715.513511 (dE=-0.750E-04)
 bond charge predicted
       N       E                     dE             d eps       ncg     rms          rms(c)
DAV:   1    -0.707257000859E+03    0.13178E-03   -0.41785E-02  2240   0.462E-01    0.438E-02
RMM:   2    -0.707257103576E+03   -0.10272E-03   -0.11932E-03  2251   0.675E-02    0.247E-02
RMM:   3    -0.707257085763E+03    0.17812E-04   -0.30920E-05  2319   0.137E-02    0.160E-02
RMM:   4    -0.707257084684E+03    0.10796E-05   -0.13311E-05  2304   0.712E-03    0.351E-03
RMM:   5    -0.707257084463E+03    0.22077E-06   -0.89322E-07  2093   0.212E-03    0.126E-03
RMM:   6    -0.707257084477E+03   -0.14417E-07   -0.14911E-07  1371   0.844E-04
  77 F= -.71551352E+03 E0= -.71551352E+03  d E =-.800404E-04
 curvature:  -3.78 expect dE=-0.770E-03 dE for cont linesearch -0.129E-05
 trial: gam= 0.51456 g(F)=  0.202E-03 g(S)=  0.193E-05 ort = 0.349E-04 (trialstep = 0.295E+00)
 search vector abs. value=  0.118E-02
 bond charge predicted
       N       E                     dE             d eps       ncg     rms          rms(c)
DAV:   1    -0.707257147328E+03   -0.62865E-04   -0.14716E-02  2256   0.274E-01    0.261E-02
RMM:   2    -0.707257181877E+03   -0.34550E-04   -0.40844E-04  2246   0.399E-02    0.150E-02
RMM:   3    -0.707257176074E+03    0.58038E-05   -0.11660E-05  2318   0.853E-03    0.981E-03
RMM:   4    -0.707257175712E+03    0.36160E-06   -0.52109E-06  2287   0.447E-03    0.225E-03
RMM:   5    -0.707257175609E+03    0.10265E-06   -0.33419E-07  1533   0.138E-03    0.852E-04
RMM:   6    -0.707257175607E+03    0.22555E-08   -0.11380E-07  1351   0.755E-04
  78 F= -.71551357E+03 E0= -.71551357E+03  d E =-.504674E-04
 trial-energy change:   -0.000050  1 .order   -0.000051   -0.000065   -0.000038
 step:   0.6923(harm=  0.6923)  dis= 0.00067  next Energy=  -715.513593 (dE=-0.768E-04)
 bond charge predicted
       N       E                     dE             d eps       ncg     rms          rms(c)
DAV:   1    -0.707257204160E+03   -0.28551E-04   -0.26754E-02  2240   0.370E-01    0.352E-02
RMM:   2    -0.707257266978E+03   -0.62818E-04   -0.74152E-04  2247   0.538E-02    0.203E-02
RMM:   3    -0.707257256535E+03    0.10443E-04   -0.21149E-05  2322   0.115E-02    0.133E-02
RMM:   4    -0.707257255913E+03    0.62283E-06   -0.95400E-06  2300   0.604E-03    0.306E-03
RMM:   5    -0.707257255726E+03    0.18706E-06   -0.65773E-07  1893   0.184E-03    0.113E-03
RMM:   6    -0.707257255719E+03    0.60936E-08   -0.15767E-07  1380   0.838E-04
  79 F= -.71551359E+03 E0= -.71551359E+03  d E =-.756950E-04
 curvature:  -1.84 expect dE=-0.391E-03 dE for cont linesearch -0.187E-09
 trial: gam= 1.21915 g(F)=  0.212E-03 g(S)=  0.475E-06 ort =-0.346E-06 (trialstep = 0.225E+00)
 search vector abs. value=  0.197E-02
 bond charge predicted
       N       E                     dE             d eps       ncg     rms          rms(c)
DAV:   1    -0.707257343844E+03   -0.88119E-04   -0.14478E-02  2240   0.272E-01    0.256E-02
RMM:   2    -0.707257378202E+03   -0.34357E-04   -0.39944E-04  2249   0.393E-02    0.146E-02
RMM:   3    -0.707257372651E+03    0.55507E-05   -0.11039E-05  2340   0.833E-03    0.950E-03
RMM:   4    -0.707257372428E+03    0.22316E-06   -0.47175E-06  2275   0.424E-03    0.217E-03
RMM:   5    -0.707257372341E+03    0.86715E-07   -0.31564E-07  1518   0.132E-03
  80 F= -.71551363E+03 E0= -.71551363E+03  d E =-.402132E-04
 trial-energy change:   -0.000040  1 .order   -0.000039   -0.000048   -0.000030
 step:   0.4196(harm=  0.6044)  dis= 0.00057  next Energy=  -715.513646 (dE=-0.541E-04)
 bond charge predicted
       N       E                     dE             d eps       ncg     rms          rms(c)
DAV:   1    -0.707257436627E+03   -0.64199E-04   -0.10879E-02  2240   0.236E-01    0.222E-02
RMM:   2    -0.707257462724E+03   -0.26098E-04   -0.30172E-04  2249   0.342E-02    0.127E-02
RMM:   3    -0.707257458539E+03    0.41852E-05   -0.83537E-06  2333   0.726E-03    0.832E-03
RMM:   4    -0.707257458389E+03    0.14993E-06   -0.36444E-06  2271   0.374E-03    0.194E-03
RMM:   5    -0.707257458320E+03    0.69125E-07   -0.25437E-07  1471   0.120E-03
  81 F= -.71551365E+03 E0= -.71551365E+03  d E =-.599076E-04
 curvature:  -2.15 expect dE=-0.238E-03 dE for cont linesearch -0.466E-05
 ZBRENT: increasing intervall
 opt :   0.8092  next Energy=  -715.513651 (dE=-0.591E-04)
 bond charge predicted
       N       E                     dE             d eps       ncg     rms          rms(c)
DAV:   1    -0.707257504698E+03   -0.46309E-04   -0.43487E-02  2240   0.472E-01    0.444E-02
RMM:   2    -0.707257608446E+03   -0.10375E-03   -0.12030E-03  2248   0.683E-02    0.254E-02
RMM:   3    -0.707257591696E+03    0.16749E-04   -0.33251E-05  2341   0.145E-02    0.165E-02
RMM:   4    -0.707257591020E+03    0.67610E-06   -0.14453E-05  2305   0.741E-03    0.385E-03
RMM:   5    -0.707257590738E+03    0.28200E-06   -0.10746E-06  2122   0.227E-03    0.135E-03
RMM:   6    -0.707257590746E+03   -0.79817E-08   -0.19381E-07  1403   0.907E-04
  82 F= -.71551365E+03 E0= -.71551365E+03  d E =-.597663E-04
 curvature:   0.37 expect dE= 0.112E-03 dE for cont linesearch  0.954E-06
 trial: gam= 0.00000 g(F)=  0.293E-03 g(S)=  0.712E-05 ort =-0.711E-04 (trialstep = 0.342E+00)
 search vector abs. value=  0.301E-03
 bond charge predicted
       N       E                     dE             d eps       ncg     rms          rms(c)
DAV:   1    -0.707257415969E+03    0.17477E-03   -0.45715E-03  2288   0.153E-01    0.169E-02
RMM:   2    -0.707257423924E+03   -0.79550E-05   -0.12379E-04  2240   0.233E-02    0.106E-02
RMM:   3    -0.707257422220E+03    0.17036E-05   -0.66566E-06  2297   0.566E-03    0.617E-03
RMM:   4    -0.707257421887E+03    0.33359E-06   -0.18485E-06  2215   0.251E-03    0.179E-03
RMM:   5    -0.707257421857E+03    0.30032E-07   -0.12554E-07  1344   0.102E-03
  83 F= -.71551370E+03 E0= -.71551370E+03  d E =-.533830E-04
 trial-energy change:   -0.000053  1 .order   -0.000054   -0.000103   -0.000005
 step:   0.3584(harm=  0.3584)  dis= 0.00032  next Energy=  -715.513705 (dE=-0.539E-04)
 bond charge predicted
       N       E                     dE             d eps       ncg     rms          rms(c)
DAV:   1    -0.707257411060E+03    0.10827E-04   -0.11066E-05  2560   0.757E-03    0.892E-04
RMM:   2    -0.707257411083E+03   -0.23341E-07   -0.30442E-07  1457   0.120E-03    0.553E-04
RMM:   3    -0.707257411082E+03    0.14952E-08   -0.29317E-08  1269   0.419E-04
  84 F= -.71551370E+03 E0= -.71551370E+03  d E =-.534851E-04
 curvature:  -0.18 expect dE=-0.194E-04 dE for cont linesearch -0.132E-10
 trial: gam= 0.36042 g(F)=  0.108E-03 g(S)=  0.585E-06 ort = 0.149E-06 (trialstep = 0.345E+00)
 search vector abs. value=  0.148E-03
 bond charge predicted
       N       E                     dE             d eps       ncg     rms          rms(c)
DAV:   1    -0.707257339877E+03    0.71206E-04   -0.23035E-03  2288   0.109E-01    0.108E-02
RMM:   2    -0.707257344025E+03   -0.41486E-05   -0.53692E-05  2242   0.156E-02    0.650E-03
RMM:   3    -0.707257343348E+03    0.67725E-06   -0.21472E-06  2268   0.364E-03    0.408E-03
RMM:   4    -0.707257343194E+03    0.15404E-06   -0.82137E-07  2142   0.172E-03    0.103E-03
RMM:   5    -0.707257343188E+03    0.56389E-08   -0.51634E-08  1343   0.608E-04
  85 F= -.71551373E+03 E0= -.71551373E+03  d E =-.203934E-04
 trial-energy change:   -0.000020  1 .order   -0.000021   -0.000037   -0.000005
 step:   0.4061(harm=  0.3962)  dis= 0.00024  next Energy=  -715.513726 (dE=-0.208E-04)
 bond charge predicted
       N       E                     dE             d eps       ncg     rms          rms(c)
DAV:   1    -0.707257327722E+03    0.15472E-04   -0.72305E-05  2496   0.194E-02    0.192E-03
RMM:   2    -0.707257327867E+03   -0.14455E-06   -0.17550E-06  2237   0.281E-03    0.118E-03
RMM:   3    -0.707257327844E+03    0.22555E-07   -0.53915E-08  1332   0.641E-04
  86 F= -.71551373E+03 E0= -.71551373E+03  d E =-.207030E-04
 curvature:  -0.26 expect dE=-0.135E-04 dE for cont linesearch -0.913E-08
 trial: gam= 0.50121 g(F)=  0.515E-04 g(S)=  0.586E-06 ort =-0.228E-05 (trialstep = 0.357E+00)
 search vector abs. value=  0.869E-04
 bond charge predicted
       N       E                     dE             d eps       ncg     rms          rms(c)
DAV:   1    -0.707257275943E+03    0.51923E-04   -0.15255E-03  2288   0.875E-02    0.865E-03
RMM:   2    -0.707257278383E+03   -0.24393E-05   -0.32000E-05  2243   0.121E-02    0.487E-03
RMM:   3    -0.707257278026E+03    0.35718E-06   -0.12725E-06  2239   0.295E-03    0.302E-03
RMM:   4    -0.707257277976E+03    0.49768E-07   -0.39127E-07  1684   0.130E-03
  87 F= -.71551374E+03 E0= -.71551374E+03  d E =-.131300E-04
 trial-energy change:   -0.000013  1 .order   -0.000014   -0.000018   -0.000011
 step:   0.8767(harm=  0.8767)  dis= 0.00038  next Energy=  -715.513748 (dE=-0.223E-04)
 bond charge predicted
       N       E                     dE             d eps       ncg     rms          rms(c)
DAV:   1    -0.707257187087E+03    0.90939E-04   -0.32286E-03  2272   0.127E-01    0.126E-02
RMM:   2    -0.707257192413E+03   -0.53270E-05   -0.68565E-05  2243   0.177E-02    0.712E-03
RMM:   3    -0.707257191670E+03    0.74360E-06   -0.27069E-06  2264   0.429E-03    0.445E-03
RMM:   4    -0.707257191556E+03    0.11407E-06   -0.87767E-07  2181   0.190E-03    0.104E-03
RMM:   5    -0.707257191562E+03   -0.66429E-08   -0.53119E-08  1344   0.617E-04
  88 F= -.71551374E+03 E0= -.71551374E+03  d E =-.184173E-04
 curvature:  -0.75 expect dE=-0.570E-04 dE for cont linesearch -0.563E-08
 trial: gam= 1.42472 g(F)=  0.758E-04 g(S)=  0.404E-06 ort =-0.809E-06 (trialstep = 0.160E+00)
 search vector abs. value=  0.250E-03
 bond charge predicted
       N       E                     dE             d eps       ncg     rms          rms(c)
DAV:   1    -0.707257139173E+03    0.52382E-04   -0.87327E-04  2304   0.668E-02    0.653E-03
RMM:   2    -0.707257140727E+03   -0.15540E-05   -0.20356E-05  2244   0.946E-03    0.362E-03
RMM:   3    -0.707257140494E+03    0.23340E-06   -0.69906E-07  2045   0.226E-03    0.226E-03
RMM:   4    -0.707257140493E+03    0.13242E-08   -0.24956E-07  1366   0.113E-03
  89 F= -.71551375E+03 E0= -.71551375E+03  d E =-.103992E-04
 ZBRENT: can't locate minimum, use default step
 trial-energy change:   -0.000010  1 .order   -0.000011   -0.000012   -0.000009
 step:   0.6402(harm=  0.7466)  dis= 0.00041  next Energy=  -715.513772 (dE=-0.280E-04)
 bond charge predicted
       N       E                     dE             d eps       ncg     rms          rms(c)
DAV:   1    -0.707256959749E+03    0.18075E-03   -0.78505E-03  2256   0.200E-01    0.196E-02
RMM:   2    -0.707256974103E+03   -0.14354E-04   -0.18294E-04  2244   0.284E-02    0.108E-02
RMM:   3    -0.707256972091E+03    0.20123E-05   -0.64766E-06  2315   0.676E-03    0.676E-03
RMM:   4    -0.707256971928E+03    0.16258E-06   -0.22708E-06  2260   0.312E-03    0.175E-03
RMM:   5    -0.707256971935E+03   -0.64974E-08   -0.12456E-07  1344   0.933E-04
  90 F= -.71551377E+03 E0= -.71551377E+03  d E =-.261689E-04
 curvature:  -1.20 expect dE=-0.703E-04 dE for cont linesearch -0.256E-06
 trial: gam= 0.66438 g(F)=  0.584E-04 g(S)=  0.199E-07 ort = 0.729E-05 (trialstep = 0.256E+00)
 search vector abs. value=  0.179E-03
 bond charge predicted
       N       E                     dE             d eps       ncg     rms          rms(c)
DAV:   1    -0.707256942930E+03    0.28998E-04   -0.16187E-03  2272   0.920E-02    0.908E-03
RMM:   2    -0.707256946363E+03   -0.34327E-05   -0.42358E-05  2242   0.135E-02    0.510E-03
RMM:   3    -0.707256945897E+03    0.46562E-06   -0.14224E-06  2252   0.313E-03    0.319E-03
RMM:   4    -0.707256945924E+03   -0.26463E-07   -0.51452E-07  1945   0.145E-03
  91 F= -.71551378E+03 E0= -.71551378E+03  d E =-.133825E-04
 trial-energy change:   -0.000013  1 .order   -0.000014   -0.000016   -0.000011
 step:   0.7904(harm=  0.7904)  dis= 0.00031  next Energy=  -715.513795 (dE=-0.250E-04)
 bond charge predicted
       N       E                     dE             d eps       ncg     rms          rms(c)
DAV:   1    -0.707256861113E+03    0.84785E-04   -0.70328E-03  2240   0.192E-01    0.190E-02
RMM:   2    -0.707256875980E+03   -0.14867E-04   -0.18376E-04  2242   0.281E-02    0.106E-02
RMM:   3    -0.707256873888E+03    0.20915E-05   -0.62120E-06  2308   0.657E-03    0.662E-03
RMM:   4    -0.707256873840E+03    0.47807E-07   -0.22603E-06  2269   0.298E-03    0.165E-03
RMM:   5    -0.707256873874E+03   -0.33455E-07   -0.11780E-07  1352   0.903E-04
  92 F= -.71551379E+03 E0= -.71551379E+03  d E =-.234603E-04
 curvature:  -1.12 expect dE=-0.947E-04 dE for cont linesearch -0.258E-07
 trial: gam= 1.65022 g(F)=  0.838E-04 g(S)=  0.114E-05 ort =-0.203E-05 (trialstep = 0.115E+00)
 search vector abs. value=  0.565E-03
 bond charge predicted
       N       E                     dE             d eps       ncg     rms          rms(c)
DAV:   1    -0.707256861122E+03    0.12718E-04   -0.10223E-03  2288   0.728E-02    0.669E-03
RMM:   2    -0.707256863316E+03   -0.21943E-05   -0.25933E-05  2245   0.105E-02    0.374E-03
RMM:   3    -0.707256863031E+03    0.28517E-06   -0.82220E-07  2111   0.241E-03    0.239E-03
RMM:   4    -0.707256863053E+03   -0.21711E-07   -0.29277E-07  1471   0.116E-03
  93 F= -.71551380E+03 E0= -.71551380E+03  d E =-.842078E-05
 ZBRENT: can't locate minimum, use default step
 trial-energy change:   -0.000008  1 .order   -0.000009   -0.000009   -0.000008
 step:   0.4593(harm=  0.7065)  dis= 0.00031  next Energy=  -715.513822 (dE=-0.288E-04)
 bond charge predicted
       N       E                     dE             d eps       ncg     rms          rms(c)
DAV:   1    -0.707256803352E+03    0.59679E-04   -0.91808E-03  2240   0.218E-01    0.201E-02
RMM:   2    -0.707256822900E+03   -0.19548E-04   -0.23154E-04  2245   0.314E-02    0.111E-02
RMM:   3    -0.707256820308E+03    0.25920E-05   -0.74714E-06  2312   0.719E-03    0.710E-03
RMM:   4    -0.707256820219E+03    0.89400E-07   -0.26908E-06  2279   0.336E-03    0.165E-03
RMM:   5    -0.707256820225E+03   -0.54570E-08   -0.13341E-07  1352   0.928E-04
  94 F= -.71551382E+03 E0= -.71551382E+03  d E =-.233107E-04
 curvature:  -2.02 expect dE=-0.133E-03 dE for cont linesearch -0.209E-05
 ZBRENT: increasing intervall
 opt :   1.1481  next Energy=  -715.513803 (dE=-0.954E-05)
 bond charge predicted
       N       E                     dE             d eps       ncg     rms          rms(c)
DAV:   1    -0.707256625214E+03    0.19501E-03   -0.36750E-02  2240   0.437E-01    0.401E-02
RMM:   2    -0.707256703581E+03   -0.78368E-04   -0.92578E-04  2245   0.627E-02    0.222E-02
RMM:   3    -0.707256693100E+03    0.10481E-04   -0.29949E-05  2307   0.144E-02    0.142E-02
RMM:   4    -0.707256692469E+03    0.63125E-06   -0.10845E-05  2298   0.675E-03    0.331E-03
RMM:   5    -0.707256692435E+03    0.34430E-07   -0.61292E-07  1944   0.182E-03
  95 F= -.71551380E+03 E0= -.71551380E+03  d E =-.109506E-04
 curvature:  13.31 expect dE= 0.424E-02 dE for cont linesearch  0.902E-04
 ZBRENT: bracketing found
 ZBRENT: interpolating
 opt :   0.6528  next Energy=  -715.513819 (dE=-0.256E-04)
 bond charge predicted
       N       E                     dE             d eps       ncg     rms          rms(c)
DAV:   1    -0.707256757212E+03   -0.64743E-04   -0.18968E-02  2240   0.314E-01    0.288E-02
RMM:   2    -0.707256797155E+03   -0.39942E-04   -0.47318E-04  2245   0.449E-02    0.157E-02
RMM:   3    -0.707256791720E+03    0.54348E-05   -0.15317E-05  2304   0.104E-02    0.100E-02
RMM:   4    -0.707256791068E+03    0.65215E-06   -0.55128E-06  2292   0.491E-03    0.242E-03
RMM:   5    -0.707256790984E+03    0.83695E-07   -0.27837E-07  1444   0.132E-03
  96 F= -.71551382E+03 E0= -.71551382E+03  d E =-.264615E-04
 curvature:  -0.35 expect dE=-0.355E-04 dE for cont linesearch -0.135E-08
 trial: gam= 0.98843 g(F)=  0.102E-03 g(S)=  0.125E-05 ort = 0.148E-05 (trialstep = 0.191E+00)
 search vector abs. value=  0.657E-03
 bond charge predicted
       N       E                     dE             d eps       ncg     rms          rms(c)
DAV:   1    -0.707256762704E+03    0.28363E-04   -0.33292E-03  2256   0.131E-01    0.117E-02
RMM:   2    -0.707256769615E+03   -0.69107E-05   -0.82963E-05  2246   0.189E-02    0.660E-03
RMM:   3    -0.707256768528E+03    0.10866E-05   -0.27020E-06  2273   0.440E-03    0.420E-03
RMM:   4    -0.707256768375E+03    0.15307E-06   -0.10193E-06  2184   0.209E-03    0.982E-04
RMM:   5    -0.707256768360E+03    0.15374E-07   -0.47875E-08  1335   0.605E-04
  97 F= -.71551384E+03 E0= -.71551384E+03  d E =-.165697E-04
 trial-energy change:   -0.000017  1 .order   -0.000017   -0.000020   -0.000014
 step:   0.6714(harm=  0.6714)  dis= 0.00048  next Energy=  -715.513855 (dE=-0.350E-04)
 bond charge predicted
       N       E                     dE             d eps       ncg     rms          rms(c)
DAV:   1    -0.707256649570E+03    0.11881E-03   -0.21096E-02  2240   0.331E-01    0.294E-02
RMM:   2    -0.707256695020E+03   -0.45450E-04   -0.53155E-04  2245   0.477E-02    0.169E-02
RMM:   3    -0.707256688436E+03    0.65842E-05   -0.17336E-05  2296   0.110E-02    0.108E-02
RMM:   4    -0.707256687700E+03    0.73607E-06   -0.66471E-06  2297   0.516E-03    0.245E-03
RMM:   5    -0.707256687633E+03    0.66146E-07   -0.30207E-07  1464   0.136E-03
  98 F= -.71551385E+03 E0= -.71551385E+03  d E =-.342062E-04
 curvature:  -2.12 expect dE=-0.160E-03 dE for cont linesearch -0.473E-08
 trial: gam= 0.76202 g(F)=  0.731E-04 g(S)=  0.223E-05 ort = 0.121E-05 (trialstep = 0.287E+00)
 search vector abs. value=  0.459E-03
 bond charge predicted
       N       E                     dE             d eps       ncg     rms          rms(c)
DAV:   1    -0.707256628097E+03    0.59602E-04   -0.52641E-03  2240   0.165E-01    0.154E-02
RMM:   2    -0.707256639416E+03   -0.11319E-04   -0.13479E-04  2246   0.237E-02    0.870E-03
RMM:   3    -0.707256637527E+03    0.18891E-05   -0.41036E-06  2287   0.511E-03    0.547E-03
RMM:   4    -0.707256637305E+03    0.22218E-06   -0.15649E-06  2256   0.247E-03    0.115E-03
RMM:   5    -0.707256637312E+03   -0.68321E-08   -0.81425E-08  1344   0.763E-04
  99 F= -.71551387E+03 E0= -.71551387E+03  d E =-.180103E-04
 trial-energy change:   -0.000018  1 .order   -0.000018   -0.000022   -0.000014
 step:   0.7980(harm=  0.7980)  dis= 0.00049  next Energy=  -715.513885 (dE=-0.304E-04)
 bond charge predicted
       N       E                     dE             d eps       ncg     rms          rms(c)
DAV:   1    -0.707256498275E+03    0.13903E-03   -0.16647E-02  2240   0.293E-01    0.273E-02
RMM:   2    -0.707256533837E+03   -0.35562E-04   -0.42385E-04  2245   0.420E-02    0.154E-02
RMM:   3    -0.707256527892E+03    0.59449E-05   -0.12923E-05  2308   0.910E-03    0.961E-03
RMM:   4    -0.707256527227E+03    0.66429E-06   -0.48496E-06  2294   0.427E-03    0.201E-03
RMM:   5    -0.707256527210E+03    0.17477E-07   -0.23519E-07  1380   0.122E-03
 100 F= -.71551388E+03 E0= -.71551388E+03  d E =-.296507E-04
 curvature:  -2.40 expect dE=-0.270E-03 dE for cont linesearch -0.543E-08
 trial: gam= 1.53265 g(F)=  0.110E-03 g(S)=  0.249E-05 ort =-0.102E-05 (trialstep = 0.150E+00)
 search vector abs. value=  0.119E-02
 bond charge predicted
       N       E                     dE             d eps       ncg     rms          rms(c)
DAV:   1    -0.707256410112E+03    0.11712E-03   -0.36890E-03  2288   0.138E-01    0.135E-02
RMM:   2    -0.707256417793E+03   -0.76808E-05   -0.95575E-05  2247   0.198E-02    0.754E-03
RMM:   3    -0.707256416426E+03    0.13665E-05   -0.29633E-06  2264   0.443E-03    0.462E-03
RMM:   4    -0.707256416346E+03    0.80403E-07   -0.10167E-06  2190   0.204E-03    0.104E-03
RMM:   5    -0.707256416361E+03   -0.15516E-07   -0.55942E-08  1337   0.646E-04
 101 F= -.71551390E+03 E0= -.71551390E+03  d E =-.148268E-04
 ZBRENT: can't locate minimum, use default step
 trial-energy change:   -0.000015  1 .order   -0.000015   -0.000017   -0.000014
 step:   0.6019(harm=  0.9281)  dis= 0.00065  next Energy=  -715.513935 (dE=-0.514E-04)
 bond charge predicted
       N       E                     dE             d eps       ncg     rms          rms(c)
DAV:   1    -0.707256010172E+03    0.40617E-03   -0.33169E-02  2240   0.414E-01    0.404E-02
RMM:   2    -0.707256078937E+03   -0.68764E-04   -0.85679E-04  2248   0.593E-02    0.225E-02
RMM:   3    -0.707256066690E+03    0.12246E-04   -0.26565E-05  2291   0.133E-02    0.137E-02
RMM:   4    -0.707256065661E+03    0.10294E-05   -0.91374E-06  2290   0.598E-03    0.312E-03
RMM:   5    -0.707256065687E+03   -0.26699E-07   -0.50108E-07  1780   0.169E-03
 102 F= -.71551393E+03 E0= -.71551393E+03  d E =-.412297E-04
 curvature:  -4.10 expect dE=-0.405E-03 dE for cont linesearch -0.396E-05
 ZBRENT: increasing intervall
 opt :   1.5048  next Energy=  -715.513903 (dE=-0.186E-04)
 bond charge predicted
       N       E                     dE             d eps       ncg     rms          rms(c)
DAV:   1    -0.707255066578E+03    0.99908E-03   -0.13269E-01  2240   0.828E-01    0.810E-02
RMM:   2    -0.707255342483E+03   -0.27590E-03   -0.34301E-03  2248   0.119E-01    0.449E-02
RMM:   3    -0.707255293625E+03    0.48859E-04   -0.10624E-04  2292   0.265E-02    0.275E-02
RMM:   4    -0.707255289260E+03    0.43651E-05   -0.36588E-05  2294   0.120E-02    0.622E-03
RMM:   5    -0.707255289250E+03    0.92259E-08   -0.21595E-06  2275   0.338E-03    0.262E-03
RMM:   6    -0.707255289311E+03   -0.60718E-07   -0.42926E-07  1779   0.134E-03
 103 F= -.71551390E+03 E0= -.71551390E+03  d E =-.194789E-04
 curvature:  23.43 expect dE= 0.138E-01 dE for cont linesearch  0.142E-03
 ZBRENT: bracketing found
 ZBRENT: interpolating
 opt :   0.8596  next Energy=  -715.513930 (dE=-0.456E-04)
 bond charge predicted
       N       E                     dE             d eps       ncg     rms          rms(c)
DAV:   1    -0.707255742665E+03   -0.45342E-03   -0.67719E-02  2240   0.592E-01    0.578E-02
RMM:   2    -0.707255883408E+03   -0.14074E-03   -0.17455E-03  2248   0.847E-02    0.321E-02
RMM:   3    -0.707255858429E+03    0.24979E-04   -0.53970E-05  2290   0.189E-02    0.196E-02
RMM:   4    -0.707255855800E+03    0.26288E-05   -0.18762E-05  2295   0.857E-03    0.446E-03
RMM:   5    -0.707255855630E+03    0.17086E-06   -0.10968E-06  2249   0.240E-03    0.186E-03
RMM:   6    -0.707255855544E+03    0.86082E-07   -0.19997E-07  1360   0.971E-04
 104 F= -.71551393E+03 E0= -.71551393E+03  d E =-.463779E-04
 curvature:  -0.72 expect dE=-0.127E-03 dE for cont linesearch -0.121E-07
 trial: gam= 1.51872 g(F)=  0.168E-03 g(S)=  0.914E-05 ort = 0.447E-05 (trialstep = 0.118E+00)
 search vector abs. value=  0.293E-02
 bond charge predicted
       N       E                     dE             d eps       ncg     rms          rms(c)
DAV:   1    -0.707255679198E+03    0.17643E-03   -0.55656E-03  2240   0.170E-01    0.176E-02
RMM:   2    -0.707255690137E+03   -0.10939E-04   -0.14674E-04  2245   0.247E-02    0.924E-03
RMM:   3    -0.707255688102E+03    0.20356E-05   -0.48281E-06  2291   0.585E-03    0.557E-03
RMM:   4    -0.707255688066E+03    0.35885E-07   -0.15392E-06  2237   0.262E-03    0.143E-03
RMM:   5    -0.707255688093E+03   -0.27027E-07   -0.87260E-08  1344   0.805E-04
 105 F= -.71551395E+03 E0= -.71551395E+03  d E =-.184142E-04
 ZBRENT: can't locate minimum, use default step
 trial-energy change:   -0.000018  1 .order   -0.000020   -0.000022   -0.000018
 step:   0.4740(harm=  0.6772)  dis= 0.00079  next Energy=  -715.513992 (dE=-0.621E-04)
 bond charge predicted
       N       E                     dE             d eps       ncg     rms          rms(c)
DAV:   1    -0.707255088034E+03    0.60003E-03   -0.50157E-02  2240   0.511E-01    0.530E-02
RMM:   2    -0.707255187547E+03   -0.99512E-04   -0.13268E-03  2246   0.742E-02    0.278E-02
RMM:   3    -0.707255169363E+03    0.18184E-04   -0.43955E-05  2305   0.176E-02    0.168E-02
RMM:   4    -0.707255168295E+03    0.10679E-05   -0.13777E-05  2298   0.784E-03    0.438E-03
RMM:   5    -0.707255168350E+03   -0.55501E-07   -0.90688E-07  2147   0.223E-03
 106 F= -.71551399E+03 E0= -.71551399E+03  d E =-.564035E-04
 curvature:  -4.69 expect dE=-0.507E-03 dE for cont linesearch -0.740E-05
 ZBRENT: increasing intervall
 opt :   1.1850  next Energy=  -715.513976 (dE=-0.455E-04)
 bond charge predicted
       N       E                     dE             d eps       ncg     rms          rms(c)
DAV:   1    -0.707253717451E+03    0.14508E-02   -0.20066E-01  2240   0.102E+00    0.106E-01
RMM:   2    -0.707254116515E+03   -0.39906E-03   -0.53116E-03  2246   0.148E-01    0.556E-02
RMM:   3    -0.707254043550E+03    0.72966E-04   -0.17539E-04  2301   0.352E-02    0.336E-02
RMM:   4    -0.707254038411E+03    0.51383E-05   -0.55306E-05  2302   0.157E-02    0.869E-03
RMM:   5    -0.707254038407E+03    0.45038E-08   -0.36087E-06  2259   0.443E-03    0.365E-03
RMM:   6    -0.707254038499E+03   -0.92594E-07   -0.12016E-06  2106   0.225E-03    0.163E-03
RMM:   7    -0.707254038592E+03   -0.92808E-07   -0.21112E-07  1434   0.128E-03
 107 F= -.71551397E+03 E0= -.71551397E+03  d E =-.426187E-04
 curvature:   6.92 expect dE= 0.407E-02 dE for cont linesearch  0.228E-04
 ZBRENT: bracketing found
 ZBRENT: interpolating
 opt :   0.7649  next Energy=  -715.513997 (dE=-0.663E-04)
 bond charge predicted
       N       E                     dE             d eps       ncg     rms          rms(c)
DAV:   1    -0.707254608090E+03   -0.56959E-03   -0.69991E-02  2240   0.605E-01    0.625E-02
RMM:   2    -0.707254746966E+03   -0.13888E-03   -0.18470E-03  2245   0.877E-02    0.328E-02
RMM:   3    -0.707254721450E+03    0.25516E-04   -0.61404E-05  2301   0.210E-02    0.198E-02
RMM:   4    -0.707254718786E+03    0.26635E-05   -0.19345E-05  2301   0.939E-03    0.522E-03
RMM:   5    -0.707254718574E+03    0.21221E-06   -0.13046E-06  2230   0.268E-03    0.219E-03
RMM:   6    -0.707254718431E+03    0.14306E-06   -0.43769E-07  1772   0.142E-03    0.100E-03
RMM:   7    -0.707254718353E+03    0.77638E-07   -0.10077E-07  1340   0.956E-04
 108 F= -.71551399E+03 E0= -.71551399E+03  d E =-.629651E-04
 curvature:  -3.01 expect dE=-0.662E-03 dE for cont linesearch -0.841E-09
 trial: gam= 1.27282 g(F)=  0.216E-03 g(S)=  0.385E-05 ort = 0.905E-06 (trialstep = 0.146E+00)
 search vector abs. value=  0.497E-02
 bond charge predicted
       N       E                     dE             d eps       ncg     rms          rms(c)
DAV:   1    -0.707254504160E+03    0.21427E-03   -0.14373E-02  2240   0.273E-01    0.285E-02
RMM:   2    -0.707254533174E+03   -0.29014E-04   -0.38550E-04  2246   0.397E-02    0.149E-02
RMM:   3    -0.707254527841E+03    0.53327E-05   -0.12223E-05  2291   0.932E-03    0.908E-03
RMM:   4    -0.707254527641E+03    0.20055E-06   -0.39410E-06  2295   0.418E-03    0.233E-03
RMM:   5    -0.707254527708E+03   -0.67164E-07   -0.21454E-07  1369   0.118E-03
 109 F= -.71551402E+03 E0= -.71551402E+03  d E =-.302097E-04
 ZBRENT: can't locate minimum, use default step
 trial-energy change:   -0.000030  1 .order   -0.000028   -0.000032   -0.000024
 step:   0.5844(harm=  0.5949)  dis= 0.00125  next Energy=  -715.514059 (dE=-0.658E-04)
 bond charge predicted
       N       E                     dE             d eps       ncg     rms          rms(c)
DAV:   1    -0.707253684934E+03    0.84271E-03   -0.12943E-01  2240   0.819E-01    0.856E-02
RMM:   2    -0.707253948881E+03   -0.26395E-03   -0.34805E-03  2246   0.119E-01    0.447E-02
RMM:   3    -0.707253900642E+03    0.48239E-04   -0.11009E-04  2291   0.278E-02    0.273E-02
RMM:   4    -0.707253897509E+03    0.31324E-05   -0.35467E-05  2306   0.124E-02    0.694E-03
RMM:   5    -0.707253897681E+03   -0.17224E-06   -0.22497E-06  2267   0.344E-03    0.280E-03
RMM:   6    -0.707253897788E+03   -0.10629E-06   -0.67622E-07  2038   0.169E-03    0.124E-03
RMM:   7    -0.707253897873E+03   -0.84925E-07   -0.11416E-07  1347   0.939E-04
 110 F= -.71551406E+03 E0= -.71551406E+03  d E =-.633498E-04
 curvature:  -6.67 expect dE=-0.128E-02 dE for cont linesearch -0.151E-07
 trial: gam= 0.84063 g(F)=  0.189E-03 g(S)=  0.265E-05 ort = 0.335E-05 (trialstep = 0.234E+00)
 search vector abs. value=  0.371E-02
 bond charge predicted
       N       E                     dE             d eps       ncg     rms          rms(c)
DAV:   1    -0.707253547217E+03    0.35057E-03   -0.27717E-02  2240   0.379E-01    0.389E-02
RMM:   2    -0.707253605316E+03   -0.58099E-04   -0.75067E-04  2246   0.550E-02    0.204E-02
RMM:   3    -0.707253594741E+03    0.10575E-04   -0.23099E-05  2301   0.127E-02    0.124E-02
RMM:   4    -0.707253594260E+03    0.48117E-06   -0.74864E-06  2291   0.572E-03    0.308E-03
RMM:   5    -0.707253594319E+03   -0.59626E-07   -0.43321E-07  1704   0.160E-03
 111 F= -.71551409E+03 E0= -.71551409E+03  d E =-.350647E-04
 trial-energy change:   -0.000035  1 .order   -0.000037   -0.000045   -0.000028
 step:   0.6223(harm=  0.6223)  dis= 0.00111  next Energy=  -715.514117 (dE=-0.605E-04)
 bond charge predicted
       N       E                     dE             d eps       ncg     rms          rms(c)
DAV:   1    -0.707252922612E+03    0.67165E-03   -0.76569E-02  2240   0.629E-01    0.646E-02
RMM:   2    -0.707253084412E+03   -0.16180E-03   -0.20771E-03  2246   0.915E-02    0.341E-02
RMM:   3    -0.707253055098E+03    0.29314E-04   -0.63601E-05  2301   0.209E-02    0.207E-02
RMM:   4    -0.707253053468E+03    0.16296E-05   -0.20714E-05  2299   0.945E-03    0.505E-03
RMM:   5    -0.707253053547E+03   -0.78551E-07   -0.12681E-06  2217   0.262E-03    0.204E-03
RMM:   6    -0.707253053604E+03   -0.57589E-07   -0.33404E-07  1539   0.125E-03
 112 F= -.71551411E+03 E0= -.71551411E+03  d E =-.574364E-04
 curvature:  -5.93 expect dE=-0.795E-03 dE for cont linesearch -0.127E-06
 trial: gam= 0.74742 g(F)=  0.128E-03 g(S)=  0.630E-05 ort =-0.891E-05 (trialstep = 0.311E+00)
 search vector abs. value=  0.219E-02
 bond charge predicted
       N       E                     dE             d eps       ncg     rms          rms(c)
DAV:   1    -0.707252859982E+03    0.19357E-03   -0.28712E-02  2240   0.383E-01    0.365E-02
RMM:   2    -0.707252926287E+03   -0.66306E-04   -0.78383E-04  2253   0.557E-02    0.204E-02
RMM:   3    -0.707252914980E+03    0.11307E-04   -0.21718E-05  2290   0.119E-02    0.129E-02
RMM:   4    -0.707252914296E+03    0.68420E-06   -0.79506E-06  2295   0.559E-03    0.273E-03
RMM:   5    -0.707252914259E+03    0.37318E-07   -0.41046E-07  1629   0.154E-03
 113 F= -.71551414E+03 E0= -.71551414E+03  d E =-.305108E-04
 trial-energy change:   -0.000031  1 .order   -0.000029   -0.000040   -0.000019
 step:   0.5042(harm=  0.6031)  dis= 0.00070  next Energy=  -715.514151 (dE=-0.367E-04)
 bond charge predicted
       N       E                     dE             d eps       ncg     rms          rms(c)
DAV:   1    -0.707252795799E+03    0.11850E-03   -0.10999E-02  2256   0.237E-01    0.226E-02
RMM:   2    -0.707252821488E+03   -0.25689E-04   -0.30178E-04  2253   0.345E-02    0.128E-02
RMM:   3    -0.707252817143E+03    0.43453E-05   -0.83099E-06  2299   0.727E-03    0.809E-03
RMM:   4    -0.707252816904E+03    0.23880E-06   -0.30725E-06  2261   0.342E-03    0.170E-03
RMM:   5    -0.707252816896E+03    0.80800E-08   -0.16035E-07  1360   0.103E-03
 114 F= -.71551415E+03 E0= -.71551415E+03  d E =-.382802E-04
 curvature:  -4.59 expect dE=-0.433E-03 dE for cont linesearch -0.874E-06
 trial: gam= 0.49752 g(F)=  0.923E-04 g(S)=  0.197E-05 ort = 0.204E-04 (trialstep = 0.350E+00)
 search vector abs. value=  0.657E-03
 bond charge predicted
       N       E                     dE             d eps       ncg     rms          rms(c)
DAV:   1    -0.707252899911E+03   -0.83007E-04   -0.11221E-02  2240   0.239E-01    0.231E-02
RMM:   2    -0.707252927849E+03   -0.27937E-04   -0.32191E-04  2250   0.355E-02    0.131E-02
RMM:   3    -0.707252922968E+03    0.48804E-05   -0.85130E-06  2315   0.737E-03    0.840E-03
RMM:   4    -0.707252922546E+03    0.42265E-06   -0.36325E-06  2269   0.365E-03    0.181E-03
RMM:   5    -0.707252922477E+03    0.68136E-07   -0.20759E-07  1400   0.113E-03
 115 F= -.71551418E+03 E0= -.71551418E+03  d E =-.293717E-04
 trial-energy change:   -0.000029  1 .order   -0.000029   -0.000037   -0.000022
 step:   0.8593(harm=  0.8593)  dis= 0.00066  next Energy=  -715.514197 (dE=-0.449E-04)
 bond charge predicted
       N       E                     dE             d eps       ncg     rms          rms(c)
DAV:   1    -0.707253002305E+03   -0.79759E-04   -0.23758E-02  2240   0.348E-01    0.335E-02
RMM:   2    -0.707253061443E+03   -0.59138E-04   -0.68101E-04  2250   0.516E-02    0.190E-02
RMM:   3    -0.707253051142E+03    0.10300E-04   -0.17999E-05  2317   0.107E-02    0.122E-02
RMM:   4    -0.707253050320E+03    0.82198E-06   -0.77078E-06  2298   0.528E-03    0.264E-03
RMM:   5    -0.707253050178E+03    0.14211E-06   -0.47760E-07  1759   0.159E-03    0.101E-03
RMM:   6    -0.707253050168E+03    0.10506E-07   -0.97192E-08  1343   0.712E-04
 116 F= -.71551420E+03 E0= -.71551420E+03  d E =-.461527E-04
 curvature:  -2.70 expect dE=-0.340E-03 dE for cont linesearch -0.287E-08
 trial: gam= 1.55247 g(F)=  0.124E-03 g(S)=  0.150E-05 ort = 0.835E-06 (trialstep = 0.173E+00)
 search vector abs. value=  0.171E-02
 bond charge predicted
       N       E                     dE             d eps       ncg     rms          rms(c)
DAV:   1    -0.707253057285E+03   -0.71067E-05   -0.70812E-03  2256   0.190E-01    0.180E-02
RMM:   2    -0.707253074629E+03   -0.17344E-04   -0.19851E-04  2249   0.278E-02    0.102E-02
RMM:   3    -0.707253071697E+03    0.29315E-05   -0.52757E-06  2308   0.573E-03    0.652E-03
RMM:   4    -0.707253071472E+03    0.22491E-06   -0.20677E-06  2230   0.280E-03    0.137E-03
RMM:   5    -0.707253071426E+03    0.45951E-07   -0.11879E-07  1344   0.901E-04
 117 F= -.71551422E+03 E0= -.71551422E+03  d E =-.193133E-04
 ZBRENT: can't locate minimum, use default step
 trial-energy change:   -0.000019  1 .order   -0.000019   -0.000022   -0.000017
 step:   0.6936(harm=  0.7144)  dis= 0.00092  next Energy=  -715.514244 (dE=-0.455E-04)
 bond charge predicted
       N       E                     dE             d eps       ncg     rms          rms(c)
DAV:   1    -0.707252975589E+03    0.95883E-04   -0.63701E-02  2240   0.569E-01    0.540E-02
RMM:   2    -0.707253131539E+03   -0.15595E-03   -0.17874E-03  2249   0.835E-02    0.305E-02
RMM:   3    -0.707253105282E+03    0.26257E-04   -0.47468E-05  2310   0.172E-02    0.196E-02
RMM:   4    -0.707253103620E+03    0.16619E-05   -0.18938E-05  2311   0.844E-03    0.420E-03
RMM:   5    -0.707253103299E+03    0.32102E-06   -0.12861E-06  2213   0.253E-03    0.156E-03
RMM:   6    -0.707253103268E+03    0.30232E-07   -0.15598E-07  1390   0.880E-04
 118 F= -.71551424E+03 E0= -.71551424E+03  d E =-.455875E-04
 curvature:  -4.80 expect dE=-0.799E-03 dE for cont linesearch -0.706E-08
 trial: gam= 1.17351 g(F)=  0.165E-03 g(S)=  0.199E-05 ort = 0.159E-05 (trialstep = 0.188E+00)
 search vector abs. value=  0.253E-02
 bond charge predicted
       N       E                     dE             d eps       ncg     rms          rms(c)
DAV:   1    -0.707253141602E+03   -0.38304E-04   -0.12236E-02  2240   0.249E-01    0.237E-02
RMM:   2    -0.707253171014E+03   -0.29412E-04   -0.33896E-04  2252   0.363E-02    0.133E-02
RMM:   3    -0.707253166086E+03    0.49274E-05   -0.89072E-06  2300   0.739E-03    0.855E-03
RMM:   4    -0.707253165777E+03    0.30978E-06   -0.33614E-06  2259   0.359E-03    0.181E-03
RMM:   5    -0.707253165733E+03    0.43492E-07   -0.19971E-07  1419   0.113E-03
 119 F= -.71551427E+03 E0= -.71551427E+03  d E =-.295386E-04
 ZBRENT: can't locate minimum, use default step
 trial-energy change:   -0.000030  1 .order   -0.000028   -0.000032   -0.000025
 step:   0.7516(harm=  0.9084)  dis= 0.00139  next Energy=  -715.514321 (dE=-0.765E-04)
 bond charge predicted
       N       E                     dE             d eps       ncg     rms          rms(c)
DAV:   1    -0.707253093233E+03    0.72544E-04   -0.11003E-01  2240   0.747E-01    0.711E-02
RMM:   2    -0.707253358060E+03   -0.26483E-03   -0.30498E-03  2252   0.109E-01    0.401E-02
RMM:   3    -0.707253313726E+03    0.44334E-04   -0.79999E-05  2304   0.221E-02    0.257E-02
RMM:   4    -0.707253311089E+03    0.26368E-05   -0.30686E-05  2309   0.108E-02    0.554E-03
RMM:   5    -0.707253310713E+03    0.37562E-06   -0.21339E-06  2275   0.323E-03    0.205E-03
RMM:   6    -0.707253310696E+03    0.17713E-07   -0.26876E-07  1433   0.112E-03
 120 F= -.71551432E+03 E0= -.71551432E+03  d E =-.757816E-04
 curvature:  -6.50 expect dE=-0.119E-02 dE for cont linesearch -0.127E-05
 trial: gam= 0.99276 g(F)=  0.181E-03 g(S)=  0.326E-05 ort = 0.223E-04 (trialstep = 0.279E+00)
 search vector abs. value=  0.272E-02
 bond charge predicted
       N       E                     dE             d eps       ncg     rms          rms(c)
DAV:   1    -0.707253321903E+03   -0.11190E-04   -0.28963E-02  2240   0.383E-01    0.362E-02
RMM:   2    -0.707253390379E+03   -0.68476E-04   -0.78822E-04  2251   0.555E-02    0.203E-02
RMM:   3    -0.707253379002E+03    0.11377E-04   -0.20720E-05  2313   0.113E-02    0.130E-02
RMM:   4    -0.707253378393E+03    0.60865E-06   -0.80539E-06  2307   0.550E-03    0.276E-03
RMM:   5    -0.707253378313E+03    0.79963E-07   -0.51910E-07  1755   0.167E-03
 121 F= -.71551437E+03 E0= -.71551437E+03  d E =-.477176E-04
 trial-energy change:   -0.000048  1 .order   -0.000047   -0.000058   -0.000037
 step:   0.6240(harm=  0.7675)  dis= 0.00129  next Energy=  -715.514391 (dE=-0.715E-04)
 bond charge predicted
       N       E                     dE             d eps       ncg     rms          rms(c)
DAV:   1    -0.707253344776E+03    0.33617E-04   -0.43992E-02  2240   0.473E-01    0.447E-02
RMM:   2    -0.707253449386E+03   -0.10461E-03   -0.12004E-03  2250   0.684E-02    0.251E-02
RMM:   3    -0.707253431957E+03    0.17429E-04   -0.31689E-05  2311   0.139E-02    0.161E-02
RMM:   4    -0.707253431041E+03    0.91655E-06   -0.12362E-05  2309   0.682E-03    0.347E-03
RMM:   5    -0.707253430909E+03    0.13228E-06   -0.86260E-07  2079   0.209E-03    0.132E-03
RMM:   6    -0.707253430916E+03   -0.75743E-08   -0.11470E-07  1363   0.769E-04
 122 F= -.71551440E+03 E0= -.71551440E+03  d E =-.758323E-04
 curvature:  -4.63 expect dE=-0.816E-03 dE for cont linesearch -0.229E-05
 ZBRENT: extrapolating
 opt :   0.7579  next Energy=  -715.514398 (dE=-0.783E-04)
 bond charge predicted
       N       E                     dE             d eps       ncg     rms          rms(c)
DAV:   1    -0.707253430653E+03    0.25603E-06   -0.66509E-03  2256   0.184E-01    0.173E-02
RMM:   2    -0.707253446418E+03   -0.15766E-04   -0.18122E-04  2250   0.266E-02    0.971E-03
RMM:   3    -0.707253443795E+03    0.26231E-05   -0.47698E-06  2311   0.537E-03    0.622E-03
RMM:   4    -0.707253443677E+03    0.11813E-06   -0.18350E-06  2241   0.263E-03    0.131E-03
RMM:   5    -0.707253443662E+03    0.14956E-07   -0.10784E-07  1344   0.854E-04
 123 F= -.71551440E+03 E0= -.71551440E+03  d E =-.790842E-04
 curvature:  -4.97 expect dE=-0.135E-02 dE for cont linesearch -0.312E-08
 trial: gam= 1.72245 g(F)=  0.269E-03 g(S)=  0.204E-05 ort = 0.131E-05 (trialstep = 0.122E+00)
 search vector abs. value=  0.835E-02
 bond charge predicted
       N       E                     dE             d eps       ncg     rms          rms(c)
DAV:   1    -0.707253431860E+03    0.11817E-04   -0.17078E-02  2256   0.294E-01    0.276E-02
RMM:   2    -0.707253471759E+03   -0.39899E-04   -0.46051E-04  2251   0.423E-02    0.155E-02
RMM:   3    -0.707253465041E+03    0.67178E-05   -0.12108E-05  2294   0.866E-03    0.992E-03
RMM:   4    -0.707253464755E+03    0.28613E-06   -0.47375E-06  2281   0.421E-03    0.213E-03
RMM:   5    -0.707253464706E+03    0.48472E-07   -0.28522E-07  1508   0.127E-03
 124 F= -.71551443E+03 E0= -.71551443E+03  d E =-.311595E-04
 ZBRENT: can't locate minimum, use default step
 trial-energy change:   -0.000031  1 .order   -0.000030   -0.000033   -0.000027
 step:   0.4891(harm=  0.6029)  dis= 0.00178  next Energy=  -715.514481 (dE=-0.824E-04)
 bond charge predicted
       N       E                     dE             d eps       ncg     rms          rms(c)
DAV:   1    -0.707253191389E+03    0.27337E-03   -0.15367E-01  2240   0.883E-01    0.828E-02
RMM:   2    -0.707253549764E+03   -0.35838E-03   -0.41436E-03  2251   0.127E-01    0.465E-02
RMM:   3    -0.707253489147E+03    0.60617E-04   -0.10889E-04  2295   0.260E-02    0.297E-02
RMM:   4    -0.707253486131E+03    0.30159E-05   -0.42656E-05  2309   0.126E-02    0.639E-03
RMM:   5    -0.707253485644E+03    0.48744E-06   -0.28571E-06  2260   0.370E-03    0.244E-03
RMM:   6    -0.707253485655E+03   -0.11401E-07   -0.38438E-07  1579   0.131E-03
 125 F= -.71551448E+03 E0= -.71551448E+03  d E =-.832527E-04
 curvature:  -8.69 expect dE=-0.146E-02 dE for cont linesearch -0.289E-05
 ZBRENT: extrapolating
 opt :   0.6062  next Energy=  -715.514485 (dE=-0.863E-04)
 bond charge predicted
       N       E                     dE             d eps       ncg     rms          rms(c)
DAV:   1    -0.707253450525E+03    0.35118E-04   -0.15686E-02  2256   0.282E-01    0.264E-02
RMM:   2    -0.707253487105E+03   -0.36580E-04   -0.42302E-04  2251   0.405E-02    0.148E-02
RMM:   3    -0.707253480965E+03    0.61401E-05   -0.11201E-05  2298   0.836E-03    0.946E-03
RMM:   4    -0.707253480701E+03    0.26425E-06   -0.42857E-06  2271   0.401E-03    0.199E-03
RMM:   5    -0.707253480661E+03    0.39978E-07   -0.24592E-07  1465   0.121E-03
 126 F= -.71551449E+03 E0= -.71551449E+03  d E =-.883515E-04
 curvature:  -9.27 expect dE=-0.197E-02 dE for cont linesearch -0.631E-07
 trial: gam= 0.54727 g(F)=  0.207E-03 g(S)=  0.583E-05 ort = 0.754E-05 (trialstep = 0.219E+00)
 search vector abs. value=  0.272E-02
 bond charge predicted
       N       E                     dE             d eps       ncg     rms          rms(c)
DAV:   1    -0.707253415663E+03    0.65038E-04   -0.18399E-02  2240   0.306E-01    0.286E-02
RMM:   2    -0.707253457792E+03   -0.42129E-04   -0.49028E-04  2251   0.439E-02    0.163E-02
RMM:   3    -0.707253450727E+03    0.70652E-05   -0.13445E-05  2313   0.909E-03    0.103E-02
RMM:   4    -0.707253450280E+03    0.44698E-06   -0.57361E-06  2286   0.462E-03    0.226E-03
RMM:   5    -0.707253450173E+03    0.10654E-06   -0.35697E-07  1556   0.138E-03    0.863E-04
RMM:   6    -0.707253450172E+03    0.87675E-09   -0.77746E-08  1342   0.663E-04
 127 F= -.71551453E+03 E0= -.71551453E+03  d E =-.411398E-04
 trial-energy change:   -0.000041  1 .order   -0.000040   -0.000048   -0.000032
 step:   0.4301(harm=  0.6640)  dis= 0.00085  next Energy=  -715.514545 (dE=-0.578E-04)
 bond charge predicted
       N       E                     dE             d eps       ncg     rms          rms(c)
DAV:   1    -0.707253373309E+03    0.76864E-04   -0.17070E-02  2256   0.295E-01    0.275E-02
RMM:   2    -0.707253412164E+03   -0.38855E-04   -0.45377E-04  2251   0.423E-02    0.156E-02
RMM:   3    -0.707253405595E+03    0.65689E-05   -0.12460E-05  2308   0.877E-03    0.991E-03
RMM:   4    -0.707253405154E+03    0.44089E-06   -0.53108E-06  2283   0.446E-03    0.214E-03
RMM:   5    -0.707253405059E+03    0.95613E-07   -0.31552E-07  1527   0.132E-03
 128 F= -.71551455E+03 E0= -.71551455E+03  d E =-.650082E-04
 curvature:  -3.01 expect dE=-0.365E-03 dE for cont linesearch -0.639E-05
 ZBRENT: increasing intervall
 opt :   0.8521  next Energy=  -715.514555 (dE=-0.678E-04)
 bond charge predicted
       N       E                     dE             d eps       ncg     rms          rms(c)
DAV:   1    -0.707253143266E+03    0.26189E-03   -0.68270E-02  2240   0.590E-01    0.551E-02
RMM:   2    -0.707253298749E+03   -0.15548E-03   -0.18144E-03  2252   0.846E-02    0.313E-02
RMM:   3    -0.707253272757E+03    0.25992E-04   -0.49578E-05  2309   0.175E-02    0.199E-02
RMM:   4    -0.707253271107E+03    0.16501E-05   -0.21361E-05  2304   0.892E-03    0.434E-03
RMM:   5    -0.707253270733E+03    0.37385E-06   -0.14307E-06  2199   0.261E-03    0.166E-03
RMM:   6    -0.707253270719E+03    0.14108E-07   -0.19299E-07  1406   0.953E-04
 129 F= -.71551456E+03 E0= -.71551456E+03  d E =-.687858E-04
 curvature:  -1.31 expect dE=-0.532E-03 dE for cont linesearch -0.190E-05
 ZBRENT: bracketing found
 ZBRENT: interpolating
 opt :   0.6612  next Energy=  -715.514562 (dE=-0.748E-04)
 bond charge predicted
       N       E                     dE             d eps       ncg     rms          rms(c)
DAV:   1    -0.707253313422E+03   -0.42689E-04   -0.13940E-02  2256   0.266E-01    0.249E-02
RMM:   2    -0.707253344946E+03   -0.31524E-04   -0.36983E-04  2249   0.382E-02    0.141E-02
RMM:   3    -0.707253339630E+03    0.53160E-05   -0.10077E-05  2307   0.791E-03    0.895E-03
RMM:   4    -0.707253339313E+03    0.31706E-06   -0.43692E-06  2280   0.403E-03    0.197E-03
RMM:   5    -0.707253339242E+03    0.71253E-07   -0.26242E-07  1487   0.120E-03
 130 F= -.71551456E+03 E0= -.71551456E+03  d E =-.749069E-04
 curvature:  -4.14 expect dE=-0.953E-03 dE for cont linesearch -0.100E-06
 trial: gam= 1.10345 g(F)=  0.229E-03 g(S)=  0.129E-05 ort = 0.811E-05 (trialstep = 0.235E+00)
 search vector abs. value=  0.356E-02
 bond charge predicted
       N       E                     dE             d eps       ncg     rms          rms(c)
DAV:   1    -0.707253276548E+03    0.62765E-04   -0.26983E-02  2240   0.370E-01    0.356E-02
RMM:   2    -0.707253337803E+03   -0.61255E-04   -0.72382E-04  2252   0.531E-02    0.200E-02
RMM:   3    -0.707253326853E+03    0.10950E-04   -0.19301E-05  2305   0.109E-02    0.127E-02
RMM:   4    -0.707253325988E+03    0.86477E-06   -0.78423E-06  2295   0.537E-03    0.279E-03
RMM:   5    -0.707253325885E+03    0.10325E-06   -0.49156E-07  1731   0.165E-03    0.105E-03
RMM:   6    -0.707253325887E+03   -0.19900E-08   -0.10076E-07  1342   0.753E-04
 131 F= -.71551460E+03 E0= -.71551460E+03  d E =-.418653E-04
 trial-energy change:   -0.000042  1 .order   -0.000043   -0.000056   -0.000029
 step:   0.4887(harm=  0.4887)  dis= 0.00105  next Energy=  -715.514621 (dE=-0.584E-04)
 bond charge predicted
       N       E                     dE             d eps       ncg     rms          rms(c)
DAV:   1    -0.707253224157E+03    0.10173E-03   -0.31495E-02  2240   0.400E-01    0.385E-02
RMM:   2    -0.707253296210E+03   -0.72054E-04   -0.84644E-04  2252   0.574E-02    0.217E-02
RMM:   3    -0.707253283528E+03    0.12682E-04   -0.22632E-05  2305   0.117E-02    0.138E-02
RMM:   4    -0.707253282585E+03    0.94329E-06   -0.91830E-06  2300   0.584E-03    0.302E-03
RMM:   5    -0.707253282465E+03    0.12035E-06   -0.58917E-07  1832   0.178E-03    0.114E-03
RMM:   6    -0.707253282465E+03   -0.29104E-09   -0.10934E-07  1351   0.765E-04
 132 F= -.71551462E+03 E0= -.71551462E+03  d E =-.582921E-04
 curvature:  -3.64 expect dE=-0.458E-03 dE for cont linesearch -0.648E-07
 trial: gam= 0.50947 g(F)=  0.123E-03 g(S)=  0.273E-05 ort = 0.796E-05 (trialstep = 0.286E+00)
 search vector abs. value=  0.106E-02
 bond charge predicted
       N       E                     dE             d eps       ncg     rms          rms(c)
DAV:   1    -0.707253265277E+03    0.17188E-04   -0.11755E-02  2256   0.245E-01    0.231E-02
RMM:   2    -0.707253293505E+03   -0.28228E-04   -0.32668E-04  2249   0.356E-02    0.132E-02
RMM:   3    -0.707253288684E+03    0.48211E-05   -0.89723E-06  2306   0.733E-03    0.851E-03
RMM:   4    -0.707253288362E+03    0.32211E-06   -0.35328E-06  2257   0.362E-03    0.181E-03
RMM:   5    -0.707253288314E+03    0.47919E-07   -0.20299E-07  1405   0.115E-03
 133 F= -.71551465E+03 E0= -.71551465E+03  d E =-.285905E-04
 trial-energy change:   -0.000029  1 .order   -0.000028   -0.000037   -0.000019
 step:   0.5133(harm=  0.5863)  dis= 0.00055  next Energy=  -715.514657 (dE=-0.364E-04)
 bond charge predicted
       N       E                     dE             d eps       ncg     rms          rms(c)
DAV:   1    -0.707253265734E+03    0.22628E-04   -0.74635E-03  2256   0.195E-01    0.184E-02
RMM:   2    -0.707253283815E+03   -0.18081E-04   -0.20842E-04  2248   0.284E-02    0.106E-02
RMM:   3    -0.707253280740E+03    0.30744E-05   -0.57482E-06  2305   0.587E-03    0.684E-03
RMM:   4    -0.707253280540E+03    0.20063E-06   -0.22714E-06  2238   0.290E-03    0.147E-03
RMM:   5    -0.707253280506E+03    0.33502E-07   -0.13744E-07  1356   0.964E-04
 134 F= -.71551466E+03 E0= -.71551466E+03  d E =-.388673E-04
 curvature:  -2.25 expect dE=-0.190E-03 dE for cont linesearch -0.601E-06
 trial: gam= 0.58867 g(F)=  0.825E-04 g(S)=  0.208E-05 ort = 0.168E-04 (trialstep = 0.331E+00)
 search vector abs. value=  0.471E-03
 bond charge predicted
       N       E                     dE             d eps       ncg     rms          rms(c)
DAV:   1    -0.707253153242E+03    0.12730E-03   -0.77156E-03  2256   0.201E-01    0.191E-02
RMM:   2    -0.707253172158E+03   -0.18916E-04   -0.22197E-04  2246   0.300E-02    0.108E-02
RMM:   3    -0.707253169041E+03    0.31162E-05   -0.63858E-06  2324   0.640E-03    0.694E-03
RMM:   4    -0.707253168970E+03    0.71468E-07   -0.26394E-06  2249   0.310E-03    0.152E-03
RMM:   5    -0.707253168962E+03    0.82655E-08   -0.12763E-07  1345   0.941E-04
 135 F= -.71551468E+03 E0= -.71551468E+03  d E =-.234013E-04
 trial-energy change:   -0.000023  1 .order   -0.000025   -0.000031   -0.000018
 step:   0.7678(harm=  0.7678)  dis= 0.00065  next Energy=  -715.514696 (dE=-0.363E-04)
 bond charge predicted
       N       E                     dE             d eps       ncg     rms          rms(c)
DAV:   1    -0.707252975889E+03    0.19308E-03   -0.13407E-02  2240   0.264E-01    0.252E-02
RMM:   2    -0.707253008785E+03   -0.32897E-04   -0.38573E-04  2246   0.395E-02    0.142E-02
RMM:   3    -0.707253003346E+03    0.54392E-05   -0.11077E-05  2326   0.842E-03    0.915E-03
RMM:   4    -0.707253003166E+03    0.17973E-06   -0.46240E-06  2267   0.408E-03    0.201E-03
RMM:   5    -0.707253003141E+03    0.25233E-07   -0.23108E-07  1435   0.123E-03
 136 F= -.71551469E+03 E0= -.71551469E+03  d E =-.355803E-04
 curvature:  -1.91 expect dE=-0.189E-03 dE for cont linesearch -0.120E-09
 trial: gam= 1.36434 g(F)=  0.969E-04 g(S)=  0.162E-05 ort =-0.172E-06 (trialstep = 0.202E+00)
 search vector abs. value=  0.975E-03
 bond charge predicted
       N       E                     dE             d eps       ncg     rms          rms(c)
DAV:   1    -0.707252929349E+03    0.73818E-04   -0.57000E-03  2256   0.173E-01    0.172E-02
RMM:   2    -0.707252943355E+03   -0.14007E-04   -0.16642E-04  2247   0.257E-02    0.938E-03
RMM:   3    -0.707252940947E+03    0.24079E-05   -0.46701E-06  2308   0.550E-03    0.597E-03
RMM:   4    -0.707252940910E+03    0.37318E-07   -0.16614E-06  2242   0.255E-03    0.140E-03
RMM:   5    -0.707252940946E+03   -0.36409E-07   -0.91291E-08  1344   0.799E-04
 137 F= -.71551471E+03 E0= -.71551471E+03  d E =-.164697E-04
 trial-energy change:   -0.000016  1 .order   -0.000017   -0.000020   -0.000013
 step:   0.6188(harm=  0.6188)  dis= 0.00068  next Energy=  -715.514725 (dE=-0.304E-04)
 bond charge predicted
       N       E                     dE             d eps       ncg     rms          rms(c)
DAV:   1    -0.707252743631E+03    0.19728E-03   -0.24156E-02  2240   0.355E-01    0.355E-02
RMM:   2    -0.707252802738E+03   -0.59106E-04   -0.70337E-04  2247   0.528E-02    0.192E-02
RMM:   3    -0.707252792445E+03    0.10293E-04   -0.19648E-05  2318   0.113E-02    0.122E-02
RMM:   4    -0.707252792006E+03    0.43895E-06   -0.69383E-06  2294   0.516E-03    0.285E-03
RMM:   5    -0.707252792068E+03   -0.61591E-07   -0.39076E-07  1599   0.151E-03
 138 F= -.71551472E+03 E0= -.71551472E+03  d E =-.295653E-04
 curvature:  -3.07 expect dE=-0.323E-03 dE for cont linesearch -0.464E-07
 trial: gam= 0.96967 g(F)=  0.102E-03 g(S)=  0.282E-05 ort =-0.384E-05 (trialstep = 0.274E+00)
 search vector abs. value=  0.101E-02
 bond charge predicted
       N       E                     dE             d eps       ncg     rms          rms(c)
DAV:   1    -0.707252629110E+03    0.16290E-03   -0.10347E-02  2256   0.233E-01    0.235E-02
RMM:   2    -0.707252653736E+03   -0.24626E-04   -0.29896E-04  2246   0.344E-02    0.128E-02
RMM:   3    -0.707252649426E+03    0.43093E-05   -0.87269E-06  2296   0.766E-03    0.801E-03
RMM:   4    -0.707252649290E+03    0.13692E-06   -0.29409E-06  2266   0.351E-03    0.200E-03
RMM:   5    -0.707252649303E+03   -0.12988E-07   -0.16790E-07  1364   0.105E-03
 139 F= -.71551475E+03 E0= -.71551475E+03  d E =-.226900E-04
 trial-energy change:   -0.000023  1 .order   -0.000023   -0.000028   -0.000018
 step:   0.7863(harm=  0.7863)  dis= 0.00083  next Energy=  -715.514764 (dE=-0.399E-04)
 bond charge predicted
       N       E                     dE             d eps       ncg     rms          rms(c)
DAV:   1    -0.707252286620E+03    0.36267E-03   -0.35992E-02  2240   0.434E-01    0.439E-02
RMM:   2    -0.707252371727E+03   -0.85107E-04   -0.10387E-03  2245   0.641E-02    0.237E-02
RMM:   3    -0.707252356626E+03    0.15102E-04   -0.30328E-05  2302   0.143E-02    0.149E-02
RMM:   4    -0.707252355901E+03    0.72489E-06   -0.10215E-05  2305   0.653E-03    0.375E-03
RMM:   5    -0.707252355902E+03   -0.12515E-08   -0.65480E-07  1989   0.186E-03
 140 F= -.71551476E+03 E0= -.71551476E+03  d E =-.379903E-04
 curvature:  -3.93 expect dE=-0.608E-03 dE for cont linesearch -0.780E-09
 trial: gam= 1.39009 g(F)=  0.153E-03 g(S)=  0.186E-05 ort =-0.449E-06 (trialstep = 0.181E+00)
 search vector abs. value=  0.211E-02
 bond charge predicted
       N       E                     dE             d eps       ncg     rms          rms(c)
DAV:   1    -0.707252190337E+03    0.16556E-03   -0.97073E-03  2256   0.225E-01    0.220E-02
RMM:   2    -0.707252213523E+03   -0.23186E-04   -0.27629E-04  2247   0.333E-02    0.122E-02
RMM:   3    -0.707252209590E+03    0.39332E-05   -0.81903E-06  2319   0.729E-03    0.783E-03
RMM:   4    -0.707252209381E+03    0.20840E-06   -0.31313E-06  2262   0.343E-03    0.182E-03
RMM:   5    -0.707252209367E+03    0.14348E-07   -0.17250E-07  1389   0.105E-03
 141 F= -.71551479E+03 E0= -.71551479E+03  d E =-.232545E-04
 trial-energy change:   -0.000023  1 .order   -0.000023   -0.000028   -0.000019
 step:   0.5744(harm=  0.5744)  dis= 0.00086  next Energy=  -715.514807 (dE=-0.442E-04)
 bond charge predicted
       N       E                     dE             d eps       ncg     rms          rms(c)
DAV:   1    -0.707251768408E+03    0.44097E-03   -0.45941E-02  2240   0.490E-01    0.476E-02
RMM:   2    -0.707251877026E+03   -0.10862E-03   -0.13011E-03  2247   0.723E-02    0.264E-02
RMM:   3    -0.707251858478E+03    0.18548E-04   -0.38615E-05  2325   0.159E-02    0.169E-02
RMM:   4    -0.707251857319E+03    0.11585E-05   -0.14544E-05  2304   0.745E-03    0.394E-03
RMM:   5    -0.707251857218E+03    0.10155E-06   -0.85080E-07  2124   0.209E-03    0.158E-03
RMM:   6    -0.707251857237E+03   -0.19132E-07   -0.20191E-07  1389   0.921E-04
 142 F= -.71551480E+03 E0= -.71551480E+03  d E =-.406407E-04
 curvature:  -3.94 expect dE=-0.373E-03 dE for cont linesearch -0.119E-08
 trial: gam= 0.61661 g(F)=  0.928E-04 g(S)=  0.181E-05 ort = 0.800E-06 (trialstep = 0.260E+00)
 search vector abs. value=  0.899E-03
 bond charge predicted
       N       E                     dE             d eps       ncg     rms          rms(c)
DAV:   1    -0.707251775664E+03    0.81553E-04   -0.89709E-03  2256   0.215E-01    0.200E-02
RMM:   2    -0.707251797252E+03   -0.21587E-04   -0.24977E-04  2249   0.315E-02    0.112E-02
RMM:   3    -0.707251793725E+03    0.35266E-05   -0.69199E-06  2335   0.649E-03    0.725E-03
RMM:   4    -0.707251793524E+03    0.20102E-06   -0.30644E-06  2252   0.336E-03    0.157E-03
RMM:   5    -0.707251793502E+03    0.22301E-07   -0.16107E-07  1375   0.102E-03
 143 F= -.71551482E+03 E0= -.71551482E+03  d E =-.197141E-04
 trial-energy change:   -0.000020  1 .order   -0.000020   -0.000025   -0.000014
 step:   0.6271(harm=  0.6271)  dis= 0.00063  next Energy=  -715.514833 (dE=-0.298E-04)
 bond charge predicted
       N       E                     dE             d eps       ncg     rms          rms(c)
DAV:   1    -0.707251650771E+03    0.14275E-03   -0.17993E-02  2240   0.304E-01    0.283E-02
RMM:   2    -0.707251694369E+03   -0.43598E-04   -0.50206E-04  2248   0.446E-02    0.160E-02
RMM:   3    -0.707251687239E+03    0.71306E-05   -0.13834E-05  2339   0.912E-03    0.103E-02
RMM:   4    -0.707251686797E+03    0.44195E-06   -0.62405E-06  2271   0.474E-03    0.228E-03
RMM:   5    -0.707251686732E+03    0.65011E-07   -0.36185E-07  1546   0.145E-03
 144 F= -.71551483E+03 E0= -.71551483E+03  d E =-.311928E-04
 curvature:  -2.96 expect dE=-0.294E-03 dE for cont linesearch -0.621E-08
 trial: gam= 1.08737 g(F)=  0.977E-04 g(S)=  0.152E-05 ort =-0.137E-05 (trialstep = 0.258E+00)
 search vector abs. value=  0.116E-02
 bond charge predicted
       N       E                     dE             d eps       ncg     rms          rms(c)
DAV:   1    -0.707251507867E+03    0.17893E-03   -0.10923E-02  2240   0.237E-01    0.224E-02
RMM:   2    -0.707251533710E+03   -0.25843E-04   -0.29991E-04  2249   0.343E-02    0.125E-02
RMM:   3    -0.707251529449E+03    0.42614E-05   -0.81591E-06  2311   0.713E-03    0.807E-03
RMM:   4    -0.707251529381E+03    0.67383E-07   -0.31146E-06  2255   0.350E-03    0.180E-03
RMM:   5    -0.707251529374E+03    0.72869E-08   -0.16264E-07  1384   0.103E-03
 145 F= -.71551486E+03 E0= -.71551486E+03  d E =-.213764E-04
 trial-energy change:   -0.000021  1 .order   -0.000022   -0.000025   -0.000018
 step:   0.8783(harm=  0.8783)  dis= 0.00098  next Energy=  -715.514877 (dE=-0.429E-04)
 bond charge predicted
       N       E                     dE             d eps       ncg     rms          rms(c)
DAV:   1    -0.707250995616E+03    0.53377E-03   -0.62883E-02  2240   0.568E-01    0.537E-02
RMM:   2    -0.707251143958E+03   -0.14834E-03   -0.17260E-03  2249   0.822E-02    0.300E-02
RMM:   3    -0.707251119185E+03    0.24772E-04   -0.46796E-05  2314   0.170E-02    0.192E-02
RMM:   4    -0.707251118238E+03    0.94693E-06   -0.17859E-05  2279   0.837E-03    0.434E-03
RMM:   5    -0.707251118130E+03    0.10806E-06   -0.10755E-06  2214   0.239E-03    0.170E-03
RMM:   6    -0.707251118151E+03   -0.20940E-07   -0.26750E-07  1449   0.108E-03
 146 F= -.71551487E+03 E0= -.71551487E+03  d E =-.391492E-04
 curvature:  -5.21 expect dE=-0.668E-03 dE for cont linesearch -0.132E-06
 trial: gam= 1.29904 g(F)=  0.127E-03 g(S)=  0.619E-06 ort =-0.542E-05 (trialstep = 0.214E+00)
 search vector abs. value=  0.207E-02
 bond charge predicted
       N       E                     dE             d eps       ncg     rms          rms(c)
DAV:   1    -0.707250989839E+03    0.12829E-03   -0.13068E-02  2240   0.260E-01    0.244E-02
RMM:   2    -0.707251020525E+03   -0.30685E-04   -0.35787E-04  2248   0.376E-02    0.135E-02
RMM:   3    -0.707251015683E+03    0.48418E-05   -0.10049E-05  2308   0.815E-03    0.874E-03
RMM:   4    -0.707251015566E+03    0.11699E-06   -0.39355E-06  2265   0.423E-03    0.215E-03
RMM:   5    -0.707251015517E+03    0.49091E-07   -0.20359E-07  1406   0.120E-03
 147 F= -.71551490E+03 E0= -.71551490E+03  d E =-.220168E-04
 trial-energy change:   -0.000022  1 .order   -0.000021   -0.000026   -0.000016
 step:   0.3791(harm=  0.5627)  dis= 0.00056  next Energy=  -715.514902 (dE=-0.287E-04)
 bond charge predicted
       N       E                     dE             d eps       ncg     rms          rms(c)
DAV:   1    -0.707250912713E+03    0.10285E-03   -0.77658E-03  2240   0.200E-01    0.188E-02
RMM:   2    -0.707250931276E+03   -0.18563E-04   -0.21471E-04  2247   0.290E-02    0.106E-02
RMM:   3    -0.707250928331E+03    0.29448E-05   -0.59654E-06  2305   0.613E-03    0.683E-03
RMM:   4    -0.707250928282E+03    0.48858E-07   -0.24058E-06  2245   0.318E-03    0.162E-03
RMM:   5    -0.707250928251E+03    0.30832E-07   -0.13054E-07  1356   0.932E-04
 148 F= -.71551490E+03 E0= -.71551490E+03  d E =-.308488E-04
 curvature:  -3.48 expect dE=-0.229E-03 dE for cont linesearch -0.219E-05
 ZBRENT: increasing intervall
 opt :   0.7090  next Energy=  -715.514903 (dE=-0.299E-04)
 bond charge predicted
       N       E                     dE             d eps       ncg     rms          rms(c)
DAV:   1    -0.707250673486E+03    0.25480E-03   -0.31040E-02  2240   0.400E-01    0.375E-02
RMM:   2    -0.707250746794E+03   -0.73307E-04   -0.85302E-04  2247   0.579E-02    0.210E-02
RMM:   3    -0.707250735048E+03    0.11746E-04   -0.23730E-05  2307   0.123E-02    0.135E-02
RMM:   4    -0.707250734638E+03    0.41032E-06   -0.95227E-06  2293   0.643E-03    0.326E-03
RMM:   5    -0.707250734516E+03    0.12195E-06   -0.53695E-07  1797   0.175E-03    0.132E-03
RMM:   6    -0.707250734518E+03   -0.19536E-08   -0.22293E-07  1415   0.987E-04
 149 F= -.71551490E+03 E0= -.71551490E+03  d E =-.292400E-04
 curvature:   1.45 expect dE= 0.276E-03 dE for cont linesearch  0.126E-05
 trial: gam= 0.00000 g(F)=  0.184E-03 g(S)=  0.661E-05 ort =-0.424E-04 (trialstep = 0.313E+00)
 search vector abs. value=  0.191E-03
 bond charge predicted
       N       E                     dE             d eps       ncg     rms          rms(c)
DAV:   1    -0.707250934440E+03   -0.19992E-03   -0.27640E-03  2304   0.120E-01    0.149E-02
RMM:   2    -0.707250940260E+03   -0.58197E-05   -0.92787E-05  2240   0.201E-02    0.881E-03
RMM:   3    -0.707250939060E+03    0.12004E-05   -0.40845E-06  2272   0.523E-03    0.534E-03
RMM:   4    -0.707250938634E+03    0.42547E-06   -0.16495E-06  2148   0.247E-03    0.162E-03
RMM:   5    -0.707250938609E+03    0.25204E-07   -0.13807E-07  1362   0.891E-04
 150 F= -.71551493E+03 E0= -.71551493E+03  d E =-.293258E-04
 trial-energy change:   -0.000029  1 .order   -0.000029   -0.000060    0.000002
 step:   0.3027(harm=  0.3022)  dis= 0.00012  next Energy=  -715.514932 (dE=-0.294E-04)
 bond charge predicted
       N       E                     dE             d eps       ncg     rms          rms(c)
DAV:   1    -0.707250932799E+03    0.58346E-05   -0.30985E-06  2648   0.450E-03    0.600E-04
RMM:   2    -0.707250932800E+03   -0.16007E-09   -0.99655E-08  1254   0.778E-04    0.349E-04
RMM:   3    -0.707250932802E+03   -0.27649E-08   -0.13615E-08  1137   0.358E-04
 151 F= -.71551493E+03 E0= -.71551493E+03  d E =-.293225E-04
 curvature:  -0.15 expect dE=-0.799E-05 dE for cont linesearch -0.289E-08
 trial: gam= 0.28742 g(F)=  0.529E-04 g(S)=  0.617E-07 ort =-0.191E-05 (trialstep = 0.311E+00)
 search vector abs. value=  0.677E-04
 bond charge predicted
       N       E                     dE             d eps       ncg     rms          rms(c)
DAV:   1    -0.707251089054E+03   -0.15625E-03   -0.88930E-04  2288   0.689E-02    0.751E-03
RMM:   2    -0.707251090737E+03   -0.16834E-05   -0.23649E-05  2240   0.104E-02    0.441E-03
RMM:   3    -0.707251090390E+03    0.34717E-06   -0.95269E-07  2202   0.260E-03    0.280E-03
RMM:   4    -0.707251090240E+03    0.15002E-06   -0.33236E-07  1518   0.114E-03    0.745E-04
RMM:   5    -0.707251090213E+03    0.27274E-07   -0.42517E-08  1309   0.604E-04
 152 F= -.71551494E+03 E0= -.71551494E+03  d E =-.119394E-04
 trial-energy change:   -0.000012  1 .order   -0.000012   -0.000016   -0.000007
 step:   0.5449(harm=  0.5449)  dis= 0.00014  next Energy=  -715.514946 (dE=-0.143E-04)
 bond charge predicted
       N       E                     dE             d eps       ncg     rms          rms(c)
DAV:   1    -0.707251202184E+03   -0.11194E-03   -0.50304E-04  2304   0.518E-02    0.564E-03
RMM:   2    -0.707251203159E+03   -0.97459E-06   -0.13523E-05  2240   0.785E-03    0.335E-03
RMM:   3    -0.707251202947E+03    0.21145E-06   -0.50650E-07  1718   0.197E-03    0.216E-03
RMM:   4    -0.707251202839E+03    0.10779E-06   -0.23676E-07  1355   0.105E-03    0.613E-04
RMM:   5    -0.707251202828E+03    0.10899E-07   -0.49427E-08  1302   0.684E-04
 153 F= -.71551495E+03 E0= -.71551495E+03  d E =-.151067E-04
 curvature:  -0.35 expect dE=-0.115E-04 dE for cont linesearch -0.242E-10
 trial: gam= 0.60777 g(F)=  0.325E-04 g(S)=  0.275E-06 ort =-0.683E-07 (trialstep = 0.358E+00)
 search vector abs. value=  0.577E-04
 bond charge predicted
       N       E                     dE             d eps       ncg     rms          rms(c)
DAV:   1    -0.707251246356E+03   -0.43517E-04   -0.10142E-03  2272   0.725E-02    0.745E-03
RMM:   2    -0.707251248538E+03   -0.21813E-05   -0.26845E-05  2240   0.111E-02    0.441E-03
RMM:   3    -0.707251248191E+03    0.34626E-06   -0.10189E-06  2179   0.270E-03    0.278E-03
RMM:   4    -0.707251248059E+03    0.13201E-06   -0.46003E-07  1820   0.130E-03    0.637E-04
RMM:   5    -0.707251248028E+03    0.31010E-07   -0.37148E-08  1324   0.520E-04
 154 F= -.71551495E+03 E0= -.71551495E+03  d E =-.652350E-05
 trial-energy change:   -0.000007  1 .order   -0.000007   -0.000012   -0.000003
 step:   0.4632(harm=  0.4632)  dis= 0.00012  next Energy=  -715.514955 (dE=-0.759E-05)
 bond charge predicted
       N       E                     dE             d eps       ncg     rms          rms(c)
DAV:   1    -0.707251259730E+03   -0.11671E-04   -0.88433E-05  2480   0.214E-02    0.219E-03
RMM:   2    -0.707251259938E+03   -0.20793E-06   -0.24141E-06  2240   0.331E-03    0.135E-03
RMM:   3    -0.707251259897E+03    0.41047E-07   -0.74041E-08  1321   0.806E-04
 155 F= -.71551495E+03 E0= -.71551495E+03  d E =-.698318E-05
 curvature:  -0.41 expect dE=-0.807E-05 dE for cont linesearch -0.471E-09
 trial: gam= 0.59654 g(F)=  0.193E-04 g(S)=  0.509E-06 ort = 0.258E-06 (trialstep = 0.379E+00)
 search vector abs. value=  0.406E-04
 bond charge predicted
       N       E                     dE             d eps       ncg     rms          rms(c)
DAV:   1    -0.707251354974E+03   -0.95036E-04   -0.63440E-04  2272   0.578E-02    0.641E-03
RMM:   2    -0.707251356091E+03   -0.11170E-05   -0.15293E-05  2240   0.836E-03    0.344E-03
RMM:   3    -0.707251355900E+03    0.19171E-06   -0.56987E-07  1884   0.211E-03    0.210E-03
RMM:   4    -0.707251355832E+03    0.67757E-07   -0.19770E-07  1336   0.102E-03
 156 F= -.71551496E+03 E0= -.71551496E+03  d E =-.695761E-05
 trial-energy change:   -0.000007  1 .order   -0.000006   -0.000008   -0.000004
 step:   0.5086(harm=  0.8458)  dis= 0.00014  next Energy=  -715.514962 (dE=-0.772E-05)
 bond charge predicted
       N       E                     dE             d eps       ncg     rms          rms(c)
DAV:   1    -0.707251387490E+03   -0.31591E-04   -0.74026E-05  2400   0.196E-02    0.223E-03
RMM:   2    -0.707251387627E+03   -0.13714E-06   -0.18341E-06  2240   0.287E-03    0.125E-03
RMM:   3    -0.707251387598E+03    0.29468E-07   -0.56531E-08  1289   0.714E-04
 157 F= -.71551496E+03 E0= -.71551496E+03  d E =-.830549E-05
 curvature:  -0.41 expect dE=-0.501E-05 dE for cont linesearch -0.589E-06
 trial: gam= 0.22856 g(F)=  0.118E-04 g(S)=  0.367E-06 ort = 0.762E-05 (trialstep = 0.405E+00)
 search vector abs. value=  0.178E-04
 bond charge predicted
       N       E                     dE             d eps       ncg     rms          rms(c)
DAV:   1    -0.707251417014E+03   -0.29387E-04   -0.38540E-04  2272   0.445E-02    0.477E-03
RMM:   2    -0.707251417760E+03   -0.74635E-06   -0.10241E-05  2240   0.670E-03    0.281E-03
RMM:   3    -0.707251417625E+03    0.13543E-06   -0.37093E-07  1526   0.168E-03    0.169E-03
RMM:   4    -0.707251417579E+03    0.45817E-07   -0.24429E-07  1409   0.114E-03
 158 F= -.71551497E+03 E0= -.71551497E+03  d E =-.388459E-05
 trial-energy change:   -0.000004  1 .order   -0.000004   -0.000006   -0.000002
 step:   0.7234(harm=  0.7234)  dis= 0.00012  next Energy=  -715.514968 (dE=-0.503E-05)
 bond charge predicted
       N       E                     dE             d eps       ncg     rms          rms(c)
DAV:   1    -0.707251438702E+03   -0.21077E-04   -0.23772E-04  2320   0.348E-02    0.372E-03
RMM:   2    -0.707251439189E+03   -0.48755E-06   -0.63977E-06  2240   0.528E-03    0.222E-03
RMM:   3    -0.707251439111E+03    0.77809E-07   -0.22075E-07  1403   0.135E-03
 159 F= -.71551497E+03 E0= -.71551497E+03  d E =-.485814E-05
 curvature:  -0.46 expect dE=-0.787E-05 dE for cont linesearch -0.213E-08
 trial: gam= 1.60699 g(F)=  0.169E-04 g(S)=  0.115E-06 ort =-0.286E-06 (trialstep = 0.134E+00)
 search vector abs. value=  0.620E-04
 bond charge predicted
       N       E                     dE             d eps       ncg     rms          rms(c)
DAV:   1    -0.707251435153E+03    0.40360E-05   -0.12652E-04  2288   0.256E-02    0.254E-03
RMM:   2    -0.707251435364E+03   -0.21068E-06   -0.26937E-06  2241   0.352E-03    0.146E-03
RMM:   3    -0.707251435333E+03    0.30290E-07   -0.81702E-08  1319   0.866E-04
 160 F= -.71551497E+03 E0= -.71551497E+03  d E =-.205938E-05
 ZBRENT: can't locate minimum, use default step
 trial-energy change:   -0.000002  1 .order   -0.000002   -0.000002   -0.000002
 step:   0.5372(harm=  0.8255)  dis= 0.00018  next Energy=  -715.514974 (dE=-0.683E-05)
 bond charge predicted
       N       E                     dE             d eps       ncg     rms          rms(c)
DAV:   1    -0.707251419465E+03    0.15899E-04   -0.11500E-03  2256   0.767E-02    0.718E-03
RMM:   2    -0.707251421437E+03   -0.19719E-05   -0.24696E-05  2241   0.105E-02    0.419E-03
RMM:   3    -0.707251421165E+03    0.27206E-06   -0.87664E-07  2181   0.254E-03    0.261E-03
RMM:   4    -0.707251421110E+03    0.54359E-07   -0.35032E-07  1590   0.134E-03
 161 F= -.71551497E+03 E0= -.71551497E+03  d E =-.540576E-05
 curvature:  -1.28 expect dE=-0.222E-04 dE for cont linesearch -0.857E-06
 trial: gam= 0.36353 g(F)=  0.168E-04 g(S)=  0.556E-06 ort = 0.645E-05 (trialstep = 0.215E+00)
 search vector abs. value=  0.302E-04
 bond charge predicted
       N       E                     dE             d eps       ncg     rms          rms(c)
DAV:   1    -0.707251440374E+03   -0.19209E-04   -0.19310E-04  2272   0.315E-02    0.337E-03
RMM:   2    -0.707251440819E+03   -0.44564E-06   -0.58261E-06  2242   0.495E-03    0.192E-03
RMM:   3    -0.707251440724E+03    0.95570E-07   -0.17686E-07  1378   0.119E-03
 162 F= -.71551498E+03 E0= -.71551498E+03  d E =-.414654E-05
 trial-energy change:   -0.000004  1 .order   -0.000003   -0.000004   -0.000003
 step:   0.2874(harm=  0.5472)  dis= 0.00005  next Energy=  -715.514977 (dE=-0.461E-05)
 bond charge predicted
       N       E                     dE             d eps       ncg     rms          rms(c)
DAV:   1    -0.707251446607E+03   -0.57872E-05   -0.20581E-05  2432   0.104E-02    0.122E-03
RMM:   2    -0.707251446631E+03   -0.24345E-07   -0.51511E-07  1737   0.157E-03    0.657E-04
RMM:   3    -0.707251446619E+03    0.11569E-07   -0.30778E-08  1243   0.511E-04
 163 F= -.71551498E+03 E0= -.71551498E+03  d E =-.483882E-05
 curvature:  -0.16 expect dE=-0.935E-06 dE for cont linesearch -0.417E-06
 trial: gam=-0.03220 g(F)=  0.559E-05 g(S)=  0.138E-06 ort = 0.879E-05 (trialstep = 0.229E+00)
 search vector abs. value=  0.519E-05
 bond charge predicted
       N       E                     dE             d eps       ncg     rms          rms(c)
DAV:   1    -0.707251440092E+03    0.65387E-05   -0.37852E-05  2288   0.142E-02    0.151E-03
RMM:   2    -0.707251440171E+03   -0.79246E-07   -0.95071E-07  2185   0.207E-03    0.811E-04
RMM:   3    -0.707251440159E+03    0.12817E-07   -0.33074E-08  1259   0.567E-04
 164 F= -.71551498E+03 E0= -.71551498E+03  d E =-.102688E-05
 ZBRENT: can't locate minimum, use default step
 trial-energy change:   -0.000001  1 .order   -0.000001   -0.000001   -0.000001
 step:   0.9176(harm=  1.1072)  dis= 0.00009  next Energy=  -715.514981 (dE=-0.301E-05)
 bond charge predicted
       N       E                     dE             d eps       ncg     rms          rms(c)
DAV:   1    -0.707251418702E+03    0.21469E-04   -0.33968E-04  2272   0.426E-02    0.456E-03
RMM:   2    -0.707251419332E+03   -0.62986E-06   -0.86071E-06  2241   0.626E-03    0.241E-03
RMM:   3    -0.707251419236E+03    0.95664E-07   -0.30095E-07  1457   0.165E-03
 165 F= -.71551498E+03 E0= -.71551498E+03  d E =-.254484E-05
 curvature:  -0.50 expect dE=-0.375E-05 dE for cont linesearch -0.716E-07
 trial: gam= 1.10643 g(F)=  0.715E-05 g(S)=  0.303E-06 ort = 0.859E-06 (trialstep = 0.121E+00)
 search vector abs. value=  0.157E-04
 bond charge predicted
       N       E                     dE             d eps       ncg     rms          rms(c)
DAV:   1    -0.707251425187E+03   -0.58553E-05   -0.30706E-05  2432   0.127E-02    0.147E-03
RMM:   2    -0.707251425198E+03   -0.11081E-07   -0.75025E-07  2074   0.185E-03    0.827E-04
RMM:   3    -0.707251425184E+03    0.14319E-07   -0.31675E-08  1258   0.526E-04
 166 F= -.71551498E+03 E0= -.71551498E+03  d E =-.957855E-06
 ZBRENT: can't locate minimum, use default step
 trial-energy change:   -0.000001  1 .order   -0.000001   -0.000001   -0.000001
 step:   0.4851(harm=  0.7193)  dis= 0.00006  next Energy=  -715.514983 (dE=-0.302E-05)
 bond charge predicted
       N       E                     dE             d eps       ncg     rms          rms(c)
DAV:   1    -0.707251441673E+03   -0.16475E-04   -0.28170E-04  2272   0.382E-02    0.379E-03
RMM:   2    -0.707251442139E+03   -0.46587E-06   -0.71124E-06  2243   0.556E-03    0.219E-03
RMM:   3    -0.707251442031E+03    0.10792E-06   -0.21620E-07  1401   0.133E-03    0.140E-03
RMM:   4    -0.707251441996E+03    0.34954E-07   -0.14529E-07  1312   0.937E-04
 167 F= -.71551498E+03 E0= -.71551498E+03  d E =-.276904E-05
 curvature:  -0.57 expect dE=-0.371E-05 dE for cont linesearch -0.312E-06
 trial: gam= 0.00000 g(F)=  0.635E-05 g(S)=  0.162E-06 ort = 0.293E-05 (trialstep = 0.194E+00)
 search vector abs. value=  0.652E-05
 bond charge predicted
       N       E                     dE             d eps       ncg     rms          rms(c)
DAV:   1    -0.707251448698E+03   -0.66663E-05   -0.36993E-05  2288   0.140E-02    0.150E-03
RMM:   2    -0.707251448810E+03   -0.11241E-06   -0.10585E-06  2191   0.214E-03    0.887E-04
RMM:   3    -0.707251448796E+03    0.13970E-07   -0.35913E-08  1219   0.524E-04
 168 F= -.71551498E+03 E0= -.71551498E+03  d E =-.107966E-05
 trial-energy change:   -0.000001  1 .order   -0.000001   -0.000001   -0.000001
 step:   0.5824(harm=  0.5824)  dis= 0.00005  next Energy=  -715.514985 (dE=-0.190E-05)
 bond charge predicted
       N       E                     dE             d eps       ncg     rms          rms(c)
DAV:   1    -0.707251459975E+03   -0.11165E-04   -0.14574E-04  2272   0.276E-02    0.291E-03
RMM:   2    -0.707251460345E+03   -0.36945E-06   -0.40451E-06  2242   0.417E-03    0.175E-03
RMM:   3    -0.707251460289E+03    0.56047E-07   -0.12808E-07  1353   0.988E-04
 169 F= -.71551498E+03 E0= -.71551498E+03  d E =-.112634E-05
 curvature:  -0.29 expect dE=-0.277E-05 dE for cont linesearch -0.312E-08
 trial: gam= 1.49874 g(F)=  0.949E-05 g(S)=  0.129E-07 ort =-0.264E-06 (trialstep = 0.758E-01)
 search vector abs. value=  0.233E-04
 bond charge predicted
       N       E                     dE             d eps       ncg     rms          rms(c)
DAV:   1    -0.707251456231E+03    0.41136E-05   -0.18357E-05  2400   0.984E-03    0.985E-04
RMM:   2    -0.707251456249E+03   -0.17717E-07   -0.39491E-07  1578   0.137E-03    0.543E-04
RMM:   3    -0.707251456243E+03    0.60609E-08   -0.27767E-08  1229   0.470E-04
 170 F= -.71551498E+03 E0= -.71551498E+03  d E =-.564541E-06
 ZBRENT: can't locate minimum, use default step
 trial-energy change:   -0.000001  1 .order   -0.000001   -0.000001   -0.000001
 step:   0.3034(harm=  0.7934)  dis= 0.00005  next Energy=  -715.514988 (dE=-0.361E-05)
 bond charge predicted
       N       E                     dE             d eps       ncg     rms          rms(c)
DAV:   1    -0.707251443799E+03    0.12450E-04   -0.16907E-04  2272   0.296E-02    0.270E-03
RMM:   2    -0.707251444144E+03   -0.34462E-06   -0.41540E-06  2248   0.419E-03    0.161E-03
RMM:   3    -0.707251444090E+03    0.53355E-07   -0.10977E-07  1318   0.966E-04
 171 F= -.71551499E+03 E0= -.71551499E+03  d E =-.225283E-05
 curvature:  -0.54 expect dE=-0.374E-05 dE for cont linesearch -0.890E-06
 trial: gam=-0.02857 g(F)=  0.683E-05 g(S)=  0.609E-07 ort = 0.619E-05 (trialstep = 0.121E+00)
 search vector abs. value=  0.656E-05
 bond charge predicted
       N       E                     dE             d eps       ncg     rms          rms(c)
DAV:   1    -0.707251434459E+03    0.96846E-05   -0.14794E-05  2320   0.868E-03    0.103E-03
RMM:   2    -0.707251434464E+03   -0.49258E-08   -0.42180E-07  1552   0.139E-03    0.614E-04
RMM:   3    -0.707251434460E+03    0.42601E-08   -0.32196E-08  1216   0.485E-04
 172 F= -.71551499E+03 E0= -.71551499E+03  d E =-.629991E-06
 trial-energy change:   -0.000001  1 .order   -0.000001   -0.000001   -0.000001
 step:   0.3968(harm=  0.3968)  dis= 0.00003  next Energy=  -715.514988 (dE=-0.133E-05)
 bond charge predicted
       N       E                     dE             d eps       ncg     rms          rms(c)
DAV:   1    -0.707251411593E+03    0.22871E-04   -0.76205E-05  2272   0.197E-02    0.232E-03
RMM:   2    -0.707251411697E+03   -0.10436E-06   -0.22711E-06  2240   0.310E-03    0.138E-03
RMM:   3    -0.707251411665E+03    0.31774E-07   -0.82541E-08  1309   0.765E-04
 173 F= -.71551499E+03 E0= -.71551499E+03  d E =-.112460E-05
 curvature:  -0.19 expect dE=-0.114E-05 dE for cont linesearch -0.153E-10
 trial: gam= 0.83499 g(F)=  0.576E-05 g(S)=  0.125E-06 ort =-0.227E-07 (trialstep = 0.111E+00)
 search vector abs. value=  0.104E-04
 bond charge predicted
       N       E                     dE             d eps       ncg     rms          rms(c)
DAV:   1    -0.707251402328E+03    0.93697E-05   -0.16889E-05  2352   0.959E-03    0.112E-03
RMM:   2    -0.707251402365E+03   -0.37107E-07   -0.41036E-07  1560   0.141E-03    0.550E-04
RMM:   3    -0.707251402374E+03   -0.89567E-08   -0.30511E-08  1216   0.512E-04
 174 F= -.71551499E+03 E0= -.71551499E+03  d E =-.574890E-06
 ZBRENT: can't locate minimum, use default step
 trial-energy change:   -0.000001  1 .order   -0.000001   -0.000001   -0.000001
 step:   0.4440(harm=  1.5347)  dis= 0.00004  next Energy=  -715.514992 (dE=-0.450E-05)
 bond charge predicted
       N       E                     dE             d eps       ncg     rms          rms(c)
DAV:   1    -0.707251373953E+03    0.28412E-04   -0.15471E-04  2272   0.287E-02    0.327E-03
RMM:   2    -0.707251374228E+03   -0.27519E-06   -0.41006E-06  2242   0.420E-03    0.166E-03
RMM:   3    -0.707251374183E+03    0.45566E-07   -0.13594E-07  1308   0.112E-03
 175 F= -.71551499E+03 E0= -.71551499E+03  d E =-.197452E-05
 curvature:  -0.56 expect dE=-0.272E-05 dE for cont linesearch -0.102E-05
 ZBRENT: increasing intervall
 opt :   1.1100  next Energy=  -715.514992 (dE=-0.414E-05)
 bond charge predicted
       N       E                     dE             d eps       ncg     rms          rms(c)
DAV:   1    -0.707251315864E+03    0.58364E-04   -0.61651E-04  2240   0.578E-02    0.671E-03
RMM:   2    -0.707251316900E+03   -0.10364E-05   -0.16537E-05  2241   0.858E-03    0.332E-03
RMM:   3    -0.707251316734E+03    0.16650E-06   -0.62937E-07  1952   0.225E-03    0.199E-03
RMM:   4    -0.707251316775E+03   -0.41102E-07   -0.20901E-07  1348   0.116E-03
 176 F= -.71551499E+03 E0= -.71551499E+03  d E =-.368760E-05
 curvature:  -1.19 expect dE=-0.112E-04 dE for cont linesearch -0.716E-06
 trial: gam= 0.00000 g(F)=  0.913E-05 g(S)=  0.210E-06 ort = 0.250E-05 (trialstep = 0.311E+00)
 search vector abs. value=  0.934E-05
 bond charge predicted
       N       E                     dE             d eps       ncg     rms          rms(c)
DAV:   1    -0.707251283180E+03    0.33554E-04   -0.15486E-04  2272   0.287E-02    0.308E-03
RMM:   2    -0.707251283595E+03   -0.41557E-06   -0.51304E-06  2241   0.467E-03    0.187E-03
RMM:   3    -0.707251283526E+03    0.69809E-07   -0.15101E-07  1344   0.111E-03
 177 F= -.71551499E+03 E0= -.71551499E+03  d E =-.197021E-05
 trial-energy change:   -0.000002  1 .order   -0.000002   -0.000003   -0.000001
 step:   0.5070(harm=  0.5070)  dis= 0.00005  next Energy=  -715.514993 (dE=-0.237E-05)
 bond charge predicted
       N       E                     dE             d eps       ncg     rms          rms(c)
DAV:   1    -0.707251261423E+03    0.22173E-04   -0.59295E-05  2416   0.178E-02    0.204E-03
RMM:   2    -0.707251261566E+03   -0.14315E-06   -0.18355E-06  2233   0.279E-03    0.123E-03
RMM:   3    -0.707251261544E+03    0.22068E-07   -0.56162E-08  1278   0.698E-04
 178 F= -.71551499E+03 E0= -.71551499E+03  d E =-.221478E-05
 curvature:  -0.25 expect dE=-0.197E-05 dE for cont linesearch -0.526E-08
 trial: gam= 0.88086 g(F)=  0.769E-05 g(S)=  0.101E-06 ort =-0.440E-06 (trialstep = 0.229E+00)
 search vector abs. value=  0.143E-04
 bond charge predicted
       N       E                     dE             d eps       ncg     rms          rms(c)
DAV:   1    -0.707251268389E+03   -0.68229E-05   -0.10902E-04  2272   0.241E-02    0.234E-03
RMM:   2    -0.707251268601E+03   -0.21179E-06   -0.29458E-06  2248   0.357E-03    0.139E-03
RMM:   3    -0.707251268558E+03    0.42412E-07   -0.78574E-08  1277   0.867E-04
 179 F= -.71551499E+03 E0= -.71551499E+03  d E =-.141077E-05
 trial-energy change:   -0.000001  1 .order   -0.000001   -0.000002   -0.000001
 step:   0.6827(harm=  0.6827)  dis= 0.00007  next Energy=  -715.514996 (dE=-0.253E-05)
 bond charge predicted
       N       E                     dE             d eps       ncg     rms          rms(c)
DAV:   1    -0.707251279103E+03   -0.10502E-04   -0.42560E-04  2240   0.475E-02    0.464E-03
RMM:   2    -0.707251279998E+03   -0.89464E-06   -0.11518E-05  2248   0.703E-03    0.275E-03
RMM:   3    -0.707251279834E+03    0.16342E-06   -0.32655E-07  1488   0.169E-03    0.175E-03
RMM:   4    -0.707251279794E+03    0.40614E-07   -0.22806E-07  1374   0.119E-03
 180 F= -.71551499E+03 E0= -.71551499E+03  d E =-.156482E-05
 curvature:  -0.66 expect dE=-0.720E-05 dE for cont linesearch -0.795E-10
 trial: gam= 1.28617 g(F)=  0.108E-04 g(S)=  0.170E-06 ort = 0.415E-07 (trialstep = 0.132E+00)
 search vector abs. value=  0.347E-04
 bond charge predicted
       N       E                     dE             d eps       ncg     rms          rms(c)
DAV:   1    -0.707251281923E+03   -0.20885E-05   -0.86458E-05  2320   0.212E-02    0.202E-03
RMM:   2    -0.707251282095E+03   -0.17216E-06   -0.23009E-06  2245   0.309E-03    0.111E-03
RMM:   3    -0.707251282061E+03    0.33870E-07   -0.58849E-08  1269   0.726E-04
 181 F= -.71551500E+03 E0= -.71551500E+03  d E =-.136444E-05
 ZBRENT: can't locate minimum, use default step
 trial-energy change:   -0.000001  1 .order   -0.000001   -0.000001   -0.000001
 step:   0.5270(harm=  1.0799)  dis= 0.00009  next Energy=  -715.515001 (dE=-0.594E-05)
 bond charge predicted
       N       E                     dE             d eps       ncg     rms          rms(c)
DAV:   1    -0.707251286627E+03   -0.45323E-05   -0.77933E-04  2240   0.636E-02    0.591E-03
RMM:   2    -0.707251288258E+03   -0.16305E-05   -0.19920E-05  2248   0.910E-03    0.333E-03
RMM:   3    -0.707251287996E+03    0.26183E-06   -0.57782E-07  1808   0.207E-03    0.217E-03
RMM:   4    -0.707251287928E+03    0.67674E-07   -0.25462E-07  1386   0.117E-03
 182 F= -.71551500E+03 E0= -.71551500E+03  d E =-.452517E-05
 curvature:  -1.12 expect dE=-0.120E-04 dE for cont linesearch -0.163E-05
 ZBRENT: increasing intervall
 opt :   1.3174  next Energy=  -715.515003 (dE=-0.812E-05)
 bond charge predicted
       N       E                     dE             d eps       ncg     rms          rms(c)
DAV:   1    -0.707251290884E+03   -0.28884E-05   -0.31277E-03  2240   0.127E-01    0.118E-02
RMM:   2    -0.707251297789E+03   -0.69046E-05   -0.81502E-05  2249   0.184E-02    0.662E-03
RMM:   3    -0.707251296790E+03    0.99920E-06   -0.24772E-06  2278   0.411E-03    0.434E-03
RMM:   4    -0.707251296624E+03    0.16544E-06   -0.95060E-07  2126   0.202E-03    0.101E-03
RMM:   5    -0.707251296615E+03    0.89858E-08   -0.57223E-08  1327   0.636E-04
 183 F= -.71551500E+03 E0= -.71551500E+03  d E =-.781095E-05
 curvature:  -2.47 expect dE=-0.968E-04 dE for cont linesearch -0.465E-07
 trial: gam= 3.50584 g(F)=  0.370E-04 g(S)=  0.223E-05 ort = 0.808E-06 (trialstep = 0.272E-01)
 search vector abs. value=  0.471E-03
 bond charge predicted
       N       E                     dE             d eps       ncg     rms          rms(c)
DAV:   1    -0.707251289647E+03    0.69776E-05   -0.49106E-05  2432   0.159E-02    0.148E-03
RMM:   2    -0.707251289765E+03   -0.11853E-06   -0.13192E-06  2198   0.233E-03    0.863E-04
RMM:   3    -0.707251289746E+03    0.19358E-07   -0.34701E-08  1261   0.556E-04
 184 F= -.71551500E+03 E0= -.71551500E+03  d E =-.109934E-05
 ZBRENT: can't locate minimum, use default step
 trial-energy change:   -0.000001  1 .order   -0.000001   -0.000001   -0.000001
 step:   0.1086(harm=  1.4659)  dis= 0.00007  next Energy=  -715.515033 (dE=-0.308E-04)
 bond charge predicted
       N       E                     dE             d eps       ncg     rms          rms(c)
DAV:   1    -0.707251268198E+03    0.21568E-04   -0.43756E-04  2240   0.475E-02    0.443E-03
RMM:   2    -0.707251269155E+03   -0.95718E-06   -0.11159E-05  2249   0.675E-03    0.248E-03
RMM:   3    -0.707251269009E+03    0.14560E-06   -0.29848E-07  1447   0.157E-03    0.161E-03
RMM:   4    -0.707251269009E+03   -0.72760E-10   -0.17390E-07  1320   0.105E-03
 185 F= -.71551501E+03 E0= -.71551501E+03  d E =-.426713E-05
 curvature:  -0.90 expect dE=-0.298E-04 dE for cont linesearch -0.309E-05
 ZBRENT: increasing intervall
 opt :   0.2715  next Energy=  -715.515013 (dE=-0.106E-04)
 bond charge predicted
       N       E                     dE             d eps       ncg     rms          rms(c)
DAV:   1    -0.707251222741E+03    0.46269E-04   -0.17552E-03  2240   0.950E-02    0.882E-03
RMM:   2    -0.707251226698E+03   -0.39574E-05   -0.45716E-05  2249   0.136E-02    0.494E-03
RMM:   3    -0.707251226139E+03    0.55896E-06   -0.13693E-06  2227   0.307E-03    0.323E-03
RMM:   4    -0.707251226099E+03    0.40498E-07   -0.55005E-07  1914   0.154E-03
 186 F= -.71551501E+03 E0= -.71551501E+03  d E =-.917401E-05
 curvature:  -1.86 expect dE=-0.474E-04 dE for cont linesearch -0.474E-05
 ZBRENT: increasing intervall
 opt :   0.5973  next Energy=  -715.515021 (dE=-0.187E-04)
 bond charge predicted
       N       E                     dE             d eps       ncg     rms          rms(c)
DAV:   1    -0.707251125832E+03    0.10031E-03   -0.70288E-03  2240   0.190E-01    0.176E-02
RMM:   2    -0.707251141660E+03   -0.15828E-04   -0.18288E-04  2249   0.272E-02    0.994E-03
RMM:   3    -0.707251139437E+03    0.22234E-05   -0.54730E-06  2307   0.608E-03    0.649E-03
RMM:   4    -0.707251139291E+03    0.14574E-06   -0.22755E-06  2218   0.302E-03    0.158E-03
RMM:   5    -0.707251139245E+03    0.45853E-07   -0.14081E-07  1368   0.948E-04
 187 F= -.71551502E+03 E0= -.71551502E+03  d E =-.179010E-04
 curvature:  -3.72 expect dE=-0.110E-03 dE for cont linesearch -0.394E-05
 ZBRENT: increasing intervall
 opt :   1.2490  next Energy=  -715.515027 (dE=-0.244E-04)
 bond charge predicted
       N       E                     dE             d eps       ncg     rms          rms(c)
DAV:   1    -0.707250903259E+03    0.23603E-03   -0.28141E-02  2240   0.381E-01    0.349E-02
RMM:   2    -0.707250966316E+03   -0.63057E-04   -0.72759E-04  2249   0.543E-02    0.198E-02
RMM:   3    -0.707250957464E+03    0.88515E-05   -0.21675E-05  2300   0.121E-02    0.129E-02
RMM:   4    -0.707250956909E+03    0.55545E-06   -0.90298E-06  2281   0.606E-03    0.311E-03
RMM:   5    -0.707250956754E+03    0.15513E-06   -0.57968E-07  1812   0.176E-03    0.112E-03
RMM:   6    -0.707250956743E+03    0.10878E-07   -0.14155E-07  1374   0.825E-04
 188 F= -.71551503E+03 E0= -.71551503E+03  d E =-.267082E-04
 curvature:  -6.14 expect dE=-0.676E-03 dE for cont linesearch -0.524E-08
 trial: gam= 3.14366 g(F)=  0.110E-03 g(S)=  0.645E-06 ort = 0.634E-06 (trialstep = 0.268E-01)
 search vector abs. value=  0.477E-02
 bond charge predicted
       N       E                     dE             d eps       ncg     rms          rms(c)
DAV:   1    -0.707250939849E+03    0.16905E-04   -0.48651E-04  2384   0.501E-02    0.458E-03
RMM:   2    -0.707250940915E+03   -0.10656E-05   -0.12542E-05  2250   0.712E-03    0.254E-03
RMM:   3    -0.707250940755E+03    0.15957E-06   -0.32877E-07  1476   0.160E-03    0.165E-03
RMM:   4    -0.707250940763E+03   -0.82146E-08   -0.18009E-07  1336   0.994E-04
 189 F= -.71551503E+03 E0= -.71551503E+03  d E =-.301050E-05
 ZBRENT: can't locate minimum, use default step
 trial-energy change:   -0.000003  1 .order   -0.000003   -0.000003   -0.000003
 step:   0.1073(harm=  0.1073)  dis= 0.00023  next Energy=  -715.515043 (dE=-0.132E-04)
 bond charge predicted
       N       E                     dE             d eps       ncg     rms          rms(c)
DAV:   1    -0.707250884423E+03    0.56332E-04   -0.43574E-03  2240   0.150E-01    0.138E-02
RMM:   2    -0.707250894080E+03   -0.96577E-05   -0.11236E-04  2250   0.213E-02    0.765E-03
RMM:   3    -0.707250892703E+03    0.13772E-05   -0.32891E-06  2285   0.465E-03    0.499E-03
RMM:   4    -0.707250892654E+03    0.49025E-07   -0.13372E-06  2181   0.229E-03    0.118E-03
RMM:   5    -0.707250892640E+03    0.13693E-07   -0.88310E-08  1331   0.757E-04
 190 F= -.71551504E+03 E0= -.71551504E+03  d E =-.118067E-04
 curvature:  -3.48 expect dE=-0.330E-03 dE for cont linesearch -0.808E-05
 ZBRENT: increasing intervall
 opt :   0.2682  next Energy=  -715.515056 (dE=-0.267E-04)
 bond charge predicted
       N       E                     dE             d eps       ncg     rms          rms(c)
DAV:   1    -0.707250760776E+03    0.13188E-03   -0.17447E-02  2240   0.299E-01    0.275E-02
RMM:   2    -0.707250799471E+03   -0.38695E-04   -0.44771E-04  2250   0.425E-02    0.153E-02
RMM:   3    -0.707250793939E+03    0.55316E-05   -0.13060E-05  2299   0.924E-03    0.996E-03
RMM:   4    -0.707250793701E+03    0.23819E-06   -0.53718E-06  2273   0.455E-03    0.235E-03
RMM:   5    -0.707250793633E+03    0.68390E-07   -0.36901E-07  1566   0.142E-03
 191 F= -.71551506E+03 E0= -.71551506E+03  d E =-.268865E-04
 curvature:  -6.44 expect dE=-0.505E-03 dE for cont linesearch -0.107E-04
 ZBRENT: increasing intervall
 opt :   0.5900  next Energy=  -715.515080 (dE=-0.504E-04)
 bond charge predicted
       N       E                     dE             d eps       ncg     rms          rms(c)
DAV:   1    -0.707250458992E+03    0.33471E-03   -0.69784E-02  2240   0.599E-01    0.550E-02
RMM:   2    -0.707250613858E+03   -0.15487E-03   -0.17904E-03  2250   0.849E-02    0.306E-02
RMM:   3    -0.707250591824E+03    0.22034E-04   -0.52247E-05  2306   0.185E-02    0.199E-02
RMM:   4    -0.707250590822E+03    0.10019E-05   -0.21353E-05  2291   0.905E-03    0.469E-03
RMM:   5    -0.707250590529E+03    0.29284E-06   -0.15981E-06  2228   0.277E-03    0.166E-03
RMM:   6    -0.707250590553E+03   -0.23516E-07   -0.19831E-07  1401   0.969E-04
 192 F= -.71551508E+03 E0= -.71551508E+03  d E =-.518111E-04
 curvature: -14.12 expect dE=-0.102E-02 dE for cont linesearch -0.102E-04
 ZBRENT: increasing intervall
 opt :   1.2335  next Energy=  -715.515099 (dE=-0.699E-04)
 bond charge predicted
       N       E                     dE             d eps       ncg     rms          rms(c)
DAV:   1    -0.707249631026E+03    0.95950E-03   -0.27911E-01  2240   0.120E+00    0.110E-01
RMM:   2    -0.707250248053E+03   -0.61703E-03   -0.71499E-03  2250   0.170E-01    0.610E-02
RMM:   3    -0.707250159989E+03    0.88064E-04   -0.20841E-04  2308   0.369E-02    0.396E-02
RMM:   4    -0.707250155626E+03    0.43628E-05   -0.84795E-05  2289   0.180E-02    0.928E-03
RMM:   5    -0.707250154437E+03    0.11891E-05   -0.62581E-06  2309   0.547E-03    0.333E-03
RMM:   6    -0.707250154487E+03   -0.49917E-07   -0.90861E-07  2070   0.185E-03
 193 F= -.71551510E+03 E0= -.71551510E+03  d E =-.723027E-04
 curvature: -25.10 expect dE=-0.408E-02 dE for cont linesearch -0.948E-08
 trial: gam= 1.38313 g(F)=  0.162E-03 g(S)=  0.381E-06 ort =-0.134E-05 (trialstep = 0.138E+00)
 search vector abs. value=  0.928E-02
 bond charge predicted
       N       E                     dE             d eps       ncg     rms          rms(c)
DAV:   1    -0.707249950092E+03    0.20435E-03   -0.25236E-02  2240   0.360E-01    0.334E-02
RMM:   2    -0.707250005757E+03   -0.55665E-04   -0.65091E-04  2250   0.512E-02    0.183E-02
RMM:   3    -0.707249997653E+03    0.81047E-05   -0.18865E-05  2320   0.111E-02    0.119E-02
RMM:   4    -0.707249997338E+03    0.31425E-06   -0.71845E-06  2272   0.520E-03    0.265E-03
RMM:   5    -0.707249997308E+03    0.30916E-07   -0.45125E-07  1655   0.158E-03
 194 F= -.71551512E+03 E0= -.71551512E+03  d E =-.193290E-04
 ZBRENT: can't locate minimum, use default step
 trial-energy change:   -0.000019  1 .order   -0.000020   -0.000022   -0.000018
 step:   0.5511(harm=  0.6683)  dis= 0.00163  next Energy=  -715.515155 (dE=-0.537E-04)
 bond charge predicted
       N       E                     dE             d eps       ncg     rms          rms(c)
DAV:   1    -0.707249071971E+03    0.92537E-03   -0.22689E-01  2240   0.108E+00    0.100E-01
RMM:   2    -0.707249574991E+03   -0.50302E-03   -0.58551E-03  2250   0.154E-01    0.553E-02
RMM:   3    -0.707249500921E+03    0.74070E-04   -0.16809E-04  2309   0.329E-02    0.358E-02
RMM:   4    -0.707249497196E+03    0.37249E-05   -0.66289E-05  2287   0.158E-02    0.822E-03
RMM:   5    -0.707249496569E+03    0.62709E-06   -0.47710E-06  2293   0.486E-03    0.298E-03
RMM:   6    -0.707249496660E+03   -0.90993E-07   -0.66635E-07  1924   0.167E-03
 195 F= -.71551515E+03 E0= -.71551515E+03  d E =-.486985E-04
 curvature: -18.36 expect dE=-0.227E-02 dE for cont linesearch -0.241E-11
 trial: gam= 0.76658 g(F)=  0.116E-03 g(S)=  0.738E-05 ort = 0.349E-07 (trialstep = 0.220E+00)
 search vector abs. value=  0.558E-02
 bond charge predicted
       N       E                     dE             d eps       ncg     rms          rms(c)
DAV:   1    -0.707249150305E+03    0.34626E-03   -0.38842E-02  2240   0.448E-01    0.434E-02
RMM:   2    -0.707249235247E+03   -0.84942E-04   -0.10237E-03  2248   0.645E-02    0.232E-02
RMM:   3    -0.707249222528E+03    0.12719E-04   -0.30866E-05  2309   0.147E-02    0.148E-02
RMM:   4    -0.707249221990E+03    0.53855E-06   -0.10797E-05  2274   0.683E-03    0.363E-03
RMM:   5    -0.707249221968E+03    0.21282E-07   -0.66709E-07  1972   0.197E-03
 196 F= -.71551517E+03 E0= -.71551517E+03  d E =-.204482E-04
 trial-energy change:   -0.000020  1 .order   -0.000021   -0.000027   -0.000015
 step:   0.4753(harm=  0.4753)  dis= 0.00107  next Energy=  -715.515180 (dE=-0.294E-04)
 bond charge predicted
       N       E                     dE             d eps       ncg     rms          rms(c)
DAV:   1    -0.707248789266E+03    0.43272E-03   -0.51901E-02  2240   0.518E-01    0.502E-02
RMM:   2    -0.707248903946E+03   -0.11468E-03   -0.13736E-03  2248   0.746E-02    0.271E-02
RMM:   3    -0.707248886713E+03    0.17233E-04   -0.41035E-05  2307   0.168E-02    0.172E-02
RMM:   4    -0.707248885972E+03    0.74161E-06   -0.14810E-05  2281   0.788E-03    0.424E-03
RMM:   5    -0.707248885918E+03    0.54035E-07   -0.95673E-07  2173   0.229E-03
 197 F= -.71551518E+03 E0= -.71551518E+03  d E =-.259456E-04
 curvature: -10.71 expect dE=-0.528E-03 dE for cont linesearch -0.258E-06
 trial: gam= 0.55957 g(F)=  0.487E-04 g(S)=  0.695E-06 ort =-0.116E-04 (trialstep = 0.271E+00)
 search vector abs. value=  0.178E-02
 bond charge predicted
       N       E                     dE             d eps       ncg     rms          rms(c)
DAV:   1    -0.707248560628E+03    0.32534E-03   -0.18861E-02  2240   0.313E-01    0.312E-02
RMM:   2    -0.707248601464E+03   -0.40836E-04   -0.50512E-04  2248   0.451E-02    0.167E-02
RMM:   3    -0.707248595119E+03    0.63450E-05   -0.15621E-05  2312   0.104E-02    0.105E-02
RMM:   4    -0.707248595000E+03    0.11863E-06   -0.54683E-06  2273   0.482E-03    0.272E-03
RMM:   5    -0.707248595013E+03   -0.12857E-07   -0.33315E-07  1528   0.143E-03
 198 F= -.71551518E+03 E0= -.71551518E+03  d E =-.842934E-05
 trial-energy change:   -0.000008  1 .order   -0.000009   -0.000012   -0.000007
 step:   0.6410(harm=  0.6410)  dis= 0.00081  next Energy=  -715.515190 (dE=-0.137E-04)
 bond charge predicted
       N       E                     dE             d eps       ncg     rms          rms(c)
DAV:   1    -0.707248127593E+03    0.46741E-03   -0.34949E-02  2240   0.426E-01    0.424E-02
RMM:   2    -0.707248202548E+03   -0.74954E-04   -0.93270E-04  2248   0.614E-02    0.226E-02
RMM:   3    -0.707248190734E+03    0.11813E-04   -0.28886E-05  2308   0.142E-02    0.142E-02
RMM:   4    -0.707248190332E+03    0.40238E-06   -0.10063E-05  2283   0.661E-03    0.372E-03
RMM:   5    -0.707248190336E+03   -0.40127E-08   -0.65714E-07  1979   0.193E-03
 199 F= -.71551519E+03 E0= -.71551519E+03  d E =-.114823E-04
 curvature: -13.33 expect dE=-0.791E-03 dE for cont linesearch -0.422E-08
 trial: gam= 0.94116 g(F)=  0.575E-04 g(S)=  0.188E-05 ort =-0.752E-06 (trialstep = 0.345E+00)
 search vector abs. value=  0.164E-02
 bond charge predicted
       N       E                     dE             d eps       ncg     rms          rms(c)
DAV:   1    -0.707247857143E+03    0.33319E-03   -0.28463E-02  2240   0.384E-01    0.374E-02
RMM:   2    -0.707247920795E+03   -0.63652E-04   -0.76545E-04  2249   0.553E-02    0.204E-02
RMM:   3    -0.707247910619E+03    0.10176E-04   -0.22586E-05  2312   0.122E-02    0.131E-02
RMM:   4    -0.707247910283E+03    0.33642E-06   -0.87702E-06  2283   0.577E-03    0.320E-03
RMM:   5    -0.707247910234E+03    0.48916E-07   -0.64913E-07  1926   0.183E-03
 200 F= -.71551520E+03 E0= -.71551520E+03  d E =-.128286E-04
 trial-energy change:   -0.000013  1 .order   -0.000014   -0.000020   -0.000008
 step:   0.5767(harm=  0.5767)  dis= 0.00072  next Energy=  -715.515205 (dE=-0.169E-04)
 bond charge predicted
       N       E                     dE             d eps       ncg     rms          rms(c)
DAV:   1    -0.707247693825E+03    0.21646E-03   -0.12776E-02  2240   0.257E-01    0.251E-02
RMM:   2    -0.707247722363E+03   -0.28538E-04   -0.34303E-04  2249   0.370E-02    0.137E-02
RMM:   3    -0.707247717834E+03    0.45290E-05   -0.10191E-05  2312   0.824E-03    0.877E-03
RMM:   4    -0.707247717739E+03    0.95250E-07   -0.39057E-06  2256   0.387E-03    0.213E-03
RMM:   5    -0.707247717728E+03    0.11147E-07   -0.26189E-07  1479   0.124E-03
 201 F= -.71551520E+03 E0= -.71551520E+03  d E =-.166174E-04
 curvature:  -8.05 expect dE=-0.410E-03 dE for cont linesearch -0.196E-07
 trial: gam= 0.85170 g(F)=  0.501E-04 g(S)=  0.838E-06 ort = 0.199E-05 (trialstep = 0.392E+00)
 search vector abs. value=  0.124E-02
 bond charge predicted
       N       E                     dE             d eps       ncg     rms          rms(c)
DAV:   1    -0.707247461899E+03    0.25584E-03   -0.28535E-02  2240   0.385E-01    0.361E-02
RMM:   2    -0.707247529517E+03   -0.67617E-04   -0.78074E-04  2249   0.557E-02    0.201E-02
RMM:   3    -0.707247518818E+03    0.10699E-04   -0.21959E-05  2314   0.120E-02    0.130E-02
RMM:   4    -0.707247518302E+03    0.51595E-06   -0.82903E-06  2274   0.566E-03    0.312E-03
RMM:   5    -0.707247518221E+03    0.80327E-07   -0.55211E-07  1793   0.175E-03
 202 F= -.71551522E+03 E0= -.71551522E+03  d E =-.136716E-04
 trial-energy change:   -0.000014  1 .order   -0.000015   -0.000021   -0.000009
 step:   0.6806(harm=  0.6806)  dis= 0.00078  next Energy=  -715.515222 (dE=-0.179E-04)
 bond charge predicted
       N       E                     dE             d eps       ncg     rms          rms(c)
DAV:   1    -0.707247332766E+03    0.18554E-03   -0.15549E-02  2240   0.284E-01    0.267E-02
RMM:   2    -0.707247369800E+03   -0.37034E-04   -0.42665E-04  2249   0.412E-02    0.149E-02
RMM:   3    -0.707247363980E+03    0.58200E-05   -0.12049E-05  2316   0.887E-03    0.965E-03
RMM:   4    -0.707247363718E+03    0.26197E-06   -0.45357E-06  2263   0.417E-03    0.231E-03
RMM:   5    -0.707247363676E+03    0.42375E-07   -0.29047E-07  1492   0.132E-03
 203 F= -.71551522E+03 E0= -.71551522E+03  d E =-.164731E-04
 curvature:  -8.02 expect dE=-0.438E-03 dE for cont linesearch -0.231E-09
 trial: gam= 1.17724 g(F)=  0.545E-04 g(S)=  0.175E-06 ort = 0.189E-06 (trialstep = 0.314E+00)
 search vector abs. value=  0.178E-02
 bond charge predicted
       N       E                     dE             d eps       ncg     rms          rms(c)
DAV:   1    -0.707247130545E+03    0.23317E-03   -0.26823E-02  2240   0.373E-01    0.344E-02
RMM:   2    -0.707247194026E+03   -0.63481E-04   -0.72947E-04  2249   0.538E-02    0.192E-02
RMM:   3    -0.707247184044E+03    0.99824E-05   -0.20157E-05  2310   0.114E-02    0.125E-02
RMM:   4    -0.707247183542E+03    0.50110E-06   -0.76816E-06  2281   0.549E-03    0.292E-03
RMM:   5    -0.707247183459E+03    0.83775E-07   -0.50313E-07  1691   0.166E-03
 204 F= -.71551524E+03 E0= -.71551524E+03  d E =-.144647E-04
 trial-energy change:   -0.000014  1 .order   -0.000014   -0.000017   -0.000011
 step:   0.6194(harm=  0.8511)  dis= 0.00087  next Energy=  -715.515241 (dE=-0.201E-04)
 bond charge predicted
       N       E                     dE             d eps       ncg     rms          rms(c)
DAV:   1    -0.707246951336E+03    0.23221E-03   -0.25319E-02  2240   0.363E-01    0.335E-02
RMM:   2    -0.707247011393E+03   -0.60057E-04   -0.68940E-04  2249   0.523E-02    0.187E-02
RMM:   3    -0.707247001989E+03    0.94044E-05   -0.19086E-05  2312   0.111E-02    0.122E-02
RMM:   4    -0.707247001532E+03    0.45689E-06   -0.72559E-06  2279   0.533E-03    0.285E-03
RMM:   5    -0.707247001452E+03    0.79868E-07   -0.47885E-07  1656   0.162E-03
 205 F= -.71551524E+03 E0= -.71551524E+03  d E =-.217154E-04
 curvature: -11.21 expect dE=-0.600E-03 dE for cont linesearch -0.149E-05
 ZBRENT: increasing intervall
 opt :   1.2299  next Energy=  -715.515240 (dE=-0.193E-04)
 bond charge predicted
       N       E                     dE             d eps       ncg     rms          rms(c)
DAV:   1    -0.707246419307E+03    0.58222E-03   -0.10124E-01  2240   0.725E-01    0.669E-02
RMM:   2    -0.707246658591E+03   -0.23928E-03   -0.27515E-03  2249   0.105E-01    0.373E-02
RMM:   3    -0.707246621035E+03    0.37556E-04   -0.76024E-05  2307   0.223E-02    0.242E-02
RMM:   4    -0.707246619110E+03    0.19247E-05   -0.28933E-05  2284   0.107E-02    0.566E-03
RMM:   5    -0.707246618791E+03    0.31942E-06   -0.20267E-06  2257   0.320E-03    0.201E-03
RMM:   6    -0.707246618801E+03   -0.96588E-08   -0.30464E-07  1482   0.117E-03
 206 F= -.71551524E+03 E0= -.71551524E+03  d E =-.177460E-04
 curvature:  17.93 expect dE= 0.350E-02 dE for cont linesearch  0.642E-05
 ZBRENT: bracketing found
 ZBRENT: interpolating
 opt :   0.8505  next Energy=  -715.515244 (dE=-0.235E-04)
 bond charge predicted
       N       E                     dE             d eps       ncg     rms          rms(c)
DAV:   1    -0.707246783050E+03   -0.16426E-03   -0.39057E-02  2240   0.450E-01    0.415E-02
RMM:   2    -0.707246875130E+03   -0.92080E-04   -0.10588E-03  2249   0.648E-02    0.232E-02
RMM:   3    -0.707246860683E+03    0.14447E-04   -0.29181E-05  2305   0.138E-02    0.150E-02
RMM:   4    -0.707246859881E+03    0.80258E-06   -0.11257E-05  2285   0.667E-03    0.355E-03
RMM:   5    -0.707246859734E+03    0.14628E-06   -0.74928E-07  2008   0.197E-03    0.125E-03
RMM:   6    -0.707246859719E+03    0.15072E-07   -0.12887E-07  1373   0.805E-04
 207 F= -.71551524E+03 E0= -.71551524E+03  d E =-.233241E-04
 curvature:  -4.96 expect dE=-0.448E-03 dE for cont linesearch -0.114E-06
 trial: gam= 1.58387 g(F)=  0.901E-04 g(S)=  0.293E-06 ort = 0.638E-05 (trialstep = 0.164E+00)
 search vector abs. value=  0.457E-02
 bond charge predicted
       N       E                     dE             d eps       ncg     rms          rms(c)
DAV:   1    -0.707246724265E+03    0.13547E-03   -0.18650E-02  2240   0.311E-01    0.290E-02
RMM:   2    -0.707246768022E+03   -0.43756E-04   -0.50859E-04  2249   0.449E-02    0.160E-02
RMM:   3    -0.707246761015E+03    0.70064E-05   -0.13957E-05  2307   0.955E-03    0.104E-02
RMM:   4    -0.707246760682E+03    0.33289E-06   -0.54913E-06  2295   0.466E-03    0.248E-03
RMM:   5    -0.707246760626E+03    0.55872E-07   -0.36192E-07  1552   0.139E-03
 208 F= -.71551526E+03 E0= -.71551526E+03  d E =-.122278E-04
 trial-energy change:   -0.000012  1 .order   -0.000014   -0.000016   -0.000012
 step:   0.5504(harm=  0.5504)  dis= 0.00122  next Energy=  -715.515272 (dE=-0.277E-04)
 bond charge predicted
       N       E                     dE             d eps       ncg     rms          rms(c)
DAV:   1    -0.707246309520E+03    0.45116E-03   -0.10377E-01  2240   0.734E-01    0.685E-02
RMM:   2    -0.707246554856E+03   -0.24534E-03   -0.28362E-03  2249   0.106E-01    0.377E-02
RMM:   3    -0.707246516228E+03    0.38628E-04   -0.78115E-05  2309   0.226E-02    0.245E-02
RMM:   4    -0.707246514354E+03    0.18743E-05   -0.30470E-05  2297   0.110E-02    0.584E-03
RMM:   5    -0.707246513988E+03    0.36564E-06   -0.22446E-06  2258   0.329E-03    0.204E-03
RMM:   6    -0.707246514023E+03   -0.35026E-07   -0.29550E-07  1464   0.117E-03
 209 F= -.71551527E+03 E0= -.71551527E+03  d E =-.283858E-04
 curvature: -12.51 expect dE=-0.760E-03 dE for cont linesearch -0.688E-06
 trial: gam= 0.49410 g(F)=  0.606E-04 g(S)=  0.217E-06 ort = 0.158E-04 (trialstep = 0.241E+00)
 search vector abs. value=  0.119E-02
 bond charge predicted
       N       E                     dE             d eps       ncg     rms          rms(c)
DAV:   1    -0.707246408054E+03    0.10593E-03   -0.10391E-02  2256   0.232E-01    0.221E-02
RMM:   2    -0.707246433071E+03   -0.25017E-04   -0.29236E-04  2249   0.340E-02    0.122E-02
RMM:   3    -0.707246429039E+03    0.40328E-05   -0.80319E-06  2307   0.722E-03    0.794E-03
RMM:   4    -0.707246428970E+03    0.68889E-07   -0.30176E-06  2259   0.343E-03    0.187E-03
RMM:   5    -0.707246428971E+03   -0.12697E-08   -0.18521E-07  1423   0.107E-03
 210 F= -.71551529E+03 E0= -.71551529E+03  d E =-.125695E-04
 trial-energy change:   -0.000013  1 .order   -0.000013   -0.000017   -0.000010
 step:   0.6283(harm=  0.6283)  dis= 0.00067  next Energy=  -715.515294 (dE=-0.216E-04)
 bond charge predicted
       N       E                     dE             d eps       ncg     rms          rms(c)
DAV:   1    -0.707246225940E+03    0.20303E-03   -0.26715E-02  2240   0.373E-01    0.355E-02
RMM:   2    -0.707246290611E+03   -0.64670E-04   -0.75317E-04  2249   0.545E-02    0.197E-02
RMM:   3    -0.707246280119E+03    0.10491E-04   -0.20542E-05  2307   0.115E-02    0.128E-02
RMM:   4    -0.707246279811E+03    0.30857E-06   -0.79844E-06  2290   0.553E-03    0.309E-03
RMM:   5    -0.707246279771E+03    0.39297E-07   -0.54845E-07  1759   0.170E-03
 211 F= -.71551529E+03 E0= -.71551529E+03  d E =-.200212E-04
 curvature:  -5.45 expect dE=-0.285E-03 dE for cont linesearch -0.959E-07
 trial: gam= 1.18123 g(F)=  0.518E-04 g(S)=  0.469E-06 ort =-0.458E-05 (trialstep = 0.223E+00)
 search vector abs. value=  0.170E-02
 bond charge predicted
       N       E                     dE             d eps       ncg     rms          rms(c)
DAV:   1    -0.707246171008E+03    0.10880E-03   -0.13143E-02  2240   0.261E-01    0.246E-02
RMM:   2    -0.707246203405E+03   -0.32398E-04   -0.37075E-04  2250   0.381E-02    0.136E-02
RMM:   3    -0.707246198293E+03    0.51129E-05   -0.99236E-06  2324   0.795E-03    0.882E-03
RMM:   4    -0.707246198234E+03    0.58317E-07   -0.37895E-06  2274   0.381E-03    0.205E-03
RMM:   5    -0.707246198211E+03    0.23167E-07   -0.25041E-07  1474   0.119E-03
 212 F= -.71551530E+03 E0= -.71551530E+03  d E =-.874943E-05
 trial-energy change:   -0.000009  1 .order   -0.000008   -0.000010   -0.000006
 step:   0.3797(harm=  0.5461)  dis= 0.00048  next Energy=  -715.515304 (dE=-0.111E-04)
 bond charge predicted
       N       E                     dE             d eps       ncg     rms          rms(c)
DAV:   1    -0.707246124355E+03    0.73880E-04   -0.65210E-03  2272   0.184E-01    0.173E-02
RMM:   2    -0.707246140443E+03   -0.16088E-04   -0.18399E-04  2250   0.269E-02    0.954E-03
RMM:   3    -0.707246137914E+03    0.25287E-05   -0.49149E-06  2315   0.558E-03    0.621E-03
RMM:   4    -0.707246137916E+03   -0.18081E-08   -0.18706E-06  2235   0.268E-03    0.144E-03
RMM:   5    -0.707246137911E+03    0.55843E-08   -0.12156E-07  1354   0.883E-04
 213 F= -.71551530E+03 E0= -.71551530E+03  d E =-.121015E-04
 curvature:  -7.30 expect dE=-0.305E-03 dE for cont linesearch -0.956E-06
 trial: gam= 0.19009 g(F)=  0.411E-04 g(S)=  0.694E-06 ort = 0.149E-04 (trialstep = 0.254E+00)
 search vector abs. value=  0.109E-03
 bond charge predicted
       N       E                     dE             d eps       ncg     rms          rms(c)
DAV:   1    -0.707246143413E+03   -0.54967E-05   -0.12030E-03  2304   0.798E-02    0.761E-03
RMM:   2    -0.707246146579E+03   -0.31664E-05   -0.35983E-05  2245   0.123E-02    0.431E-03
RMM:   3    -0.707246146060E+03    0.51904E-06   -0.11074E-06  2231   0.270E-03    0.281E-03
RMM:   4    -0.707246145966E+03    0.94398E-07   -0.38126E-07  1679   0.124E-03
 214 F= -.71551531E+03 E0= -.71551531E+03  d E =-.810524E-05
 trial-energy change:   -0.000008  1 .order   -0.000008   -0.000011   -0.000005
 step:   0.4629(harm=  0.4629)  dis= 0.00015  next Energy=  -715.515315 (dE=-0.103E-04)
 bond charge predicted
       N       E                     dE             d eps       ncg     rms          rms(c)
DAV:   1    -0.707246146024E+03    0.35936E-07   -0.80796E-04  2272   0.654E-02    0.631E-03
RMM:   2    -0.707246148158E+03   -0.21339E-05   -0.24251E-05  2245   0.101E-02    0.356E-03
RMM:   3    -0.707246147805E+03    0.35324E-06   -0.73166E-07  2029   0.224E-03    0.233E-03
RMM:   4    -0.707246147731E+03    0.73884E-07   -0.26550E-07  1381   0.107E-03
 215 F= -.71551531E+03 E0= -.71551531E+03  d E =-.989676E-05
 curvature:  -0.57 expect dE=-0.128E-04 dE for cont linesearch -0.412E-08
 trial: gam= 0.66251 g(F)=  0.222E-04 g(S)=  0.471E-06 ort =-0.891E-06 (trialstep = 0.296E+00)
 search vector abs. value=  0.693E-04
 bond charge predicted
       N       E                     dE             d eps       ncg     rms          rms(c)
DAV:   1    -0.707246144604E+03    0.32009E-05   -0.97954E-04  2272   0.720E-02    0.695E-03
RMM:   2    -0.707246147120E+03   -0.25161E-05   -0.29307E-05  2246   0.109E-02    0.393E-03
RMM:   3    -0.707246146642E+03    0.47843E-06   -0.77392E-07  2068   0.229E-03    0.256E-03
RMM:   4    -0.707246146531E+03    0.11098E-06   -0.34239E-07  1566   0.119E-03    0.579E-04
RMM:   5    -0.707246146511E+03    0.19259E-07   -0.37375E-08  1284   0.565E-04
 216 F= -.71551532E+03 E0= -.71551532E+03  d E =-.498816E-05
 trial-energy change:   -0.000005  1 .order   -0.000005   -0.000007   -0.000004
 step:   0.6508(harm=  0.6508)  dis= 0.00019  next Energy=  -715.515322 (dE=-0.717E-05)
 bond charge predicted
       N       E                     dE             d eps       ncg     rms          rms(c)
DAV:   1    -0.707246138359E+03    0.81713E-05   -0.14090E-03  2272   0.863E-02    0.826E-03
RMM:   2    -0.707246141971E+03   -0.36112E-05   -0.42107E-05  2246   0.130E-02    0.470E-03
RMM:   3    -0.707246141287E+03    0.68404E-06   -0.11283E-06  2212   0.273E-03    0.307E-03
RMM:   4    -0.707246141138E+03    0.14823E-06   -0.48937E-07  1870   0.136E-03    0.682E-04
RMM:   5    -0.707246141110E+03    0.28544E-07   -0.35065E-08  1298   0.512E-04
 217 F= -.71551532E+03 E0= -.71551532E+03  d E =-.710825E-05
 curvature:  -1.02 expect dE=-0.260E-04 dE for cont linesearch -0.499E-09
 trial: gam= 0.98511 g(F)=  0.249E-04 g(S)=  0.559E-06 ort =-0.184E-06 (trialstep = 0.275E+00)
 search vector abs. value=  0.923E-04
 bond charge predicted
       N       E                     dE             d eps       ncg     rms          rms(c)
DAV:   1    -0.707246214407E+03   -0.73269E-04   -0.10691E-03  2272   0.753E-02    0.759E-03
RMM:   2    -0.707246216937E+03   -0.25296E-05   -0.31586E-05  2244   0.115E-02    0.398E-03
RMM:   3    -0.707246216495E+03    0.44191E-06   -0.94260E-07  2158   0.266E-03    0.251E-03
RMM:   4    -0.707246216409E+03    0.85995E-07   -0.29869E-07  1432   0.131E-03
 218 F= -.71551533E+03 E0= -.71551533E+03  d E =-.596666E-05
 trial-energy change:   -0.000006  1 .order   -0.000006   -0.000007   -0.000005
 step:   0.8923(harm=  0.8923)  dis= 0.00030  next Energy=  -715.515333 (dE=-0.113E-04)
 bond charge predicted
       N       E                     dE             d eps       ncg     rms          rms(c)
DAV:   1    -0.707246366530E+03   -0.15003E-03   -0.53574E-03  2240   0.168E-01    0.171E-02
RMM:   2    -0.707246379115E+03   -0.12585E-04   -0.15787E-04  2244   0.256E-02    0.892E-03
RMM:   3    -0.707246376923E+03    0.21913E-05   -0.47867E-06  2314   0.590E-03    0.562E-03
RMM:   4    -0.707246376622E+03    0.30176E-06   -0.15527E-06  2233   0.278E-03    0.158E-03
RMM:   5    -0.707246376606E+03    0.15636E-07   -0.10604E-07  1344   0.879E-04
 219 F= -.71551533E+03 E0= -.71551533E+03  d E =-.105775E-04
 curvature:  -1.63 expect dE=-0.775E-04 dE for cont linesearch -0.143E-06
 trial: gam= 1.99218 g(F)=  0.467E-04 g(S)=  0.834E-06 ort =-0.284E-05 (trialstep = 0.914E-01)
 search vector abs. value=  0.403E-03
 bond charge predicted
       N       E                     dE             d eps       ncg     rms          rms(c)
DAV:   1    -0.707246417138E+03   -0.40517E-04   -0.52230E-04  2304   0.522E-02    0.518E-03
RMM:   2    -0.707246418434E+03   -0.12954E-05   -0.15255E-05  2245   0.782E-03    0.282E-03
RMM:   3    -0.707246418208E+03    0.22599E-06   -0.37330E-07  1569   0.168E-03    0.177E-03
RMM:   4    -0.707246418174E+03    0.33746E-07   -0.18872E-07  1334   0.100E-03
 220 F= -.71551534E+03 E0= -.71551534E+03  d E =-.380217E-05
 ZBRENT: can't locate minimum, use default step
 trial-energy change:   -0.000004  1 .order   -0.000004   -0.000004   -0.000003
 step:   0.3657(harm=  1.0170)  dis= 0.00027  next Energy=  -715.515354 (dE=-0.213E-04)
 bond charge predicted
       N       E                     dE             d eps       ncg     rms          rms(c)
DAV:   1    -0.707246531743E+03   -0.11354E-03   -0.46929E-03  2240   0.156E-01    0.155E-02
RMM:   2    -0.707246542949E+03   -0.11206E-04   -0.13519E-04  2245   0.234E-02    0.831E-03
RMM:   3    -0.707246540957E+03    0.19917E-05   -0.37890E-06  2307   0.514E-03    0.520E-03
RMM:   4    -0.707246540724E+03    0.23329E-06   -0.13099E-06  2215   0.243E-03    0.124E-03
RMM:   5    -0.707246540706E+03    0.17772E-07   -0.71027E-08  1344   0.726E-04
 221 F= -.71551535E+03 E0= -.71551535E+03  d E =-.129306E-04
 curvature:  -2.47 expect dE=-0.100E-03 dE for cont linesearch -0.391E-05
 ZBRENT: increasing intervall
 opt :   0.9143  next Energy=  -715.515352 (dE=-0.197E-04)
 bond charge predicted
       N       E                     dE             d eps       ncg     rms          rms(c)
DAV:   1    -0.707246740314E+03   -0.19959E-03   -0.18787E-02  2240   0.313E-01    0.309E-02
RMM:   2    -0.707246785021E+03   -0.44707E-04   -0.54059E-04  2245   0.468E-02    0.166E-02
RMM:   3    -0.707246776942E+03    0.80789E-05   -0.15140E-05  2320   0.102E-02    0.104E-02
RMM:   4    -0.707246776113E+03    0.82923E-06   -0.52688E-06  2285   0.483E-03    0.249E-03
RMM:   5    -0.707246776059E+03    0.54242E-07   -0.28152E-07  1467   0.133E-03
 222 F= -.71551535E+03 E0= -.71551535E+03  d E =-.216219E-04
 curvature:  -4.30 expect dE=-0.388E-03 dE for cont linesearch -0.836E-08
 trial: gam= 1.50490 g(F)=  0.889E-04 g(S)=  0.144E-05 ort = 0.885E-06 (trialstep = 0.103E+00)
 search vector abs. value=  0.100E-02
 bond charge predicted
       N       E                     dE             d eps       ncg     rms          rms(c)
DAV:   1    -0.707246826255E+03   -0.50142E-04   -0.17152E-03  2256   0.945E-02    0.915E-03
RMM:   2    -0.707246830636E+03   -0.43813E-05   -0.49762E-05  2246   0.142E-02    0.505E-03
RMM:   3    -0.707246829904E+03    0.73222E-06   -0.13194E-06  2241   0.291E-03    0.322E-03
RMM:   4    -0.707246829829E+03    0.75423E-07   -0.56033E-07  2023   0.155E-03
 223 F= -.71551536E+03 E0= -.71551536E+03  d E =-.905724E-05
 ZBRENT: can't locate minimum, use default step
 trial-energy change:   -0.000009  1 .order   -0.000009   -0.000009   -0.000008
 step:   0.4103(harm=  0.6372)  dis= 0.00048  next Energy=  -715.515383 (dE=-0.292E-04)
 bond charge predicted
       N       E                     dE             d eps       ncg     rms          rms(c)
DAV:   1    -0.707246948938E+03   -0.11903E-03   -0.15400E-02  2240   0.283E-01    0.274E-02
RMM:   2    -0.707246986808E+03   -0.37870E-04   -0.44213E-04  2246   0.422E-02    0.150E-02
RMM:   3    -0.707246980229E+03    0.65790E-05   -0.11633E-05  2307   0.855E-03    0.948E-03
RMM:   4    -0.707246979584E+03    0.64440E-06   -0.46864E-06  2275   0.416E-03    0.201E-03
RMM:   5    -0.707246979482E+03    0.10211E-06   -0.23172E-07  1419   0.122E-03    0.869E-04
RMM:   6    -0.707246979442E+03    0.40432E-07   -0.87134E-08  1337   0.711E-04
 224 F= -.71551538E+03 E0= -.71551538E+03  d E =-.246154E-04
 curvature:  -2.86 expect dE=-0.718E-04 dE for cont linesearch -0.190E-05
 ZBRENT: increasing intervall
 opt :   1.0258  next Energy=  -715.515363 (dE=-0.908E-05)
 bond charge predicted
       N       E                     dE             d eps       ncg     rms          rms(c)
DAV:   1    -0.707247115940E+03   -0.13646E-03   -0.61627E-02  2240   0.567E-01    0.545E-02
RMM:   2    -0.707247266144E+03   -0.15020E-03   -0.17613E-03  2246   0.843E-02    0.298E-02
RMM:   3    -0.707247239758E+03    0.26386E-04   -0.46205E-05  2304   0.170E-02    0.189E-02
RMM:   4    -0.707247237380E+03    0.23786E-05   -0.18726E-05  2284   0.832E-03    0.396E-03
RMM:   5    -0.707247237103E+03    0.27641E-06   -0.10483E-06  2211   0.240E-03    0.172E-03
RMM:   6    -0.707247237017E+03    0.86256E-07   -0.18603E-07  1390   0.920E-04
 225 F= -.71551537E+03 E0= -.71551537E+03  d E =-.140764E-04
 curvature:  23.36 expect dE= 0.516E-02 dE for cont linesearch  0.119E-03
 ZBRENT: bracketing found
 ZBRENT: interpolating
 opt :   0.5738  next Energy=  -715.515381 (dE=-0.267E-04)
 bond charge predicted
       N       E                     dE             d eps       ncg     rms          rms(c)
DAV:   1    -0.707246988953E+03    0.24815E-03   -0.33212E-02  2240   0.416E-01    0.401E-02
RMM:   2    -0.707247068789E+03   -0.79837E-04   -0.94949E-04  2246   0.619E-02    0.219E-02
RMM:   3    -0.707247054548E+03    0.14242E-04   -0.24818E-05  2299   0.125E-02    0.138E-02
RMM:   4    -0.707247053492E+03    0.10559E-05   -0.10105E-05  2287   0.611E-03    0.293E-03
RMM:   5    -0.707247053488E+03    0.34852E-08   -0.53519E-07  1779   0.177E-03
 226 F= -.71551538E+03 E0= -.71551538E+03  d E =-.273834E-04
 curvature:  -0.42 expect dE=-0.176E-04 dE for cont linesearch -0.880E-08
 trial: gam= 0.57050 g(F)=  0.398E-04 g(S)=  0.262E-05 ort = 0.461E-05 (trialstep = 0.197E+00)
 search vector abs. value=  0.375E-03
 bond charge predicted
       N       E                     dE             d eps       ncg     rms          rms(c)
DAV:   1    -0.707247190786E+03   -0.13729E-03   -0.22835E-03  2256   0.110E-01    0.113E-02
RMM:   2    -0.707247195790E+03   -0.50036E-05   -0.65757E-05  2246   0.164E-02    0.595E-03
RMM:   3    -0.707247194730E+03    0.10601E-05   -0.19189E-06  2266   0.365E-03    0.363E-03
RMM:   4    -0.707247194529E+03    0.20033E-06   -0.59832E-07  2048   0.168E-03    0.909E-04
RMM:   5    -0.707247194515E+03    0.14836E-07   -0.44854E-08  1283   0.570E-04
 227 F= -.71551539E+03 E0= -.71551539E+03  d E =-.799106E-05
 trial-energy change:   -0.000008  1 .order   -0.000007   -0.000009   -0.000006
 step:   0.2990(harm=  0.5209)  dis= 0.00019  next Energy=  -715.515391 (dE=-0.953E-05)
 bond charge predicted
       N       E                     dE             d eps       ncg     rms          rms(c)
DAV:   1    -0.707247265183E+03   -0.70653E-04   -0.61709E-04  2304   0.569E-02    0.587E-03
RMM:   2    -0.707247266572E+03   -0.13896E-05   -0.18053E-05  2245   0.857E-03    0.315E-03
RMM:   3    -0.707247266272E+03    0.30028E-06   -0.49139E-07  1726   0.192E-03    0.195E-03
RMM:   4    -0.707247266192E+03    0.80010E-07   -0.19514E-07  1344   0.107E-03
 228 F= -.71551539E+03 E0= -.71551539E+03  d E =-.105938E-04
 curvature:  -1.15 expect dE=-0.202E-04 dE for cont linesearch -0.136E-05
 ZBRENT: increasing intervall
 opt :   0.5034  next Energy=  -715.515395 (dE=-0.135E-04)
 bond charge predicted
       N       E                     dE             d eps       ncg     rms          rms(c)
DAV:   1    -0.707247403310E+03   -0.13704E-03   -0.24635E-03  2256   0.114E-01    0.118E-02
RMM:   2    -0.707247408880E+03   -0.55704E-05   -0.71704E-05  2246   0.171E-02    0.629E-03
RMM:   3    -0.707247407762E+03    0.11181E-05   -0.21261E-06  2274   0.385E-03    0.388E-03
RMM:   4    -0.707247407554E+03    0.20761E-06   -0.65299E-07  2084   0.177E-03    0.975E-04
RMM:   5    -0.707247407536E+03    0.18044E-07   -0.48257E-08  1320   0.599E-04
 229 F= -.71551540E+03 E0= -.71551540E+03  d E =-.138515E-04
 curvature:  -2.43 expect dE=-0.630E-04 dE for cont linesearch -0.837E-07
 trial: gam= 0.55955 g(F)=  0.253E-04 g(S)=  0.598E-06 ort = 0.359E-05 (trialstep = 0.258E+00)
 search vector abs. value=  0.147E-03
 bond charge predicted
       N       E                     dE             d eps       ncg     rms          rms(c)
DAV:   1    -0.707247469636E+03   -0.62082E-04   -0.15680E-03  2240   0.905E-02    0.886E-03
RMM:   2    -0.707247473453E+03   -0.38169E-05   -0.46216E-05  2246   0.137E-02    0.473E-03
RMM:   3    -0.707247472795E+03    0.65807E-06   -0.12724E-06  2253   0.302E-03    0.303E-03
RMM:   4    -0.707247472688E+03    0.10670E-06   -0.49790E-07  1999   0.154E-03    0.721E-04
RMM:   5    -0.707247472688E+03   -0.41473E-09   -0.32993E-08  1300   0.510E-04
 230 F= -.71551540E+03 E0= -.71551540E+03  d E =-.573007E-05
 trial-energy change:   -0.000006  1 .order   -0.000006   -0.000007   -0.000004
 step:   0.6633(harm=  0.6633)  dis= 0.00031  next Energy=  -715.515404 (dE=-0.927E-05)
 bond charge predicted
       N       E                     dE             d eps       ncg     rms          rms(c)
DAV:   1    -0.707247561756E+03   -0.89068E-04   -0.38649E-03  2240   0.142E-01    0.139E-02
RMM:   2    -0.707247571238E+03   -0.94827E-05   -0.11397E-04  2246   0.216E-02    0.743E-03
RMM:   3    -0.707247569634E+03    0.16046E-05   -0.31602E-06  2303   0.476E-03    0.477E-03
RMM:   4    -0.707247569409E+03    0.22468E-06   -0.12496E-06  2197   0.245E-03    0.116E-03
RMM:   5    -0.707247569405E+03    0.42746E-08   -0.67044E-08  1342   0.745E-04
 231 F= -.71551540E+03 E0= -.71551540E+03  d E =-.917374E-05
 curvature:  -1.75 expect dE=-0.477E-04 dE for cont linesearch -0.886E-09
 trial: gam= 1.14561 g(F)=  0.243E-04 g(S)=  0.305E-05 ort = 0.273E-06 (trialstep = 0.226E+00)
 search vector abs. value=  0.221E-03
 bond charge predicted
       N       E                     dE             d eps       ncg     rms          rms(c)
DAV:   1    -0.707247525447E+03    0.43962E-04   -0.18959E-03  2240   0.992E-02    0.939E-03
RMM:   2    -0.707247530488E+03   -0.50410E-05   -0.57214E-05  2246   0.151E-02    0.522E-03
RMM:   3    -0.707247529623E+03    0.86544E-06   -0.15241E-06  2265   0.332E-03    0.335E-03
RMM:   4    -0.707247529559E+03    0.63890E-07   -0.57752E-07  1998   0.167E-03
 232 F= -.71551541E+03 E0= -.71551541E+03  d E =-.519065E-05
 trial-energy change:   -0.000005  1 .order   -0.000005   -0.000006   -0.000004
 step:   0.7697(harm=  0.7697)  dis= 0.00045  next Energy=  -715.515415 (dE=-0.106E-04)
 bond charge predicted
       N       E                     dE             d eps       ncg     rms          rms(c)
DAV:   1    -0.707247399996E+03    0.12963E-03   -0.10977E-02  2240   0.238E-01    0.226E-02
RMM:   2    -0.707247428704E+03   -0.28708E-04   -0.32908E-04  2246   0.361E-02    0.125E-02
RMM:   3    -0.707247423744E+03    0.49600E-05   -0.86611E-06  2309   0.777E-03    0.800E-03
RMM:   4    -0.707247423337E+03    0.40677E-06   -0.32818E-06  2265   0.375E-03    0.189E-03
RMM:   5    -0.707247423289E+03    0.48229E-07   -0.16906E-07  1366   0.107E-03
 233 F= -.71551541E+03 E0= -.71551541E+03  d E =-.734102E-05
 curvature:  -3.08 expect dE=-0.122E-03 dE for cont linesearch -0.290E-06
 trial: gam= 1.54412 g(F)=  0.393E-04 g(S)=  0.304E-06 ort =-0.456E-05 (trialstep = 0.134E+00)
 search vector abs. value=  0.553E-03
 bond charge predicted
       N       E                     dE             d eps       ncg     rms          rms(c)
DAV:   1    -0.707247351724E+03    0.71613E-04   -0.16842E-03  2304   0.935E-02    0.895E-03
RMM:   2    -0.707247356051E+03   -0.43263E-05   -0.49987E-05  2245   0.141E-02    0.480E-03
RMM:   3    -0.707247355302E+03    0.74932E-06   -0.13292E-06  2251   0.302E-03    0.301E-03
RMM:   4    -0.707247355275E+03    0.26186E-07   -0.42411E-07  1769   0.141E-03
 234 F= -.71551541E+03 E0= -.71551541E+03  d E =-.250868E-05
 ZBRENT: can't locate minimum, use default step
 trial-energy change:   -0.000003  1 .order   -0.000004   -0.000004   -0.000004
 step:   0.5354(harm=  1.0280)  dis= 0.00048  next Energy=  -715.515428 (dE=-0.167E-04)
 bond charge predicted
       N       E                     dE             d eps       ncg     rms          rms(c)
DAV:   1    -0.707247119296E+03    0.23601E-03   -0.15124E-02  2240   0.280E-01    0.268E-02
RMM:   2    -0.707247157316E+03   -0.38020E-04   -0.44437E-04  2245   0.421E-02    0.142E-02
RMM:   3    -0.707247150691E+03    0.66259E-05   -0.11942E-05  2319   0.910E-03    0.891E-03
RMM:   4    -0.707247150283E+03    0.40800E-06   -0.39052E-06  2263   0.421E-03    0.225E-03
RMM:   5    -0.707247150272E+03    0.10696E-07   -0.22558E-07  1414   0.121E-03
 235 F= -.71551542E+03 E0= -.71551542E+03  d E =-.925126E-05
 curvature:  -6.08 expect dE=-0.233E-03 dE for cont linesearch -0.928E-06
 trial: gam= 0.36377 g(F)=  0.378E-04 g(S)=  0.486E-06 ort = 0.918E-05 (trialstep = 0.214E+00)
 search vector abs. value=  0.118E-03
 bond charge predicted
       N       E                     dE             d eps       ncg     rms          rms(c)
DAV:   1    -0.707247138363E+03    0.11919E-04   -0.93194E-04  2256   0.696E-02    0.715E-03
RMM:   2    -0.707247140834E+03   -0.24709E-05   -0.30442E-05  2247   0.110E-02    0.393E-03
RMM:   3    -0.707247140404E+03    0.43036E-06   -0.77687E-07  1996   0.237E-03    0.255E-03
RMM:   4    -0.707247140409E+03   -0.52751E-08   -0.46276E-07  1752   0.149E-03
 236 F= -.71551543E+03 E0= -.71551543E+03  d E =-.672905E-05
 trial-energy change:   -0.000007  1 .order   -0.000007   -0.000009   -0.000005
 step:   0.4944(harm=  0.4944)  dis= 0.00018  next Energy=  -715.515431 (dE=-0.103E-04)
 bond charge predicted
       N       E                     dE             d eps       ncg     rms          rms(c)
DAV:   1    -0.707247118023E+03    0.22381E-04   -0.15920E-03  2240   0.909E-02    0.942E-03
RMM:   2    -0.707247122275E+03   -0.42523E-05   -0.52127E-05  2247   0.143E-02    0.511E-03
RMM:   3    -0.707247121530E+03    0.74487E-06   -0.13455E-06  2259   0.300E-03    0.330E-03
RMM:   4    -0.707247121548E+03   -0.17899E-07   -0.69931E-07  2031   0.163E-03
 237 F= -.71551543E+03 E0= -.71551543E+03  d E =-.961670E-05
 curvature:  -0.70 expect dE=-0.129E-04 dE for cont linesearch -0.310E-08
 trial: gam= 0.63585 g(F)=  0.173E-04 g(S)=  0.113E-05 ort =-0.723E-06 (trialstep = 0.270E+00)
 search vector abs. value=  0.653E-04
 bond charge predicted
       N       E                     dE             d eps       ncg     rms          rms(c)
DAV:   1    -0.707247032189E+03    0.89341E-04   -0.75663E-04  2304   0.636E-02    0.770E-03
RMM:   2    -0.707247033965E+03   -0.17762E-05   -0.25385E-05  2241   0.101E-02    0.385E-03
RMM:   3    -0.707247033636E+03    0.32926E-06   -0.75698E-07  2021   0.247E-03    0.238E-03
RMM:   4    -0.707247033696E+03   -0.60230E-07   -0.31590E-07  1457   0.130E-03
 238 F= -.71551543E+03 E0= -.71551543E+03  d E =-.324088E-05
 trial-energy change:   -0.000003  1 .order   -0.000004   -0.000005   -0.000003
 step:   0.6047(harm=  0.6047)  dis= 0.00018  next Energy=  -715.515436 (dE=-0.544E-05)
 bond charge predicted
       N       E                     dE             d eps       ncg     rms          rms(c)
DAV:   1    -0.707246919508E+03    0.11413E-03   -0.11566E-03  2256   0.782E-02    0.946E-03
RMM:   2    -0.707246922170E+03   -0.26613E-05   -0.38015E-05  2241   0.123E-02    0.475E-03
RMM:   3    -0.707246921652E+03    0.51748E-06   -0.11503E-06  2227   0.293E-03    0.292E-03
RMM:   4    -0.707246921712E+03   -0.59616E-07   -0.42705E-07  1677   0.141E-03
 239 F= -.71551543E+03 E0= -.71551543E+03  d E =-.401877E-05
 curvature:  -1.10 expect dE=-0.191E-04 dE for cont linesearch -0.130E-07
 trial: gam= 0.84561 g(F)=  0.163E-04 g(S)=  0.112E-05 ort =-0.880E-06 (trialstep = 0.337E+00)
 search vector abs. value=  0.626E-04
 bond charge predicted
       N       E                     dE             d eps       ncg     rms          rms(c)
DAV:   1    -0.707246736888E+03    0.18476E-03   -0.10010E-03  2256   0.745E-02    0.104E-02
RMM:   2    -0.707246738285E+03   -0.13972E-05   -0.31284E-05  2240   0.119E-02    0.473E-03
RMM:   3    -0.707246737947E+03    0.33790E-06   -0.13291E-06  2266   0.311E-03    0.258E-03
RMM:   4    -0.707246738033E+03   -0.85711E-07   -0.28802E-07  1428   0.129E-03
 240 F= -.71551544E+03 E0= -.71551544E+03  d E =-.314754E-05
 trial-energy change:   -0.000003  1 .order   -0.000004   -0.000006   -0.000003
 step:   0.6706(harm=  0.6706)  dis= 0.00018  next Energy=  -715.515440 (dE=-0.558E-05)
 bond charge predicted
       N       E                     dE             d eps       ncg     rms          rms(c)
DAV:   1    -0.707246552420E+03    0.18553E-03   -0.97815E-04  2240   0.735E-02    0.103E-02
RMM:   2    -0.707246553808E+03   -0.13878E-05   -0.30368E-05  2240   0.117E-02    0.473E-03
RMM:   3    -0.707246553478E+03    0.33003E-06   -0.12833E-06  2265   0.301E-03    0.258E-03
RMM:   4    -0.707246553567E+03   -0.88570E-07   -0.27562E-07  1414   0.127E-03
 241 F= -.71551544E+03 E0= -.71551544E+03  d E =-.355439E-05
 curvature:  -1.26 expect dE=-0.263E-04 dE for cont linesearch -0.120E-09
 trial: gam= 1.08923 g(F)=  0.202E-04 g(S)=  0.683E-06 ort =-0.772E-07 (trialstep = 0.266E+00)
 search vector abs. value=  0.949E-04
 bond charge predicted
       N       E                     dE             d eps       ncg     rms          rms(c)
DAV:   1    -0.707246459889E+03    0.93589E-04   -0.10547E-03  2240   0.746E-02    0.892E-03
RMM:   2    -0.707246461869E+03   -0.19794E-05   -0.31524E-05  2243   0.115E-02    0.443E-03
RMM:   3    -0.707246461432E+03    0.43672E-06   -0.11425E-06  2230   0.285E-03    0.260E-03
RMM:   4    -0.707246461498E+03   -0.66466E-07   -0.34305E-07  1512   0.124E-03
 242 F= -.71551544E+03 E0= -.71551544E+03  d E =-.367811E-05
 trial-energy change:   -0.000004  1 .order   -0.000004   -0.000006   -0.000003
 step:   0.6558(harm=  0.6558)  dis= 0.00025  next Energy=  -715.515445 (dE=-0.681E-05)
 bond charge predicted
       N       E                     dE             d eps       ncg     rms          rms(c)
DAV:   1    -0.707246319341E+03    0.14209E-03   -0.22615E-03  2240   0.109E-01    0.130E-02
RMM:   2    -0.707246323626E+03   -0.42855E-05   -0.67778E-05  2243   0.169E-02    0.645E-03
RMM:   3    -0.707246322661E+03    0.96529E-06   -0.24704E-06  2267   0.420E-03    0.378E-03
RMM:   4    -0.707246322728E+03   -0.66575E-07   -0.78963E-07  2130   0.182E-03
 243 F= -.71551544E+03 E0= -.71551544E+03  d E =-.503520E-05
 curvature:  -1.50 expect dE=-0.304E-04 dE for cont linesearch -0.687E-09
 trial: gam= 0.95906 g(F)=  0.196E-04 g(S)=  0.682E-06 ort = 0.209E-06 (trialstep = 0.303E+00)
 search vector abs. value=  0.108E-03
 bond charge predicted
       N       E                     dE             d eps       ncg     rms          rms(c)
DAV:   1    -0.707246287159E+03    0.35502E-04   -0.14998E-03  2240   0.883E-02    0.848E-03
RMM:   2    -0.707246290685E+03   -0.35257E-05   -0.42165E-05  2246   0.132E-02    0.468E-03
RMM:   3    -0.707246290092E+03    0.59325E-06   -0.12008E-06  2243   0.283E-03    0.297E-03
RMM:   4    -0.707246290057E+03    0.35106E-07   -0.47849E-07  1921   0.138E-03
 244 F= -.71551545E+03 E0= -.71551545E+03  d E =-.482527E-05
 trial-energy change:   -0.000005  1 .order   -0.000005   -0.000006   -0.000003
 step:   0.6804(harm=  0.6804)  dis= 0.00028  next Energy=  -715.515450 (dE=-0.696E-05)
 bond charge predicted
       N       E                     dE             d eps       ncg     rms          rms(c)
DAV:   1    -0.707246241107E+03    0.48984E-04   -0.23445E-03  2240   0.110E-01    0.106E-02
RMM:   2    -0.707246246668E+03   -0.55609E-05   -0.66726E-05  2246   0.165E-02    0.582E-03
RMM:   3    -0.707246245713E+03    0.95543E-06   -0.18929E-06  2278   0.353E-03    0.370E-03
RMM:   4    -0.707246245636E+03    0.76980E-07   -0.76045E-07  2134   0.170E-03
 245 F= -.71551545E+03 E0= -.71551545E+03  d E =-.711012E-05
 curvature:  -1.80 expect dE=-0.393E-04 dE for cont linesearch -0.159E-08
 trial: gam= 1.06500 g(F)=  0.215E-04 g(S)=  0.390E-06 ort = 0.309E-06 (trialstep = 0.282E+00)
 search vector abs. value=  0.145E-03
 bond charge predicted
       N       E                     dE             d eps       ncg     rms          rms(c)
DAV:   1    -0.707246252578E+03   -0.68648E-05   -0.17614E-03  2240   0.953E-02    0.893E-03
RMM:   2    -0.707246256835E+03   -0.42576E-05   -0.49518E-05  2246   0.143E-02    0.499E-03
RMM:   3    -0.707246256122E+03    0.71292E-06   -0.13811E-06  2250   0.305E-03    0.323E-03
RMM:   4    -0.707246256005E+03    0.11719E-06   -0.55733E-07  2003   0.148E-03    0.709E-04
RMM:   5    -0.707246256002E+03    0.28813E-08   -0.34703E-08  1306   0.502E-04
 246 F= -.71551545E+03 E0= -.71551545E+03  d E =-.419387E-05
 trial-energy change:   -0.000004  1 .order   -0.000005   -0.000006   -0.000004
 step:   0.7252(harm=  0.7252)  dis= 0.00033  next Energy=  -715.515458 (dE=-0.804E-05)
 bond charge predicted
       N       E                     dE             d eps       ncg     rms          rms(c)
DAV:   1    -0.707246259967E+03   -0.39620E-05   -0.43724E-03  2240   0.150E-01    0.139E-02
RMM:   2    -0.707246270478E+03   -0.10511E-04   -0.12175E-04  2246   0.224E-02    0.774E-03
RMM:   3    -0.707246268719E+03    0.17586E-05   -0.33281E-06  2278   0.460E-03    0.498E-03
RMM:   4    -0.707246268481E+03    0.23825E-06   -0.13571E-06  2216   0.225E-03    0.108E-03
RMM:   5    -0.707246268465E+03    0.16491E-07   -0.65638E-08  1339   0.701E-04
 247 F= -.71551546E+03 E0= -.71551546E+03  d E =-.709596E-05
 curvature:  -2.37 expect dE=-0.525E-04 dE for cont linesearch -0.115E-07
 trial: gam= 0.96448 g(F)=  0.221E-04 g(S)=  0.490E-07 ort = 0.840E-06 (trialstep = 0.339E+00)
 search vector abs. value=  0.159E-03
 bond charge predicted
       N       E                     dE             d eps       ncg     rms          rms(c)
DAV:   1    -0.707246289605E+03   -0.21124E-04   -0.27489E-03  2240   0.119E-01    0.110E-02
RMM:   2    -0.707246296203E+03   -0.65981E-05   -0.76024E-05  2246   0.176E-02    0.604E-03
RMM:   3    -0.707246295171E+03    0.10326E-05   -0.20505E-06  2284   0.357E-03    0.391E-03
RMM:   4    -0.707246295068E+03    0.10294E-06   -0.83454E-07  2142   0.181E-03    0.841E-04
RMM:   5    -0.707246295070E+03   -0.18372E-08   -0.50144E-08  1315   0.593E-04
 248 F= -.71551546E+03 E0= -.71551546E+03  d E =-.561082E-05
 trial-energy change:   -0.000006  1 .order   -0.000006   -0.000008   -0.000004
 step:   0.7051(harm=  0.7051)  dis= 0.00031  next Energy=  -715.515465 (dE=-0.809E-05)
 bond charge predicted
       N       E                     dE             d eps       ncg     rms          rms(c)
DAV:   1    -0.707246313689E+03   -0.18621E-04   -0.32240E-03  2240   0.129E-01    0.119E-02
RMM:   2    -0.707246321434E+03   -0.77451E-05   -0.89236E-05  2246   0.191E-02    0.654E-03
RMM:   3    -0.707246320218E+03    0.12162E-05   -0.24008E-06  2283   0.384E-03    0.423E-03
RMM:   4    -0.707246320100E+03    0.11794E-06   -0.98690E-07  2182   0.195E-03    0.915E-04
RMM:   5    -0.707246320099E+03    0.12660E-08   -0.57881E-08  1321   0.642E-04
 249 F= -.71551547E+03 E0= -.71551547E+03  d E =-.795134E-05
 curvature:  -2.44 expect dE=-0.527E-04 dE for cont linesearch -0.435E-10
 trial: gam= 1.07002 g(F)=  0.212E-04 g(S)=  0.423E-06 ort =-0.532E-07 (trialstep = 0.322E+00)
 search vector abs. value=  0.203E-03
 bond charge predicted
       N       E                     dE             d eps       ncg     rms          rms(c)
DAV:   1    -0.707246262371E+03    0.57729E-04   -0.31004E-03  2240   0.127E-01    0.121E-02
RMM:   2    -0.707246269849E+03   -0.74784E-05   -0.87688E-05  2246   0.189E-02    0.663E-03
RMM:   3    -0.707246268656E+03    0.11929E-05   -0.24489E-06  2280   0.400E-03    0.419E-03
RMM:   4    -0.707246268642E+03    0.13912E-07   -0.84749E-07  2151   0.187E-03
 250 F= -.71551547E+03 E0= -.71551547E+03  d E =-.365277E-05
 trial-energy change:   -0.000004  1 .order   -0.000005   -0.000007   -0.000002
 step:   0.4998(harm=  0.4998)  dis= 0.00025  next Energy=  -715.515471 (dE=-0.539E-05)
 bond charge predicted
       N       E                     dE             d eps       ncg     rms          rms(c)
DAV:   1    -0.707246236462E+03    0.32194E-04   -0.94824E-04  2288   0.702E-02    0.685E-03
RMM:   2    -0.707246238790E+03   -0.23275E-05   -0.27127E-05  2247   0.105E-02    0.374E-03
RMM:   3    -0.707246238442E+03    0.34731E-06   -0.74746E-07  2049   0.226E-03    0.238E-03
RMM:   4    -0.707246238461E+03   -0.18525E-07   -0.26759E-07  1402   0.109E-03
 251 F= -.71551547E+03 E0= -.71551547E+03  d E =-.399992E-05
 curvature:  -2.35 expect dE=-0.370E-04 dE for cont linesearch -0.211E-07
 trial: gam= 0.77599 g(F)=  0.153E-04 g(S)=  0.456E-06 ort =-0.135E-05 (trialstep = 0.357E+00)
 search vector abs. value=  0.136E-03
 bond charge predicted
       N       E                     dE             d eps       ncg     rms          rms(c)
DAV:   1    -0.707246137772E+03    0.10067E-03   -0.24919E-03  2240   0.114E-01    0.119E-02
RMM:   2    -0.707246143326E+03   -0.55548E-05   -0.70972E-05  2245   0.172E-02    0.609E-03
RMM:   3    -0.707246142380E+03    0.94652E-06   -0.22196E-06  2268   0.408E-03    0.372E-03
RMM:   4    -0.707246142410E+03   -0.30508E-07   -0.65591E-07  2090   0.182E-03
 252 F= -.71551547E+03 E0= -.71551547E+03  d E =-.329079E-05
 trial-energy change:   -0.000003  1 .order   -0.000005   -0.000005   -0.000004
 step:   1.3791(harm=  1.3791)  dis= 0.00057  next Energy=  -715.515479 (dE=-0.101E-04)
 bond charge predicted
       N       E                     dE             d eps       ncg     rms          rms(c)
DAV:   1    -0.707245821777E+03    0.32060E-03   -0.20375E-02  2240   0.327E-01    0.340E-02
RMM:   2    -0.707245867065E+03   -0.45288E-04   -0.57711E-04  2245   0.489E-02    0.174E-02
RMM:   3    -0.707245859240E+03    0.78252E-05   -0.18149E-05  2303   0.117E-02    0.106E-02
RMM:   4    -0.707245858988E+03    0.25229E-06   -0.52979E-06  2288   0.503E-03    0.305E-03
RMM:   5    -0.707245859060E+03   -0.72381E-07   -0.36614E-07  1595   0.148E-03
 253 F= -.71551547E+03 E0= -.71551547E+03  d E =-.404118E-05
 curvature:  -6.39 expect dE=-0.377E-03 dE for cont linesearch -0.411E-06
 trial: gam= 3.70622 g(F)=  0.583E-04 g(S)=  0.767E-06 ort =-0.296E-05 (trialstep = 0.401E-01)
 search vector abs. value=  0.190E-02
 bond charge predicted
       N       E                     dE             d eps       ncg     rms          rms(c)
DAV:   1    -0.707245816809E+03    0.42178E-04   -0.44005E-04  2304   0.478E-02    0.493E-03
RMM:   2    -0.707245817843E+03   -0.10342E-05   -0.12562E-05  2244   0.714E-03    0.261E-03
RMM:   3    -0.707245817679E+03    0.16448E-06   -0.32036E-07  1456   0.154E-03    0.161E-03
RMM:   4    -0.707245817706E+03   -0.27459E-07   -0.16727E-07  1325   0.919E-04
 254 F= -.71551548E+03 E0= -.71551548E+03  d E =-.162990E-05
 ZBRENT: can't locate minimum, use default step
 trial-energy change:   -0.000002  1 .order   -0.000002   -0.000002   -0.000002
 step:   0.1604(harm=  0.3850)  dis= 0.00025  next Energy=  -715.515483 (dE=-0.925E-05)
 bond charge predicted
       N       E                     dE             d eps       ncg     rms          rms(c)
DAV:   1    -0.707245686297E+03    0.13138E-03   -0.39512E-03  2240   0.144E-01    0.148E-02
RMM:   2    -0.707245694989E+03   -0.86920E-05   -0.11081E-04  2244   0.214E-02    0.756E-03
RMM:   3    -0.707245693490E+03    0.14988E-05   -0.34552E-06  2280   0.503E-03    0.460E-03
RMM:   4    -0.707245693501E+03   -0.11583E-07   -0.10213E-06  2177   0.223E-03    0.128E-03
RMM:   5    -0.707245693526E+03   -0.24713E-07   -0.68037E-08  1327   0.726E-04
 255 F= -.71551548E+03 E0= -.71551548E+03  d E =-.638500E-05
 curvature:  -4.39 expect dE=-0.190E-03 dE for cont linesearch -0.259E-05
 ZBRENT: increasing intervall
 opt :   0.4009  next Energy=  -715.515486 (dE=-0.122E-04)
 bond charge predicted
       N       E                     dE             d eps       ncg     rms          rms(c)
DAV:   1    -0.707245411189E+03    0.28231E-03   -0.15806E-02  2240   0.287E-01    0.295E-02
RMM:   2    -0.707245446013E+03   -0.34825E-04   -0.44152E-04  2244   0.426E-02    0.151E-02
RMM:   3    -0.707245439931E+03    0.60820E-05   -0.13714E-05  2303   0.996E-03    0.913E-03
RMM:   4    -0.707245439751E+03    0.18053E-06   -0.40311E-06  2300   0.432E-03    0.252E-03
RMM:   5    -0.707245439798E+03   -0.47432E-07   -0.23176E-07  1395   0.123E-03
 256 F= -.71551548E+03 E0= -.71551548E+03  d E =-.106342E-04
 curvature:  -9.78 expect dE=-0.366E-03 dE for cont linesearch -0.805E-06
 trial: gam= 0.07693 g(F)=  0.360E-04 g(S)=  0.145E-05 ort = 0.125E-04 (trialstep = 0.112E+00)
 search vector abs. value=  0.506E-04
 bond charge predicted
       N       E                     dE             d eps       ncg     rms          rms(c)
DAV:   1    -0.707245444227E+03   -0.44763E-05   -0.96553E-05  2368   0.230E-02    0.267E-03
RMM:   2    -0.707245444466E+03   -0.23904E-06   -0.33065E-06  2240   0.388E-03    0.154E-03
RMM:   3    -0.707245444417E+03    0.48876E-07   -0.11126E-07  1337   0.992E-04
 257 F= -.71551549E+03 E0= -.71551549E+03  d E =-.407280E-05
 trial-energy change:   -0.000004  1 .order   -0.000004   -0.000004   -0.000003
 step:   0.3634(harm=  0.3634)  dis= 0.00012  next Energy=  -715.515491 (dE=-0.698E-05)
 bond charge predicted
       N       E                     dE             d eps       ncg     rms          rms(c)
DAV:   1    -0.707245448268E+03   -0.38019E-05   -0.47955E-04  2288   0.510E-02    0.585E-03
RMM:   2    -0.707245449335E+03   -0.10666E-05   -0.15717E-05  2240   0.833E-03    0.340E-03
RMM:   3    -0.707245449104E+03    0.23077E-06   -0.62631E-07  1927   0.216E-03    0.215E-03
RMM:   4    -0.707245448984E+03    0.11981E-06   -0.26788E-07  1358   0.122E-03    0.688E-04
RMM:   5    -0.707245448977E+03    0.67957E-08   -0.68037E-08  1305   0.808E-04
 258 F= -.71551549E+03 E0= -.71551549E+03  d E =-.743226E-05
 curvature:  -0.24 expect dE=-0.158E-05 dE for cont linesearch -0.169E-08
 trial: gam= 0.22177 g(F)=  0.634E-05 g(S)=  0.253E-06 ort =-0.598E-06 (trialstep = 0.162E+00)
 search vector abs. value=  0.882E-05
 bond charge predicted
       N       E                     dE             d eps       ncg     rms          rms(c)
DAV:   1    -0.707245471679E+03   -0.22695E-04   -0.34689E-05  2480   0.138E-02    0.161E-03
RMM:   2    -0.707245471726E+03   -0.46777E-07   -0.11123E-06  2191   0.218E-03    0.980E-04
RMM:   3    -0.707245471689E+03    0.37100E-07   -0.40783E-08  1257   0.582E-04
 259 F= -.71551549E+03 E0= -.71551549E+03  d E =-.957795E-06
 trial-energy change:   -0.000001  1 .order   -0.000001   -0.000001   -0.000001
 step:   0.5136(harm=  0.5136)  dis= 0.00005  next Energy=  -715.515493 (dE=-0.166E-05)
 bond charge predicted
       N       E                     dE             d eps       ncg     rms          rms(c)
DAV:   1    -0.707245519452E+03   -0.47726E-04   -0.16088E-04  2272   0.298E-02    0.353E-03
RMM:   2    -0.707245519708E+03   -0.25562E-06   -0.50752E-06  2240   0.473E-03    0.214E-03
RMM:   3    -0.707245519581E+03    0.12703E-06   -0.18654E-07  1377   0.124E-03    0.129E-03
RMM:   4    -0.707245519506E+03    0.75415E-07   -0.11204E-07  1294   0.856E-04
 260 F= -.71551549E+03 E0= -.71551549E+03  d E =-.177701E-05
 curvature:  -0.35 expect dE=-0.211E-05 dE for cont linesearch -0.231E-09
 trial: gam= 0.89138 g(F)=  0.580E-05 g(S)=  0.203E-06 ort =-0.763E-07 (trialstep = 0.159E+00)
 search vector abs. value=  0.129E-04
 bond charge predicted
       N       E                     dE             d eps       ncg     rms          rms(c)
DAV:   1    -0.707245551726E+03   -0.32145E-04   -0.48963E-05  2384   0.162E-02    0.217E-03
RMM:   2    -0.707245551767E+03   -0.41182E-07   -0.14691E-06  2226   0.261E-03    0.108E-03
RMM:   3    -0.707245551722E+03    0.45598E-07   -0.56172E-08  1267   0.709E-04
 261 F= -.71551549E+03 E0= -.71551549E+03  d E =-.932310E-06
 trial-energy change:   -0.000001  1 .order   -0.000001   -0.000001   -0.000001
 step:   0.4992(harm=  0.4992)  dis= 0.00005  next Energy=  -715.515495 (dE=-0.148E-05)
 bond charge predicted
       N       E                     dE             d eps       ncg     rms          rms(c)
DAV:   1    -0.707245619549E+03   -0.67782E-04   -0.22301E-04  2272   0.357E-02    0.478E-03
RMM:   2    -0.707245619807E+03   -0.25795E-06   -0.69917E-06  2240   0.580E-03    0.230E-03
RMM:   3    -0.707245619657E+03    0.15007E-06   -0.25391E-07  1398   0.145E-03    0.126E-03
RMM:   4    -0.707245619582E+03    0.74793E-07   -0.13878E-07  1296   0.103E-03
 262 F= -.71551550E+03 E0= -.71551550E+03  d E =-.210621E-05
 curvature:  -0.54 expect dE=-0.192E-05 dE for cont linesearch -0.559E-07
 trial: gam= 0.33349 g(F)=  0.348E-05 g(S)=  0.661E-07 ort = 0.115E-05 (trialstep = 0.227E+00)
 search vector abs. value=  0.574E-05
 bond charge predicted
       N       E                     dE             d eps       ncg     rms          rms(c)
DAV:   1    -0.707245626931E+03   -0.72740E-05   -0.48798E-05  2320   0.161E-02    0.165E-03
RMM:   2    -0.707245627094E+03   -0.16258E-06   -0.15091E-06  2199   0.249E-03    0.986E-04
RMM:   3    -0.707245627073E+03    0.21329E-07   -0.38619E-08  1255   0.574E-04
 263 F= -.71551550E+03 E0= -.71551550E+03  d E =-.763971E-06
 trial-energy change:   -0.000001  1 .order   -0.000001   -0.000001   -0.000001
 step:   0.7217(harm=  0.7217)  dis= 0.00006  next Energy=  -715.515497 (dE=-0.142E-05)
 bond charge predicted
       N       E                     dE             d eps       ncg     rms          rms(c)
DAV:   1    -0.707245641820E+03   -0.14726E-04   -0.22933E-04  2272   0.348E-02    0.361E-03
RMM:   2    -0.707245642478E+03   -0.65727E-06   -0.69139E-06  2243   0.530E-03    0.207E-03
RMM:   3    -0.707245642386E+03    0.91502E-07   -0.16462E-07  1347   0.118E-03
 264 F= -.71551550E+03 E0= -.71551550E+03  d E =-.149157E-05
 curvature:  -0.53 expect dE=-0.254E-05 dE for cont linesearch -0.162E-10
 trial: gam= 1.46430 g(F)=  0.471E-05 g(S)=  0.956E-07 ort = 0.133E-07 (trialstep = 0.109E+00)
 search vector abs. value=  0.172E-04
 bond charge predicted
       N       E                     dE             d eps       ncg     rms          rms(c)
DAV:   1    -0.707245639681E+03    0.27967E-05   -0.30752E-05  2496   0.128E-02    0.129E-03
RMM:   2    -0.707245639765E+03   -0.84165E-07   -0.78456E-07  1953   0.187E-03    0.722E-04
RMM:   3    -0.707245639760E+03    0.50713E-08   -0.30961E-08  1237   0.545E-04
 265 F= -.71551550E+03 E0= -.71551550E+03  d E =-.456298E-06
 ZBRENT: can't locate minimum, use default step
 trial-energy change:   -0.000000  1 .order   -0.000000   -0.000001   -0.000000
 step:   0.4368(harm=  0.6476)  dis= 0.00006  next Energy=  -715.515498 (dE=-0.156E-05)
 bond charge predicted
       N       E                     dE             d eps       ncg     rms          rms(c)
DAV:   1    -0.707245630494E+03    0.92708E-05   -0.28501E-04  2272   0.388E-02    0.364E-03
RMM:   2    -0.707245631289E+03   -0.79498E-06   -0.80020E-06  2244   0.577E-03    0.217E-03
RMM:   3    -0.707245631186E+03    0.10310E-06   -0.19984E-07  1369   0.137E-03    0.143E-03
RMM:   4    -0.707245631205E+03   -0.18932E-07   -0.14772E-07  1322   0.990E-04
 266 F= -.71551550E+03 E0= -.71551550E+03  d E =-.114588E-05
 curvature:  -0.98 expect dE=-0.357E-05 dE for cont linesearch -0.278E-06
 trial: gam= 0.18131 g(F)=  0.363E-05 g(S)=  0.271E-07 ort = 0.221E-05 (trialstep = 0.175E+00)
 search vector abs. value=  0.502E-05
 bond charge predicted
       N       E                     dE             d eps       ncg     rms          rms(c)
DAV:   1    -0.707245624062E+03    0.71236E-05   -0.25282E-05  2320   0.116E-02    0.120E-03
RMM:   2    -0.707245624108E+03   -0.45533E-07   -0.82818E-07  2034   0.191E-03    0.720E-04
RMM:   3    -0.707245624097E+03    0.11343E-07   -0.29291E-08  1241   0.512E-04
 267 F= -.71551550E+03 E0= -.71551550E+03  d E =-.524454E-06
 trial-energy change:   -0.000001  1 .order   -0.000001   -0.000001   -0.000000
 step:   0.5135(harm=  0.5135)  dis= 0.00004  next Energy=  -715.515499 (dE=-0.104E-05)
 bond charge predicted
       N       E                     dE             d eps       ncg     rms          rms(c)
DAV:   1    -0.707245609490E+03    0.14618E-04   -0.94269E-05  2272   0.223E-02    0.233E-03
RMM:   2    -0.707245609713E+03   -0.22321E-06   -0.30342E-06  2240   0.361E-03    0.137E-03
RMM:   3    -0.707245609674E+03    0.39494E-07   -0.80122E-08  1280   0.837E-04
 268 F= -.71551550E+03 E0= -.71551550E+03  d E =-.897078E-06
 curvature:  -0.32 expect dE=-0.850E-06 dE for cont linesearch -0.112E-11
 trial: gam= 0.83523 g(F)=  0.257E-05 g(S)=  0.103E-06 ort =-0.421E-08 (trialstep = 0.197E+00)
 search vector abs. value=  0.617E-05
 reached required accuracy - stopping structural energy minimisation
Note: The following floating-point exceptions are signalling: IEEE_INVALID_FLAG IEEE_UNDERFLOW_FLAG IEEE_DENORMAL
Note: The following floating-point exceptions are signalling: IEEE_UNDERFLOW_FLAG IEEE_DENORMAL
Note: The following floating-point exceptions are signalling: IEEE_UNDERFLOW_FLAG IEEE_DENORMAL
Note: The following floating-point exceptions are signalling: IEEE_UNDERFLOW_FLAG IEEE_DENORMAL
Note: The following floating-point exceptions are signalling: IEEE_UNDERFLOW_FLAG IEEE_DENORMAL
Note: The following floating-point exceptions are signalling: IEEE_UNDERFLOW_FLAG IEEE_DENORMAL
Note: The following floating-point exceptions are signalling: IEEE_UNDERFLOW_FLAG IEEE_DENORMAL
Note: The following floating-point exceptions are signalling: IEEE_UNDERFLOW_FLAG IEEE_DENORMAL
Note: The following floating-point exceptions are signalling: IEEE_UNDERFLOW_FLAG IEEE_DENORMAL
Note: The following floating-point exceptions are signalling: IEEE_UNDERFLOW_FLAG IEEE_DENORMAL
Note: The following floating-point exceptions are signalling: IEEE_UNDERFLOW_FLAG IEEE_DENORMAL
Note: The following floating-point exceptions are signalling: IEEE_UNDERFLOW_FLAG IEEE_DENORMAL
Note: The following floating-point exceptions are signalling: IEEE_UNDERFLOW_FLAG IEEE_DENORMAL
Note: The following floating-point exceptions are signalling: IEEE_UNDERFLOW_FLAG IEEE_DENORMAL
Note: The following floating-point exceptions are signalling: IEEE_INVALID_FLAG IEEE_UNDERFLOW_FLAG IEEE_DENORMAL
Note: The following floating-point exceptions are signalling: IEEE_UNDERFLOW_FLAG IEEE_DENORMAL
Note: The following floating-point exceptions are signalling: IEEE_UNDERFLOW_FLAG IEEE_DENORMAL
Note: The following floating-point exceptions are signalling: IEEE_UNDERFLOW_FLAG IEEE_DENORMAL
Note: The following floating-point exceptions are signalling: IEEE_UNDERFLOW_FLAG IEEE_DENORMAL
Note: The following floating-point exceptions are signalling: IEEE_UNDERFLOW_FLAG IEEE_DENORMAL
Note: The following floating-point exceptions are signalling: IEEE_UNDERFLOW_FLAG IEEE_DENORMAL
Note: The following floating-point exceptions are signalling: IEEE_UNDERFLOW_FLAG IEEE_DENORMAL
Note: The following floating-point exceptions are signalling: IEEE_UNDERFLOW_FLAG IEEE_DENORMAL
Note: The following floating-point exceptions are signalling: IEEE_UNDERFLOW_FLAG IEEE_DENORMAL
Note: The following floating-point exceptions are signalling: IEEE_UNDERFLOW_FLAG IEEE_DENORMAL
Note: The following floating-point exceptions are signalling: IEEE_UNDERFLOW_FLAG IEEE_DENORMAL
Note: The following floating-point exceptions are signalling: IEEE_UNDERFLOW_FLAG IEEE_DENORMAL
Note: The following floating-point exceptions are signalling: IEEE_UNDERFLOW_FLAG IEEE_DENORMAL
Note: The following floating-point exceptions are signalling: IEEE_UNDERFLOW_FLAG IEEE_DENORMAL
Note: The following floating-point exceptions are signalling: IEEE_UNDERFLOW_FLAG IEEE_DENORMAL
Note: The following floating-point exceptions are signalling: IEEE_UNDERFLOW_FLAG IEEE_DENORMAL
Note: The following floating-point exceptions are signalling: IEEE_UNDERFLOW_FLAG IEEE_DENORMAL
Note: The following floating-point exceptions are signalling: IEEE_UNDERFLOW_FLAG IEEE_DENORMAL
Note: The following floating-point exceptions are signalling: IEEE_UNDERFLOW_FLAG IEEE_DENORMAL
Note: The following floating-point exceptions are signalling: IEEE_UNDERFLOW_FLAG IEEE_DENORMAL
Note: The following floating-point exceptions are signalling: IEEE_UNDERFLOW_FLAG IEEE_DENORMAL
Note: The following floating-point exceptions are signalling: IEEE_UNDERFLOW_FLAG IEEE_DENORMAL
Note: The following floating-point exceptions are signalling: IEEE_INVALID_FLAG IEEE_UNDERFLOW_FLAG IEEE_DENORMAL
Note: The following floating-point exceptions are signalling: IEEE_UNDERFLOW_FLAG IEEE_DENORMAL
Note: The following floating-point exceptions are signalling: IEEE_INVALID_FLAG IEEE_UNDERFLOW_FLAG IEEE_DENORMAL
Note: The following floating-point exceptions are signalling: IEEE_UNDERFLOW_FLAG IEEE_DENORMAL
Note: The following floating-point exceptions are signalling: IEEE_UNDERFLOW_FLAG IEEE_DENORMAL
Note: The following floating-point exceptions are signalling: IEEE_UNDERFLOW_FLAG IEEE_DENORMAL
Note: The following floating-point exceptions are signalling: IEEE_UNDERFLOW_FLAG IEEE_DENORMAL
Note: The following floating-point exceptions are signalling: IEEE_UNDERFLOW_FLAG IEEE_DENORMAL
Note: The following floating-point exceptions are signalling: IEEE_INVALID_FLAG IEEE_UNDERFLOW_FLAG IEEE_DENORMAL
Note: The following floating-point exceptions are signalling: IEEE_UNDERFLOW_FLAG IEEE_DENORMAL
Note: The following floating-point exceptions are signalling: IEEE_UNDERFLOW_FLAG IEEE_DENORMAL
Note: The following floating-point exceptions are signalling: IEEE_UNDERFLOW_FLAG IEEE_DENORMAL
Note: The following floating-point exceptions are signalling: IEEE_INVALID_FLAG IEEE_UNDERFLOW_FLAG IEEE_DENORMAL
Note: The following floating-point exceptions are signalling: IEEE_UNDERFLOW_FLAG IEEE_DENORMAL
Note: The following floating-point exceptions are signalling: IEEE_UNDERFLOW_FLAG IEEE_DENORMAL
Note: The following floating-point exceptions are signalling: IEEE_UNDERFLOW_FLAG IEEE_DENORMAL
Note: The following floating-point exceptions are signalling: IEEE_UNDERFLOW_FLAG IEEE_DENORMAL
Note: The following floating-point exceptions are signalling: IEEE_UNDERFLOW_FLAG IEEE_DENORMAL
Note: The following floating-point exceptions are signalling: IEEE_UNDERFLOW_FLAG IEEE_DENORMAL
Note: The following floating-point exceptions are signalling: IEEE_UNDERFLOW_FLAG IEEE_DENORMAL
Note: The following floating-point exceptions are signalling: IEEE_UNDERFLOW_FLAG IEEE_DENORMAL
Note: The following floating-point exceptions are signalling: IEEE_UNDERFLOW_FLAG IEEE_DENORMAL
Note: The following floating-point exceptions are signalling: IEEE_UNDERFLOW_FLAG IEEE_DENORMAL
Note: The following floating-point exceptions are signalling: IEEE_UNDERFLOW_FLAG IEEE_DENORMAL
Note: The following floating-point exceptions are signalling: IEEE_UNDERFLOW_FLAG IEEE_DENORMAL
Note: The following floating-point exceptions are signalling: IEEE_UNDERFLOW_FLAG IEEE_DENORMAL
Note: The following floating-point exceptions are signalling: IEEE_UNDERFLOW_FLAG IEEE_DENORMAL
Note: The following floating-point exceptions are signalling: IEEE_UNDERFLOW_FLAG IEEE_DENORMAL
Note: The following floating-point exceptions are signalling: IEEE_UNDERFLOW_FLAG IEEE_DENORMAL
Note: The following floating-point exceptions are signalling: IEEE_UNDERFLOW_FLAG IEEE_DENORMAL
Note: The following floating-point exceptions are signalling: IEEE_UNDERFLOW_FLAG IEEE_DENORMAL
Note: The following floating-point exceptions are signalling: IEEE_INVALID_FLAG IEEE_UNDERFLOW_FLAG IEEE_DENORMAL
Note: The following floating-point exceptions are signalling: IEEE_UNDERFLOW_FLAG IEEE_DENORMAL
Note: The following floating-point exceptions are signalling: IEEE_INVALID_FLAG IEEE_UNDERFLOW_FLAG IEEE_DENORMAL
Note: The following floating-point exceptions are signalling: IEEE_UNDERFLOW_FLAG IEEE_DENORMAL
Note: The following floating-point exceptions are signalling: IEEE_UNDERFLOW_FLAG IEEE_DENORMAL
Note: The following floating-point exceptions are signalling: IEEE_INVALID_FLAG IEEE_UNDERFLOW_FLAG IEEE_DENORMAL
Note: The following floating-point exceptions are signalling: IEEE_UNDERFLOW_FLAG IEEE_DENORMAL
Note: The following floating-point exceptions are signalling: IEEE_UNDERFLOW_FLAG IEEE_DENORMAL
Note: The following floating-point exceptions are signalling: IEEE_UNDERFLOW_FLAG IEEE_DENORMAL
Note: The following floating-point exceptions are signalling: IEEE_UNDERFLOW_FLAG IEEE_DENORMAL
Note: The following floating-point exceptions are signalling: IEEE_UNDERFLOW_FLAG IEEE_DENORMAL
Note: The following floating-point exceptions are signalling: IEEE_UNDERFLOW_FLAG IEEE_DENORMAL
Note: The following floating-point exceptions are signalling: IEEE_UNDERFLOW_FLAG IEEE_DENORMAL
Note: The following floating-point exceptions are signalling: IEEE_UNDERFLOW_FLAG IEEE_DENORMAL
Note: The following floating-point exceptions are signalling: IEEE_UNDERFLOW_FLAG IEEE_DENORMAL
Note: The following floating-point exceptions are signalling: IEEE_INVALID_FLAG IEEE_UNDERFLOW_FLAG IEEE_DENORMAL
Note: The following floating-point exceptions are signalling: IEEE_UNDERFLOW_FLAG IEEE_DENORMAL
Note: The following floating-point exceptions are signalling: IEEE_UNDERFLOW_FLAG IEEE_DENORMAL
Note: The following floating-point exceptions are signalling: IEEE_INVALID_FLAG IEEE_UNDERFLOW_FLAG IEEE_DENORMAL
Note: The following floating-point exceptions are signalling: IEEE_UNDERFLOW_FLAG IEEE_DENORMAL
Note: The following floating-point exceptions are signalling: IEEE_INVALID_FLAG IEEE_UNDERFLOW_FLAG IEEE_DENORMAL
Note: The following floating-point exceptions are signalling: IEEE_UNDERFLOW_FLAG IEEE_DENORMAL
Note: The following floating-point exceptions are signalling: IEEE_UNDERFLOW_FLAG IEEE_DENORMAL
Note: The following floating-point exceptions are signalling: IEEE_INVALID_FLAG IEEE_UNDERFLOW_FLAG IEEE_DENORMAL
Note: The following floating-point exceptions are signalling: IEEE_UNDERFLOW_FLAG IEEE_DENORMAL
Note: The following floating-point exceptions are signalling: IEEE_UNDERFLOW_FLAG IEEE_DENORMAL
Note: The following floating-point exceptions are signalling: IEEE_UNDERFLOW_FLAG IEEE_DENORMAL
Note: The following floating-point exceptions are signalling: IEEE_UNDERFLOW_FLAG IEEE_DENORMAL
Note: The following floating-point exceptions are signalling: IEEE_UNDERFLOW_FLAG IEEE_DENORMAL
Note: The following floating-point exceptions are signalling: IEEE_UNDERFLOW_FLAG IEEE_DENORMAL
Note: The following floating-point exceptions are signalling: IEEE_UNDERFLOW_FLAG IEEE_DENORMAL
Note: The following floating-point exceptions are signalling: IEEE_INVALID_FLAG IEEE_UNDERFLOW_FLAG IEEE_DENORMAL
Note: The following floating-point exceptions are signalling: IEEE_UNDERFLOW_FLAG IEEE_DENORMAL
Note: The following floating-point exceptions are signalling: IEEE_INVALID_FLAG IEEE_UNDERFLOW_FLAG IEEE_DENORMAL
Note: The following floating-point exceptions are signalling: IEEE_UNDERFLOW_FLAG IEEE_DENORMAL
Note: The following floating-point exceptions are signalling: IEEE_UNDERFLOW_FLAG IEEE_DENORMAL
Note: The following floating-point exceptions are signalling: IEEE_UNDERFLOW_FLAG IEEE_DENORMAL
Note: The following floating-point exceptions are signalling: IEEE_UNDERFLOW_FLAG IEEE_DENORMAL
Note: The following floating-point exceptions are signalling: IEEE_UNDERFLOW_FLAG IEEE_DENORMAL
Note: The following floating-point exceptions are signalling: IEEE_UNDERFLOW_FLAG IEEE_DENORMAL
Note: The following floating-point exceptions are signalling: IEEE_UNDERFLOW_FLAG IEEE_DENORMAL
Note: The following floating-point exceptions are signalling: IEEE_UNDERFLOW_FLAG IEEE_DENORMAL
Note: The following floating-point exceptions are signalling: IEEE_INVALID_FLAG IEEE_UNDERFLOW_FLAG IEEE_DENORMAL
Note: The following floating-point exceptions are signalling: IEEE_UNDERFLOW_FLAG IEEE_DENORMAL
Note: The following floating-point exceptions are signalling: IEEE_UNDERFLOW_FLAG IEEE_DENORMAL
Note: The following floating-point exceptions are signalling: IEEE_UNDERFLOW_FLAG IEEE_DENORMAL
Note: The following floating-point exceptions are signalling: IEEE_UNDERFLOW_FLAG IEEE_DENORMAL
Note: The following floating-point exceptions are signalling: IEEE_UNDERFLOW_FLAG IEEE_DENORMAL
Note: The following floating-point exceptions are signalling: IEEE_UNDERFLOW_FLAG IEEE_DENORMAL
Note: The following floating-point exceptions are signalling: IEEE_INVALID_FLAG IEEE_UNDERFLOW_FLAG IEEE_DENORMAL
Note: The following floating-point exceptions are signalling: IEEE_INVALID_FLAG IEEE_UNDERFLOW_FLAG IEEE_DENORMAL
Note: The following floating-point exceptions are signalling: IEEE_UNDERFLOW_FLAG IEEE_DENORMAL
Note: The following floating-point exceptions are signalling: IEEE_UNDERFLOW_FLAG IEEE_DENORMAL
Note: The following floating-point exceptions are signalling: IEEE_UNDERFLOW_FLAG IEEE_DENORMAL
Note: The following floating-point exceptions are signalling: IEEE_UNDERFLOW_FLAG IEEE_DENORMAL
Note: The following floating-point exceptions are signalling: IEEE_UNDERFLOW_FLAG IEEE_DENORMAL
Note: The following floating-point exceptions are signalling: IEEE_UNDERFLOW_FLAG IEEE_DENORMAL
Note: The following floating-point exceptions are signalling: IEEE_UNDERFLOW_FLAG IEEE_DENORMAL
Note: The following floating-point exceptions are signalling: IEEE_UNDERFLOW_FLAG IEEE_DENORMAL
Note: The following floating-point exceptions are signalling: IEEE_UNDERFLOW_FLAG IEEE_DENORMAL

JOB STATISTICS
==============
Job ID: 409853
Cluster: snellius
User/Group: srinidhi/srinidhi
State: COMPLETED (exit code 0)
Nodes: 1
Cores per node: 128
CPU Utilized: 7-23:42:44
CPU Efficiency: 98.200f 8-03:14:08 core-walltime
Job Wall-clock time: 01:31:31
Memory Utilized: 92.78 GB (estimated maximum)
Memory Efficiency: 39.580f 234.38 GB (1.83 GB/core)
