Zn2 H50 C40 S2 N4 Cl2 O12               
   1.0000000000000000     
     0.0000000013790903   -9.6409104533990799   -0.0000000010753131
   -10.2776321934641501    4.8204557255408078    1.1725727157164803
     0.0262438865556346   -0.0000000012836314  -11.3181108949082976
   C    Cl   H    N    O    S    Zn
    40     2    50     4    12     2     2
Direct
  0.1041678214446975  0.0238193481893560  0.8409694967457852
  0.0803484732549578  0.9761806518106440  0.1590305032542361
  0.1823769304591423  0.9462162366435152  0.8383805034813889
  0.2361606938153855  0.0537837633564990  0.1616194965184476
  0.1015661970619135  0.8114365694355428  0.8384457954375222
  0.2901296276261363  0.1885634305644572  0.1615542045622007
  0.8666128753962639  0.8256256461302698  0.8458402180086395
  0.0409872292654399  0.1743743538697231  0.1541597819913676
  0.7050343717114700  0.7636297992172416  0.8511011252100928
  0.9414045724934965  0.2363702007827513  0.1488988747900208
  0.6191903303236046  0.8336851244636776  0.8515237192151659
  0.7855042058589703  0.1663148755363082  0.1484762807851396
  0.6919580413294710  0.9705675997537924  0.8477070215310434
  0.7213904415747479  0.0294324002461792  0.1522929784693616
  0.8503622236633106  0.0349194442822736  0.8458143302087180
  0.8154427793802128  0.9650805557176625  0.1541856697915804
  0.9410048199711767  0.9641281664617551  0.8440342086424835
  0.9768776535088435  0.0358718335382093  0.1559657913576231
  0.6650804817273297  0.1678863302369180  0.8372298731268728
  0.4971931514895260  0.8321136697629612  0.1627701268734683
  0.1926062382954257  0.1694963206801958  0.8403854342469543
  0.0231099176148106  0.8305036793198184  0.1596145657531167
  0.1738751151825397  0.2047427956737593  0.7149951260828260
  0.9691323195083754  0.7952572043263046  0.2850048739170390
  0.2482353052014545  0.1526488996041309  0.6160433973027892
  0.0955864055968334  0.8473511003959402  0.3839566026968697
  0.2983131293549022  0.2492476970525956  0.5225348897492381
  0.0490654323011768  0.7507523029474257  0.4774651102505345
  0.1692405995568294  0.2913834806520157  0.4963527040387987
  0.8778571189036697  0.7086165193478848  0.5036472959611231
  0.1570868570009125  0.3749620558106130  0.6084270396390465
  0.7821248011899939  0.6250379441895433  0.3915729603607687
  0.4052053112847815  0.4161036049282245  0.6995841837548937
  0.9891017063556617  0.5838963950720952  0.3004158162445520
  0.4398486234843304  0.3707125904443700  0.5745237651095465
  0.0691360330391930  0.6292874095557224  0.4254762348901835
  0.0211757854133481  0.1786167705577810  0.4512144490652759
  0.8425580148542480  0.8213832294419561  0.5487855509348591
  0.8788059722424322  0.1651661783728642  0.4705158140955845
  0.7136387938694924  0.8348338216267877  0.5294841859048347
  0.8370917788295316  0.4443033654752426  0.6684518049928414
  0.3927884133520010  0.5556966345246721  0.3315481950075991
  0.3069489187328998  0.9890838471649275  0.8392877404783334
  0.3178650715677804  0.0109161528351294  0.1607122595214463
  0.1624410320270044  0.7495057484488683  0.8373463986340255
  0.4129352835779940  0.2504942515511601  0.1626536013655127
  0.6495241586981280  0.6590752285031414  0.8558989395513663
  0.9904489301941837  0.3409247714968728  0.1441010604487047
  0.4948889791398940  0.7854036092748657  0.8560638996738135
  0.7094853698636641  0.2145963907250916  0.1439361003265560
  0.9051983042125258  0.1403278483695729  0.8486641078865986
  0.7648704558420576  0.8596721516303916  0.1513358921137780
  0.7451257962595506  0.2223111625181247  0.9133882176284942
  0.5228146337399622  0.7776888374817403  0.0866117823717047
  0.5700630807137728  0.1960879081722666  0.8367998139886339
  0.3739751725408951  0.8039120918275486  0.1632001860117498
  0.7260587056482919  0.1882661837593389  0.7543630931664609
  0.5377925218884130  0.8117338162405687  0.2456369068337949
  0.1419806242231516  0.2191125194778678  0.9031827263136947
  0.9228681047447793  0.7808874805220114  0.0968172736865114
  0.3832210331992059  0.2879372258592170  0.9318557626798878
  0.0952828073401406  0.7120627741406693  0.0681442373201406
  0.0505809039861020  0.1681633836314376  0.6932745695192253
  0.8824175203545295  0.8318366163685909  0.3067254304807676
  0.3479350424508780  0.1424261990260405  0.6522290103563577
  0.2055098434251406  0.8575738009741087  0.3477709896431946
  0.1648655388354854  0.0557387863415713  0.5783906840823505
  0.1091267524930259  0.9442612136584927  0.4216093159171308
  0.3251204857770773  0.2052768790052184  0.4397066388687634
  0.1198436067702531  0.7947231209947176  0.5602933611310590
  0.2092287029256354  0.3554572215182574  0.4252005076034351
  0.8537714814058717  0.6445427784816005  0.5747994923964868
  0.2160817521132472  0.4795167225643624  0.6008221561208487
  0.7365640295486600  0.5204832774359929  0.3991778438789382
  0.0392626352215544  0.3535380015908345  0.6316933531619355
  0.6857246336308336  0.6464619984092792  0.3683066468379650
  0.2010843697800269  0.3878152042728189  0.7902398328056606
  0.8132691655071511  0.6121847957274795  0.2097601671940410
  0.4369643125812459  0.5209401083006782  0.7140372307172669
  0.9160242042799212  0.4790598916998547  0.2859627692819871
  0.4603946469493962  0.3903089583498414  0.7703457787862860
  0.0700856885979846  0.6096910416505494  0.2296542212129822
  0.5400038611865412  0.3491956448377209  0.5818197984769071
  0.1908082163488416  0.6508043551623715  0.4181802015226097
  0.4671658283190823  0.4472901458612739  0.5155468118885835
  0.0198756824568633  0.5527098541387545  0.4844531881116865
  0.0353352963664690  0.1028633596706641  0.3917065065276049
  0.9324719366928989  0.8971366403290375  0.6082934934724520
  0.8534767124999405  0.2369971918264326  0.5264659933124491
  0.6164795206751776  0.7630028081732689  0.4735340066880909
  0.7809402470795135  0.0804310235302665  0.4282318334022719
  0.7005102235485055  0.9195689764692005  0.5717681665982610
  0.9491014453683135  0.7526572241421547  0.8426113142902594
  0.1964442212257893  0.2473427758578168  0.1573886857095488
  0.2346900953475455  0.3507615615801285  0.7123635455434751
  0.8839285337670759  0.6492384384201060  0.2876364544562122
  0.5966019692023252  0.0300057509978373  0.8468680151176144
  0.5665972182034764  0.9699942490021485  0.1531319848829327
  0.3486640189233299  0.2083397460463914  0.8740702967006300
  0.1403242728765122  0.7916602539536015  0.1259297032993558
  0.0170047821585371  0.5682303106267597  0.9712474453551465
  0.4487754715310714  0.4317696893732617  0.0287525546451448
  0.2599916433706326  0.6028466142688771  0.8790315643689794
  0.6571450291010876  0.3971533857310803  0.1209684356315890
  0.2058598305871371  0.5379455404344426  0.0807749556941175
  0.6679142901532629  0.4620544595655716  0.9192250443055059
  0.0756460133715677  0.3829863074930557  0.9053455973590374
  0.6926587058779816  0.6170136925070295  0.0946544026411829
  0.1436661324006892  0.5215721032694702  0.9548798566565182
  0.6220940291308423  0.4784278967305227  0.0451201433436168
  0.8633018780799934  0.5560898785070738  0.8469292770001052
  0.3072136921062452  0.4439135065600937  0.1543963832072848

  0.00000000E+00  0.00000000E+00  0.00000000E+00
  0.00000000E+00  0.00000000E+00  0.00000000E+00
  0.00000000E+00  0.00000000E+00  0.00000000E+00
  0.00000000E+00  0.00000000E+00  0.00000000E+00
  0.00000000E+00  0.00000000E+00  0.00000000E+00
  0.00000000E+00  0.00000000E+00  0.00000000E+00
  0.00000000E+00  0.00000000E+00  0.00000000E+00
  0.00000000E+00  0.00000000E+00  0.00000000E+00
  0.00000000E+00  0.00000000E+00  0.00000000E+00
  0.00000000E+00  0.00000000E+00  0.00000000E+00
  0.00000000E+00  0.00000000E+00  0.00000000E+00
  0.00000000E+00  0.00000000E+00  0.00000000E+00
  0.00000000E+00  0.00000000E+00  0.00000000E+00
  0.00000000E+00  0.00000000E+00  0.00000000E+00
  0.00000000E+00  0.00000000E+00  0.00000000E+00
  0.00000000E+00  0.00000000E+00  0.00000000E+00
  0.00000000E+00  0.00000000E+00  0.00000000E+00
  0.00000000E+00  0.00000000E+00  0.00000000E+00
  0.00000000E+00  0.00000000E+00  0.00000000E+00
  0.00000000E+00  0.00000000E+00  0.00000000E+00
  0.00000000E+00  0.00000000E+00  0.00000000E+00
  0.00000000E+00  0.00000000E+00  0.00000000E+00
  0.00000000E+00  0.00000000E+00  0.00000000E+00
  0.00000000E+00  0.00000000E+00  0.00000000E+00
  0.00000000E+00  0.00000000E+00  0.00000000E+00
  0.00000000E+00  0.00000000E+00  0.00000000E+00
  0.00000000E+00  0.00000000E+00  0.00000000E+00
  0.00000000E+00  0.00000000E+00  0.00000000E+00
  0.00000000E+00  0.00000000E+00  0.00000000E+00
  0.00000000E+00  0.00000000E+00  0.00000000E+00
  0.00000000E+00  0.00000000E+00  0.00000000E+00
  0.00000000E+00  0.00000000E+00  0.00000000E+00
  0.00000000E+00  0.00000000E+00  0.00000000E+00
  0.00000000E+00  0.00000000E+00  0.00000000E+00
  0.00000000E+00  0.00000000E+00  0.00000000E+00
  0.00000000E+00  0.00000000E+00  0.00000000E+00
  0.00000000E+00  0.00000000E+00  0.00000000E+00
  0.00000000E+00  0.00000000E+00  0.00000000E+00
  0.00000000E+00  0.00000000E+00  0.00000000E+00
  0.00000000E+00  0.00000000E+00  0.00000000E+00
  0.00000000E+00  0.00000000E+00  0.00000000E+00
  0.00000000E+00  0.00000000E+00  0.00000000E+00
  0.00000000E+00  0.00000000E+00  0.00000000E+00
  0.00000000E+00  0.00000000E+00  0.00000000E+00
  0.00000000E+00  0.00000000E+00  0.00000000E+00
  0.00000000E+00  0.00000000E+00  0.00000000E+00
  0.00000000E+00  0.00000000E+00  0.00000000E+00
  0.00000000E+00  0.00000000E+00  0.00000000E+00
  0.00000000E+00  0.00000000E+00  0.00000000E+00
  0.00000000E+00  0.00000000E+00  0.00000000E+00
  0.00000000E+00  0.00000000E+00  0.00000000E+00
  0.00000000E+00  0.00000000E+00  0.00000000E+00
  0.00000000E+00  0.00000000E+00  0.00000000E+00
  0.00000000E+00  0.00000000E+00  0.00000000E+00
  0.00000000E+00  0.00000000E+00  0.00000000E+00
  0.00000000E+00  0.00000000E+00  0.00000000E+00
  0.00000000E+00  0.00000000E+00  0.00000000E+00
  0.00000000E+00  0.00000000E+00  0.00000000E+00
  0.00000000E+00  0.00000000E+00  0.00000000E+00
  0.00000000E+00  0.00000000E+00  0.00000000E+00
  0.00000000E+00  0.00000000E+00  0.00000000E+00
  0.00000000E+00  0.00000000E+00  0.00000000E+00
  0.00000000E+00  0.00000000E+00  0.00000000E+00
  0.00000000E+00  0.00000000E+00  0.00000000E+00
  0.00000000E+00  0.00000000E+00  0.00000000E+00
  0.00000000E+00  0.00000000E+00  0.00000000E+00
  0.00000000E+00  0.00000000E+00  0.00000000E+00
  0.00000000E+00  0.00000000E+00  0.00000000E+00
  0.00000000E+00  0.00000000E+00  0.00000000E+00
  0.00000000E+00  0.00000000E+00  0.00000000E+00
  0.00000000E+00  0.00000000E+00  0.00000000E+00
  0.00000000E+00  0.00000000E+00  0.00000000E+00
  0.00000000E+00  0.00000000E+00  0.00000000E+00
  0.00000000E+00  0.00000000E+00  0.00000000E+00
  0.00000000E+00  0.00000000E+00  0.00000000E+00
  0.00000000E+00  0.00000000E+00  0.00000000E+00
  0.00000000E+00  0.00000000E+00  0.00000000E+00
  0.00000000E+00  0.00000000E+00  0.00000000E+00
  0.00000000E+00  0.00000000E+00  0.00000000E+00
  0.00000000E+00  0.00000000E+00  0.00000000E+00
  0.00000000E+00  0.00000000E+00  0.00000000E+00
  0.00000000E+00  0.00000000E+00  0.00000000E+00
  0.00000000E+00  0.00000000E+00  0.00000000E+00
  0.00000000E+00  0.00000000E+00  0.00000000E+00
  0.00000000E+00  0.00000000E+00  0.00000000E+00
  0.00000000E+00  0.00000000E+00  0.00000000E+00
  0.00000000E+00  0.00000000E+00  0.00000000E+00
  0.00000000E+00  0.00000000E+00  0.00000000E+00
  0.00000000E+00  0.00000000E+00  0.00000000E+00
  0.00000000E+00  0.00000000E+00  0.00000000E+00
  0.00000000E+00  0.00000000E+00  0.00000000E+00
  0.00000000E+00  0.00000000E+00  0.00000000E+00
  0.00000000E+00  0.00000000E+00  0.00000000E+00
  0.00000000E+00  0.00000000E+00  0.00000000E+00
  0.00000000E+00  0.00000000E+00  0.00000000E+00
  0.00000000E+00  0.00000000E+00  0.00000000E+00
  0.00000000E+00  0.00000000E+00  0.00000000E+00
  0.00000000E+00  0.00000000E+00  0.00000000E+00
  0.00000000E+00  0.00000000E+00  0.00000000E+00
  0.00000000E+00  0.00000000E+00  0.00000000E+00
  0.00000000E+00  0.00000000E+00  0.00000000E+00
  0.00000000E+00  0.00000000E+00  0.00000000E+00
  0.00000000E+00  0.00000000E+00  0.00000000E+00
  0.00000000E+00  0.00000000E+00  0.00000000E+00
  0.00000000E+00  0.00000000E+00  0.00000000E+00
  0.00000000E+00  0.00000000E+00  0.00000000E+00
  0.00000000E+00  0.00000000E+00  0.00000000E+00
  0.00000000E+00  0.00000000E+00  0.00000000E+00
  0.00000000E+00  0.00000000E+00  0.00000000E+00
  0.00000000E+00  0.00000000E+00  0.00000000E+00
  0.00000000E+00  0.00000000E+00  0.00000000E+00
  0.00000000E+00  0.00000000E+00  0.00000000E+00
