Zn2 H50 C40 S2 N4 Cl2 O12               
   1.0000000000000000     
     0.0000000013790903   -9.6409104533990799   -0.0000000010753131
   -10.2776321934641501    4.8204557255408078    1.1725727157164803
     0.0262438865556346   -0.0000000012836314  -11.3181108949082976
   C    Cl   H    N    O    S    Zn
    40     2    50     4    12     2     2
Direct
  0.1041678214446981  0.0238193481893593  0.8409694967457880
  0.0803484732549542  0.9761806518106416  0.1590305032542385
  0.1823769304591407  0.9462162366435167  0.8383805034813906
  0.2361606938153823  0.0537837633565003  0.1616194965184501
  0.1015661970619148  0.8114365694355433  0.8384457954375250
  0.2901296276261353  0.1885634305644558  0.1615542045621987
  0.8666128753962636  0.8256256461302687  0.8458402180086365
  0.0409872292654382  0.1743743538697201  0.1541597819913685
  0.7050343717114722  0.7636297992172448  0.8511011252100908
  0.9414045724934984  0.2363702007827519  0.1488988747900242
  0.6191903303236079  0.8336851244636792  0.8515237192151669
  0.7855042058589681  0.1663148755363056  0.1484762807851386
  0.6919580413294742  0.9705675997537914  0.8477070215310422
  0.7213904415747482  0.0294324002461786  0.1522929784693649
  0.8503622236633092  0.0349194442822742  0.8458143302087199
  0.8154427793802096  0.9650805557176637  0.1541856697915799
  0.9410048199711781  0.9641281664617558  0.8440342086424857
  0.9768776535088459  0.0358718335382076  0.1559657913576251
  0.6650804817273325  0.1678863302369173  0.8372298731268693
  0.4971931514895289  0.8321136697629615  0.1627701268734701
  0.1926062382954238  0.1694963206801959  0.8403854342469530
  0.0231099176148109  0.8305036793198193  0.1596145657531172
  0.1738751151825409  0.2047427956737576  0.7149951260828279
  0.9691323195083734  0.7952572043263026  0.2850048739170420
  0.2482353052014561  0.1526488996041343  0.6160433973027877
  0.0955864055968318  0.8473511003959403  0.3839566026968680
  0.2983131293549002  0.2492476970525984  0.5225348897492390
  0.0490654323011795  0.7507523029474286  0.4774651102505373
  0.1692405995568328  0.2913834806520192  0.4963527040387952
  0.8778571189036681  0.7086165193478852  0.5036472959611220
  0.1570868570009114  0.3749620558106162  0.6084270396390452
  0.7821248011899924  0.6250379441895419  0.3915729603607677
  0.4052053112847781  0.4161036049282245  0.6995841837548964
  0.9891017063556627  0.5838963950720938  0.3004158162445542
  0.4398486234843333  0.3707125904443681  0.5745237651095471
  0.0691360330391900  0.6292874095557245  0.4254762348901843
  0.0211757854133480  0.1786167705577786  0.4512144490652732
  0.8425580148542456  0.8213832294419553  0.5487855509348577
  0.8788059722424307  0.1651661783728639  0.4705158140955853
  0.7136387938694901  0.8348338216267868  0.5294841859048337
  0.8370917788295326  0.4443033654752452  0.6684518049928391
  0.3927884133520045  0.5556966345246692  0.3315481950076004
  0.3069489187329007  0.9890838471649259  0.8392877404783343
  0.3178650715677826  0.0109161528351308  0.1607122595214474
  0.1624410320270054  0.7495057484488710  0.8373463986340225
  0.4129352835779967  0.2504942515511609  0.1626536013655155
  0.6495241586981273  0.6590752285031447  0.8558989395513695
  0.9904489301941832  0.3409247714968742  0.1441010604487014
  0.4948889791398960  0.7854036092748657  0.8560638996738167
  0.7094853698636633  0.2145963907250938  0.1439361003265535
  0.9051983042125259  0.1403278483695705  0.8486641078865990
  0.7648704558420543  0.8596721516303908  0.1513358921137786
  0.7451257962595484  0.2223111625181265  0.9133882176284931
  0.5228146337399654  0.7776888374817426  0.0866117823717059
  0.5700630807137713  0.1960879081722689  0.8367998139886327
  0.3739751725408978  0.8039120918275472  0.1632001860117473
  0.7260587056482919  0.1882661837593380  0.7543630931664581
  0.5377925218884126  0.8117338162405699  0.2456369068337922
  0.1419806242231516  0.2191125194778688  0.9031827263136952
  0.9228681047447820  0.7808874805220132  0.0968172736865103
  0.3832210331992078  0.2879372258592163  0.9318557626798913
  0.0952828073401388  0.7120627741406719  0.0681442373201384
  0.0505809039861029  0.1681633836314384  0.6932745695192255
  0.8824175203545273  0.8318366163685919  0.3067254304807672
  0.3479350424508768  0.1424261990260402  0.6522290103563546
  0.2055098434251434  0.8575738009741121  0.3477709896431955
  0.1648655388354865  0.0557387863415702  0.5783906840823522
  0.1091267524930280  0.9442612136584940  0.4216093159171298
  0.3251204857770795  0.2052768790052199  0.4397066388687644
  0.1198436067702499  0.7947231209947152  0.5602933611310557
  0.2092287029256381  0.3554572215182594  0.4252005076034319
  0.8537714814058736  0.6445427784816038  0.5747994923964843
  0.2160817521132438  0.4795167225643651  0.6008221561208467
  0.7365640295486588  0.5204832774359941  0.3991778438789371
  0.0392626352215556  0.3535380015908373  0.6316933531619339
  0.6857246336308342  0.6464619984092823  0.3683066468379678
  0.2010843697800297  0.3878152042728217  0.7902398328056621
  0.8132691655071503  0.6121847957274763  0.2097601671940444
  0.4369643125812440  0.5209401083006761  0.7140372307172679
  0.9160242042799184  0.4790598916998558  0.2859627692819892
  0.4603946469493932  0.3903089583498437  0.7703457787862827
  0.0700856885979817  0.6096910416505489  0.2296542212129841
  0.5400038611865404  0.3491956448377179  0.5818197984769049
  0.1908082163488451  0.6508043551623722  0.4181802015226088
  0.4671658283190845  0.4472901458612719  0.5155468118885800
  0.0198756824568634  0.5527098541387550  0.4844531881116879
  0.0353352963664711  0.1028633596706673  0.3917065065276079
  0.9324719366929008  0.8971366403290398  0.6082934934724513
  0.8534767124999412  0.2369971918264333  0.5264659933124467
  0.6164795206751803  0.7630028081732713  0.4735340066880937
  0.7809402470795134  0.0804310235302665  0.4282318334022718
  0.7005102235485035  0.9195689764692031  0.5717681665982606
  0.9491014453683129  0.7526572241421574  0.8426113142902620
  0.1964442212257904  0.2473427758578201  0.1573886857095464
  0.2346900953475442  0.3507615615801270  0.7123635455434741
  0.8839285337670748  0.6492384384201075  0.2876364544562137
  0.5966019692023261  0.0300057509978378  0.8468680151176111
  0.5665972182034786  0.9699942490021505  0.1531319848829293
  0.3486640189233274  0.2083397460463925  0.8740702967006284
  0.1403242728765154  0.7916602539536040  0.1259297032993560
  0.0170047821585360  0.5682303106267564  0.9712474453551464
  0.4487754715310734  0.4317696893732625  0.0287525546451456
  0.2599916433706360  0.6028466142688761  0.8790315643689812
  0.6571450291010896  0.3971533857310806  0.1209684356315881
  0.2058598305871354  0.5379455404344410  0.0807749556941193
  0.6679142901532659  0.4620544595655707  0.9192250443055033
  0.0756460133715661  0.3829863074930570  0.9053455973590402
  0.6926587058779848  0.6170136925070326  0.0946544026411821
  0.1436661324006897  0.5215721032694680  0.9548798566565159
  0.6220940291308449  0.4784278967305192  0.0451201433436201
  0.8633001855463707  0.5560864934398302  0.8456036167926018
  0.3072136921062439  0.4439135065600910  0.1543963832072855

  0.00000000E+00  0.00000000E+00  0.00000000E+00
  0.00000000E+00  0.00000000E+00  0.00000000E+00
  0.00000000E+00  0.00000000E+00  0.00000000E+00
  0.00000000E+00  0.00000000E+00  0.00000000E+00
  0.00000000E+00  0.00000000E+00  0.00000000E+00
  0.00000000E+00  0.00000000E+00  0.00000000E+00
  0.00000000E+00  0.00000000E+00  0.00000000E+00
  0.00000000E+00  0.00000000E+00  0.00000000E+00
  0.00000000E+00  0.00000000E+00  0.00000000E+00
  0.00000000E+00  0.00000000E+00  0.00000000E+00
  0.00000000E+00  0.00000000E+00  0.00000000E+00
  0.00000000E+00  0.00000000E+00  0.00000000E+00
  0.00000000E+00  0.00000000E+00  0.00000000E+00
  0.00000000E+00  0.00000000E+00  0.00000000E+00
  0.00000000E+00  0.00000000E+00  0.00000000E+00
  0.00000000E+00  0.00000000E+00  0.00000000E+00
  0.00000000E+00  0.00000000E+00  0.00000000E+00
  0.00000000E+00  0.00000000E+00  0.00000000E+00
  0.00000000E+00  0.00000000E+00  0.00000000E+00
  0.00000000E+00  0.00000000E+00  0.00000000E+00
  0.00000000E+00  0.00000000E+00  0.00000000E+00
  0.00000000E+00  0.00000000E+00  0.00000000E+00
  0.00000000E+00  0.00000000E+00  0.00000000E+00
  0.00000000E+00  0.00000000E+00  0.00000000E+00
  0.00000000E+00  0.00000000E+00  0.00000000E+00
  0.00000000E+00  0.00000000E+00  0.00000000E+00
  0.00000000E+00  0.00000000E+00  0.00000000E+00
  0.00000000E+00  0.00000000E+00  0.00000000E+00
  0.00000000E+00  0.00000000E+00  0.00000000E+00
  0.00000000E+00  0.00000000E+00  0.00000000E+00
  0.00000000E+00  0.00000000E+00  0.00000000E+00
  0.00000000E+00  0.00000000E+00  0.00000000E+00
  0.00000000E+00  0.00000000E+00  0.00000000E+00
  0.00000000E+00  0.00000000E+00  0.00000000E+00
  0.00000000E+00  0.00000000E+00  0.00000000E+00
  0.00000000E+00  0.00000000E+00  0.00000000E+00
  0.00000000E+00  0.00000000E+00  0.00000000E+00
  0.00000000E+00  0.00000000E+00  0.00000000E+00
  0.00000000E+00  0.00000000E+00  0.00000000E+00
  0.00000000E+00  0.00000000E+00  0.00000000E+00
  0.00000000E+00  0.00000000E+00  0.00000000E+00
  0.00000000E+00  0.00000000E+00  0.00000000E+00
  0.00000000E+00  0.00000000E+00  0.00000000E+00
  0.00000000E+00  0.00000000E+00  0.00000000E+00
  0.00000000E+00  0.00000000E+00  0.00000000E+00
  0.00000000E+00  0.00000000E+00  0.00000000E+00
  0.00000000E+00  0.00000000E+00  0.00000000E+00
  0.00000000E+00  0.00000000E+00  0.00000000E+00
  0.00000000E+00  0.00000000E+00  0.00000000E+00
  0.00000000E+00  0.00000000E+00  0.00000000E+00
  0.00000000E+00  0.00000000E+00  0.00000000E+00
  0.00000000E+00  0.00000000E+00  0.00000000E+00
  0.00000000E+00  0.00000000E+00  0.00000000E+00
  0.00000000E+00  0.00000000E+00  0.00000000E+00
  0.00000000E+00  0.00000000E+00  0.00000000E+00
  0.00000000E+00  0.00000000E+00  0.00000000E+00
  0.00000000E+00  0.00000000E+00  0.00000000E+00
  0.00000000E+00  0.00000000E+00  0.00000000E+00
  0.00000000E+00  0.00000000E+00  0.00000000E+00
  0.00000000E+00  0.00000000E+00  0.00000000E+00
  0.00000000E+00  0.00000000E+00  0.00000000E+00
  0.00000000E+00  0.00000000E+00  0.00000000E+00
  0.00000000E+00  0.00000000E+00  0.00000000E+00
  0.00000000E+00  0.00000000E+00  0.00000000E+00
  0.00000000E+00  0.00000000E+00  0.00000000E+00
  0.00000000E+00  0.00000000E+00  0.00000000E+00
  0.00000000E+00  0.00000000E+00  0.00000000E+00
  0.00000000E+00  0.00000000E+00  0.00000000E+00
  0.00000000E+00  0.00000000E+00  0.00000000E+00
  0.00000000E+00  0.00000000E+00  0.00000000E+00
  0.00000000E+00  0.00000000E+00  0.00000000E+00
  0.00000000E+00  0.00000000E+00  0.00000000E+00
  0.00000000E+00  0.00000000E+00  0.00000000E+00
  0.00000000E+00  0.00000000E+00  0.00000000E+00
  0.00000000E+00  0.00000000E+00  0.00000000E+00
  0.00000000E+00  0.00000000E+00  0.00000000E+00
  0.00000000E+00  0.00000000E+00  0.00000000E+00
  0.00000000E+00  0.00000000E+00  0.00000000E+00
  0.00000000E+00  0.00000000E+00  0.00000000E+00
  0.00000000E+00  0.00000000E+00  0.00000000E+00
  0.00000000E+00  0.00000000E+00  0.00000000E+00
  0.00000000E+00  0.00000000E+00  0.00000000E+00
  0.00000000E+00  0.00000000E+00  0.00000000E+00
  0.00000000E+00  0.00000000E+00  0.00000000E+00
  0.00000000E+00  0.00000000E+00  0.00000000E+00
  0.00000000E+00  0.00000000E+00  0.00000000E+00
  0.00000000E+00  0.00000000E+00  0.00000000E+00
  0.00000000E+00  0.00000000E+00  0.00000000E+00
  0.00000000E+00  0.00000000E+00  0.00000000E+00
  0.00000000E+00  0.00000000E+00  0.00000000E+00
  0.00000000E+00  0.00000000E+00  0.00000000E+00
  0.00000000E+00  0.00000000E+00  0.00000000E+00
  0.00000000E+00  0.00000000E+00  0.00000000E+00
  0.00000000E+00  0.00000000E+00  0.00000000E+00
  0.00000000E+00  0.00000000E+00  0.00000000E+00
  0.00000000E+00  0.00000000E+00  0.00000000E+00
  0.00000000E+00  0.00000000E+00  0.00000000E+00
  0.00000000E+00  0.00000000E+00  0.00000000E+00
  0.00000000E+00  0.00000000E+00  0.00000000E+00
  0.00000000E+00  0.00000000E+00  0.00000000E+00
  0.00000000E+00  0.00000000E+00  0.00000000E+00
  0.00000000E+00  0.00000000E+00  0.00000000E+00
  0.00000000E+00  0.00000000E+00  0.00000000E+00
  0.00000000E+00  0.00000000E+00  0.00000000E+00
  0.00000000E+00  0.00000000E+00  0.00000000E+00
  0.00000000E+00  0.00000000E+00  0.00000000E+00
  0.00000000E+00  0.00000000E+00  0.00000000E+00
  0.00000000E+00  0.00000000E+00  0.00000000E+00
  0.00000000E+00  0.00000000E+00  0.00000000E+00
  0.00000000E+00  0.00000000E+00  0.00000000E+00
  0.00000000E+00  0.00000000E+00  0.00000000E+00
  0.00000000E+00  0.00000000E+00  0.00000000E+00
