Zn2 H44 C40 N8 O8
1.0
  -7.6793702759249598    0.0000000000000000    1.7863955279168175
  -3.8396851379624795   -7.8551750000000000    0.8931977639584082
   0.0000000000000000    0.0000000000000000   16.4278000000000013
C H N O Zn
40 44 8 8 2
direct
   0.7788557999999999    0.1484804000000002    0.0044382999999999 C
   0.9273361999999999    0.8515196000000002    0.5044383000000000 C
   0.0907009999999999    0.0136634000000000    0.9987765000000000 C
   0.1043644000000001    0.9863365999999998    0.4987765000000000 C
   0.0320349000000000    0.8961228000000000    0.9827522000000001 C
   0.9281577000000001    0.1038771999999997    0.4827522000000001 C
   0.7094999000000000    0.9172642000000000    0.9660259000000000 C
   0.6267640999999999    0.0827358000000001    0.4660259000000000 C
   0.7322160999999998    0.9122726000000002    0.8713704000000000 C
   0.6444886999999999    0.0877274000000001    0.3713704000000000 C
   0.5763894999999999    0.8778035999999999    0.8476920000000001 C
   0.4541930999999999    0.1221963999999999    0.3476920000000001 C
   0.6018731999999999    0.8761944000000002    0.7530715000000001 C
   0.4780676000000000    0.1238055999999999    0.2530715000000000 C
   0.5078594000000001    0.7332757999999997    0.6596921000000000 C
   0.2411352000000000    0.2667242000000000    0.1596921000000000 C
   0.1953695999999998    0.8347122000000000    0.7065199000000000 C
   0.0300817999999999    0.1652878000000000    0.2065199000000000 C
   0.2653177000000000    0.8999213999999998    0.7563154000000002 C
   0.1652390999999999    0.1000786000000000    0.2563154000000000 C
   0.5546146000000000    0.5580269999999998    0.1343185999999998 C
   0.1126416000000001    0.4419729999999998    0.6343186000000001 C
   0.3861385999999999    0.7156620000000000    0.1800706000000001 C
   0.1018006000000000    0.2843379999999999    0.6800706000000001 C
   0.2182405999999998    0.6841936000000003    0.2274769000000001 C
   0.9024341999999999    0.3158064000000002    0.7274769000000001 C
   0.2186172000000000    0.6126012000000001    0.3077471000000001 C
   0.8312184000000000    0.3873988000000000    0.8077471000000001 C
   0.0732110999999999    0.5651306000000000    0.3471446999999999 C
   0.6383416999999999    0.4348694000000000    0.8471447000000000 C
   0.9241417999999998    0.5861320000000001    0.3075372999999999 C
   0.5102738000000000    0.4138680000000000    0.8075373000000001 C
   0.9192257000000000    0.6648942000000001    0.2291124000000000 C
   0.5841198999999999    0.3351058000000002    0.7291124000000001 C
   0.0635755000000001    0.7138810000000000    0.1899403000000000 C
   0.7774565000000001    0.2861189999999998    0.6899403000000000 C
   0.7823616000000000    0.5152310000000000    0.3450320000000000 C
   0.2975926000000000    0.4847690000000000    0.8450320000000000 C
   0.6360771000000001    0.5983685999999999    0.4250270999999999 C
   0.2344457000000000    0.4016314000000000    0.9250271000000000 C
   0.6304037000000000    0.2449098000000001    0.0110413999999999 H
   0.8753134999999999    0.7550902000000002    0.5110414000000000 H
   0.2328913000000001    0.9980631999999998    0.0027322000000001 H
   0.2309545000000002    0.0019367999999996    0.5027322000000000 H
   0.1073565999999999    0.7602568000000000    0.9711640000000001 H
   0.8676134000000000    0.2397431999999999    0.4711640000000001 H
   0.7456478000000002    0.7908493999999997    0.9943504000000002 H
   0.5364972000000001    0.2091505999999999    0.4943504000000000 H
   0.5602073999999999    0.0044848000000002    0.9940536000000000 H
   0.5646922000000000    0.9955151999999999    0.4940536000000000 H
   0.7217574000000000    0.0360156000000000    0.8453735000000001 H
   0.7577730000000000    0.9639844000000000    0.3453735000000000 H
   0.8771477999999999    0.8134562000000001    0.8446393000000000 H
   0.6906040000000000    0.1865438000000000    0.3446393000000000 H
   0.4336477999999999    0.9782380000000002    0.8752006000000001 H
   0.4118858000000001    0.0217619999999997    0.3752006000000000 H
   0.5836982000000001    0.7548362000000000    0.8731950000000001 H
   0.3385344000000000    0.2451637999999999    0.3731950000000000 H
   0.7461858999999998    0.7800616000000000    0.7244308000000002 H
   0.5262474999999999    0.2199384000000001    0.2244308000000000 H
   0.5858776999999999    0.0015936000000001    0.7272780000000000 H
   0.5874713000000000    0.9984063999999999    0.2272780000000000 H
   0.6553025000000000    0.6630303999999998    0.6257424000000000 H
   0.3183329000000001    0.3369695999999998    0.1257424000000000 H
   0.0480620999999999    0.8555418000000001    0.7090403000000001 H
   0.9036039000000000    0.1444581999999996    0.2090403000000000 H
   0.1928293000000001    0.9852525999999997    0.8093879000000000 H
   0.1780819000000000    0.0147474000000000    0.3093879000000000 H
   0.4471240999999999    0.7590091999999999    0.2217833000000000 H
   0.2061333000000001    0.2409907999999997    0.7217833000000000 H
   0.3410673000000000    0.8173809999999999    0.1335324000000000 H
   0.1584483000000001    0.1826189999999998    0.6335324000000000 H
   0.3360545000000001    0.5895565999999999    0.3392628000000000 H
   0.9256111000000000    0.4104434000000000    0.8392628000000000 H
   0.0785617999999999    0.5068264000000000    0.4091103000000001 H
   0.5853881999999999    0.4931735999999998    0.9091103000000000 H
   0.8069562000000000    0.6802598000000000    0.1960302999999999 H
   0.4872160000000000    0.3197402000000001    0.6960303000000000 H
   0.0587171000000000    0.7719714000000000    0.1280581999999999 H
   0.8306884999999999    0.2280286000000000    0.6280582000000001 H
   0.6971561000000001    0.5210945999999999    0.2991381000000000 H
   0.2182507000000000    0.4789053999999999    0.7991381000000000 H
   0.8610434000000000    0.3785071999999999    0.3575086999999999 H
   0.2395506000000001    0.6214928000000000    0.8575087000000001 H
   0.9310947000000001    0.1706465999999999    0.0123883999999999 N
   0.1017412999999999    0.8293534000000001    0.5123884000000000 N
   0.8344795000000000    0.9838178000000000    0.9869124000000001 N
   0.8182972999999999    0.0161822000000001    0.4869124000000001 N
   0.4630444000000000    0.8347477999999999    0.7256268000000001 N
   0.2977922000000001    0.1652521999999997    0.2256268000000000 N
   0.3480955000000000    0.7309360000000000    0.6465669000000001 N
   0.0790315000000002    0.2690639999999996    0.1465669000000000 N
   0.6993045000000001    0.5853033999999997    0.0927782000000001 O
   0.2846079000000000    0.4146966000000000    0.5927782000000000 O
   0.5494420000000001    0.4174457999999999    0.1389909999999999 O
   0.9668878000000001    0.5825541999999998    0.6389910000000000 O
   0.6092165000000000    0.7374691999999998    0.4509563000000001 O
   0.3466856999999999    0.2625308000000001    0.9509563000000000 O
   0.5431169000000000    0.5103603999999997    0.4602792000000001 O
   0.0534773000000001    0.4896395999999998    0.9602792000000000 O
   0.9398017999999999    0.3774772000000000    0.0517322999999999 Zn
   0.3172790000000000    0.6225228000000000    0.5517323000000000 Zn
