submit directory /gpfs/home3/srinidhi/BEC_work/highthroughput/mof_calcs/02-02-2022_Zn/GAXQAZ_FSR
 running on  128 total cores
 distrk:  each k-point on   32 cores,    4 groups
 distr:  one band on   16 cores,    2 groups
 using from now: INCAR     
 vasp.5.4.4.18Apr17-6-g9f103f2a35 (build Oct 14 2021 09:59:43) complex           
 POSCAR found type information on POSCAR  C  H  N  O  Zn
 POSCAR found :  5 types and     102 ions
 scaLAPACK will be used

 ----------------------------------------------------------------------------- 
|                                                                             |
|           W    W    AA    RRRRR   N    N  II  N    N   GGGG   !!!           |
|           W    W   A  A   R    R  NN   N  II  NN   N  G    G  !!!           |
|           W    W  A    A  R    R  N N  N  II  N N  N  G       !!!           |
|           W WW W  AAAAAA  RRRRR   N  N N  II  N  N N  G  GGG   !            |
|           WW  WW  A    A  R   R   N   NN  II  N   NN  G    G                |
|           W    W  A    A  R    R  N    N  II  N    N   GGGG   !!!           |
|                                                                             |
|      You have enabled k-point parallelism (KPAR>1).                         |
|      This developmental code was originally  written by Paul Kent at ORNL,  |
|      and carefully double checked in Vienna.                                |
|      GW as well as linear response parallelism added by Martijn Marsman     |
|      and Georg Kresse.                                                      |
|      Carefully verify results versus KPAR=1.                                |
|      Report problems to Paul Kent and Vienna.                               |
|                                                                             |
 ----------------------------------------------------------------------------- 


 ----------------------------------------------------------------------------- 
|                                                                             |
|  ADVICE TO THIS USER RUNNING 'VASP/VAMP'   (HEAR YOUR MASTER'S VOICE ...):  |
|                                                                             |
|      You have a (more or less) 'large supercell' and for larger cells       |
|      it might be more efficient to use real space projection opertators     |
|      So try LREAL= Auto  in the INCAR   file.                               |
|      Mind:          For very  accurate calculation you might also keep the  |
|      reciprocal projection scheme          (i.e. LREAL=.FALSE.)             |
|                                                                             |
 ----------------------------------------------------------------------------- 

 LDA part: xc-table for Pade appr. of Perdew
 POSCAR, INCAR and KPOINTS ok, starting setup
 FFT: planning ...
 WAVECAR not read
 entering main loop
       N       E                     dE             d eps       ncg     rms          rms(c)
DAV:   1     0.203959614332E+04    0.20396E+04   -0.14857E+05  1260   0.138E+03
DAV:   2    -0.410616203572E+03   -0.24502E+04   -0.23282E+04  1524   0.324E+02
DAV:   3    -0.693589067608E+03   -0.28297E+03   -0.27954E+03  1514   0.124E+02
DAV:   4    -0.703718665606E+03   -0.10130E+02   -0.10072E+02  1504   0.271E+01
DAV:   5    -0.704075248210E+03   -0.35658E+00   -0.35628E+00  1752   0.472E+00    0.431E+01
RMM:   6    -0.658551935273E+03    0.45523E+02   -0.90194E+01  1260   0.163E+01    0.229E+01
RMM:   7    -0.650309664542E+03    0.82423E+01   -0.27036E+01  1260   0.867E+00    0.107E+01
RMM:   8    -0.649769903266E+03    0.53976E+00   -0.35042E+00  1284   0.367E+00    0.323E+00
RMM:   9    -0.649754596077E+03    0.15307E-01   -0.36081E-01  1260   0.122E+00    0.673E-01
RMM:  10    -0.649766182149E+03   -0.11586E-01   -0.32707E-02  1298   0.449E-01    0.372E-01
RMM:  11    -0.649771335490E+03   -0.51533E-02   -0.10524E-02  1268   0.219E-01    0.146E-01
RMM:  12    -0.649772588648E+03   -0.12532E-02   -0.20974E-03  1261   0.960E-02    0.595E-02
RMM:  13    -0.649772814779E+03   -0.22613E-03   -0.52499E-04  1260   0.521E-02    0.224E-02
RMM:  14    -0.649772829387E+03   -0.14608E-04   -0.80789E-05  1290   0.211E-02    0.103E-02
RMM:  15    -0.649772830013E+03   -0.62587E-06   -0.23573E-05  1266   0.101E-02    0.413E-03
RMM:  16    -0.649772830162E+03   -0.14846E-06   -0.28005E-06  1266   0.340E-03    0.159E-03
RMM:  17    -0.649772830244E+03   -0.82809E-07   -0.62206E-07  1116   0.174E-03
   1 F= -.65708066E+03 E0= -.65708066E+03  d E =-.657081E+03
 curvature:   0.00 expect dE= 0.000E+00 dE for cont linesearch  0.000E+00
 trial: gam= 0.00000 g(F)=  0.565E-03 g(S)=  0.110E-02 ort = 0.000E+00 (trialstep = 0.100E+01)
 search vector abs. value=  0.166E-02
 bond charge predicted
       N       E                     dE             d eps       ncg     rms          rms(c)
DAV:   1    -0.649771889836E+03    0.94033E-03   -0.10682E-01  1386   0.858E-01    0.158E-01
RMM:   2    -0.649771707633E+03    0.18220E-03   -0.34522E-03  1260   0.154E-01    0.920E-02
RMM:   3    -0.649771555215E+03    0.15242E-03   -0.39498E-04  1266   0.432E-02    0.362E-02
RMM:   4    -0.649771537019E+03    0.18195E-04   -0.63499E-05  1291   0.181E-02    0.112E-02
RMM:   5    -0.649771536476E+03    0.54371E-06   -0.61443E-06  1277   0.609E-03    0.489E-03
RMM:   6    -0.649771536725E+03   -0.24959E-06   -0.15510E-06  1237   0.241E-03    0.181E-03
RMM:   7    -0.649771536805E+03   -0.79555E-07   -0.13162E-07   792   0.101E-03
   2 F= -.65708139E+03 E0= -.65708139E+03  d E =-.732872E-03
 trial-energy change:   -0.000733  1 .order   -0.000730   -0.001663    0.000204
 step:   0.8916(harm=  0.8906)  dis= 0.00095  next Energy=  -657.081399 (dE=-0.744E-03)
 bond charge predicted
       N       E                     dE             d eps       ncg     rms          rms(c)
DAV:   1    -0.649771773039E+03   -0.23631E-03   -0.12558E-03  1360   0.932E-02    0.172E-02
RMM:   2    -0.649771770654E+03    0.23857E-05   -0.40492E-05  1260   0.168E-02    0.100E-02
RMM:   3    -0.649771768486E+03    0.21674E-05   -0.46375E-06  1266   0.467E-03    0.392E-03
RMM:   4    -0.649771768080E+03    0.40594E-06   -0.71471E-07  1228   0.195E-03    0.121E-03
RMM:   5    -0.649771768005E+03    0.75861E-07   -0.64675E-08   780   0.737E-04
   3 F= -.65708140E+03 E0= -.65708140E+03  d E =-.744435E-03
 curvature:  -0.45 expect dE=-0.118E-02 dE for cont linesearch -0.168E-08
 trial: gam= 1.59690 g(F)=  0.254E-02 g(S)=  0.115E-03 ort =-0.250E-05 (trialstep = 0.236E+00)
 search vector abs. value=  0.689E-02
 bond charge predicted
       N       E                     dE             d eps       ncg     rms          rms(c)
DAV:   1    -0.649771384567E+03    0.38351E-03   -0.25106E-02  1368   0.397E-01    0.674E-02
RMM:   2    -0.649771357300E+03    0.27267E-04   -0.72323E-04  1260   0.687E-02    0.384E-02
RMM:   3    -0.649771330160E+03    0.27141E-04   -0.66891E-05  1262   0.181E-02    0.170E-02
RMM:   4    -0.649771325713E+03    0.44466E-05   -0.15907E-05  1284   0.836E-03    0.521E-03
RMM:   5    -0.649771325695E+03    0.17713E-07   -0.13021E-06  1263   0.286E-03    0.227E-03
RMM:   6    -0.649771325836E+03   -0.14087E-06   -0.36097E-07   942   0.122E-03    0.749E-04
RMM:   7    -0.649771325857E+03   -0.20518E-07   -0.37579E-08   786   0.549E-04
   4 F= -.65708186E+03 E0= -.65708186E+03  d E =-.464295E-03
 trial-energy change:   -0.000464  1 .order   -0.000469   -0.000626   -0.000311
 step:   0.5213(harm=  0.4697)  dis= 0.00099  next Energy=  -657.082044 (dE=-0.644E-03)
 bond charge predicted
       N       E                     dE             d eps       ncg     rms          rms(c)
DAV:   1    -0.649770459936E+03    0.86590E-03   -0.36541E-02  1320   0.479E-01    0.813E-02
RMM:   2    -0.649770420153E+03    0.39784E-04   -0.10512E-03  1260   0.829E-02    0.463E-02
RMM:   3    -0.649770380587E+03    0.39566E-04   -0.97354E-05  1262   0.218E-02    0.205E-02
RMM:   4    -0.649770374053E+03    0.65338E-05   -0.23154E-05  1284   0.101E-02    0.629E-03
RMM:   5    -0.649770373987E+03    0.66020E-07   -0.19093E-06  1283   0.345E-03    0.276E-03
RMM:   6    -0.649770374168E+03   -0.18051E-06   -0.54218E-07  1065   0.143E-03    0.906E-04
RMM:   7    -0.649770374192E+03   -0.24493E-07   -0.48687E-08   786   0.637E-04
   5 F= -.65708201E+03 E0= -.65708201E+03  d E =-.607688E-03
 curvature:  -0.58 expect dE=-0.132E-02 dE for cont linesearch -0.695E-05
 trial: gam= 0.95783 g(F)=  0.216E-02 g(S)=  0.105E-03 ort =-0.287E-03 (trialstep = 0.251E+00)
 search vector abs. value=  0.804E-02
 bond charge predicted
       N       E                     dE             d eps       ncg     rms          rms(c)
DAV:   1    -0.649770273148E+03    0.10102E-03   -0.30972E-02  1336   0.435E-01    0.677E-02
RMM:   2    -0.649770257395E+03    0.15753E-04   -0.71075E-04  1260   0.699E-02    0.403E-02
RMM:   3    -0.649770225360E+03    0.32036E-04   -0.79512E-05  1260   0.192E-02    0.150E-02
RMM:   4    -0.649770222486E+03    0.28734E-05   -0.12120E-05  1290   0.788E-03    0.505E-03
RMM:   5    -0.649770222320E+03    0.16647E-06   -0.10863E-06  1269   0.257E-03    0.236E-03
RMM:   6    -0.649770222335E+03   -0.15280E-07   -0.37396E-07   959   0.116E-03
   6 F= -.65708239E+03 E0= -.65708239E+03  d E =-.379884E-03
 trial-energy change:   -0.000380  1 .order   -0.000382   -0.000501   -0.000263
 step:   0.5732(harm=  0.5300)  dis= 0.00143  next Energy=  -657.082551 (dE=-0.544E-03)
 bond charge predicted
       N       E                     dE             d eps       ncg     rms          rms(c)
DAV:   1    -0.649769760616E+03    0.46170E-03   -0.50785E-02  1320   0.557E-01    0.867E-02
RMM:   2    -0.649769734406E+03    0.26210E-04   -0.11667E-03  1260   0.896E-02    0.516E-02
RMM:   3    -0.649769681892E+03    0.52513E-04   -0.13065E-04  1260   0.245E-02    0.192E-02
RMM:   4    -0.649769677150E+03    0.47425E-05   -0.19954E-05  1290   0.101E-02    0.650E-03
RMM:   5    -0.649769676866E+03    0.28385E-06   -0.18057E-06  1284   0.330E-03    0.304E-03
RMM:   6    -0.649769676891E+03   -0.24829E-07   -0.64283E-07  1111   0.146E-03
   7 F= -.65708252E+03 E0= -.65708252E+03  d E =-.516541E-03
 curvature:  -1.04 expect dE=-0.265E-02 dE for cont linesearch -0.349E-05
 trial: gam= 0.94606 g(F)=  0.238E-02 g(S)=  0.164E-03 ort =-0.164E-03 (trialstep = 0.269E+00)
 search vector abs. value=  0.943E-02
 bond charge predicted
       N       E                     dE             d eps       ncg     rms          rms(c)
DAV:   1    -0.649769775030E+03   -0.98164E-04   -0.44222E-02  1304   0.509E-01    0.648E-02
RMM:   2    -0.649769778670E+03   -0.36392E-05   -0.81333E-04  1260   0.722E-02    0.385E-02
RMM:   3    -0.649769750072E+03    0.28597E-04   -0.78532E-05  1266   0.196E-02    0.149E-02
RMM:   4    -0.649769748017E+03    0.20552E-05   -0.12132E-05  1296   0.780E-03    0.498E-03
RMM:   5    -0.649769747982E+03    0.34732E-07   -0.10498E-06  1252   0.246E-03    0.193E-03
RMM:   6    -0.649769748040E+03   -0.57782E-07   -0.19897E-07   813   0.949E-04
   8 F= -.65708305E+03 E0= -.65708305E+03  d E =-.529638E-03
 trial-energy change:   -0.000530  1 .order   -0.000534   -0.000643   -0.000424
 step:   0.7914(harm=  0.7914)  dis= 0.00296  next Energy=  -657.083470 (dE=-0.946E-03)
 bond charge predicted
       N       E                     dE             d eps       ncg     rms          rms(c)
DAV:   1    -0.649769360882E+03    0.38710E-03   -0.16653E-01  1272   0.988E-01    0.126E-01
RMM:   2    -0.649769377979E+03   -0.17097E-04   -0.30635E-03  1260   0.140E-01    0.748E-02
RMM:   3    -0.649769271581E+03    0.10640E-03   -0.29470E-04  1266   0.381E-02    0.289E-02
RMM:   4    -0.649769263870E+03    0.77110E-05   -0.45753E-05  1296   0.151E-02    0.965E-03
RMM:   5    -0.649769263502E+03    0.36806E-06   -0.39534E-06  1280   0.478E-03    0.375E-03
RMM:   6    -0.649769263653E+03   -0.15089E-06   -0.84586E-07  1196   0.181E-03    0.133E-03
RMM:   7    -0.649769263636E+03    0.16385E-07   -0.79160E-08   786   0.743E-04
   9 F= -.65708346E+03 E0= -.65708346E+03  d E =-.936378E-03
 curvature:  -1.56 expect dE=-0.465E-02 dE for cont linesearch -0.447E-08
 trial: gam= 1.15792 g(F)=  0.265E-02 g(S)=  0.323E-03 ort = 0.520E-05 (trialstep = 0.225E+00)
 search vector abs. value=  0.156E-01
 bond charge predicted
       N       E                     dE             d eps       ncg     rms          rms(c)
DAV:   1    -0.649768685670E+03    0.57798E-03   -0.55262E-02  1272   0.573E-01    0.622E-02
RMM:   2    -0.649768718201E+03   -0.32532E-04   -0.94072E-04  1260   0.769E-02    0.362E-02
RMM:   3    -0.649768699409E+03    0.18792E-04   -0.67605E-05  1266   0.195E-02    0.155E-02
RMM:   4    -0.649768697520E+03    0.18892E-05   -0.13351E-05  1298   0.793E-03    0.443E-03
RMM:   5    -0.649768697515E+03    0.54170E-08   -0.86079E-07  1239   0.236E-03
  10 F= -.65708400E+03 E0= -.65708400E+03  d E =-.543052E-03
 trial-energy change:   -0.000543  1 .order   -0.000543   -0.000672   -0.000415
 step:   0.5896(harm=  0.5896)  dis= 0.00303  next Energy=  -657.084339 (dE=-0.879E-03)
 bond charge predicted
       N       E                     dE             d eps       ncg     rms          rms(c)
DAV:   1    -0.649767209823E+03    0.14877E-02   -0.14442E-01  1272   0.926E-01    0.101E-01
RMM:   2    -0.649767295293E+03   -0.85470E-04   -0.24649E-03  1260   0.124E-01    0.586E-02
RMM:   3    -0.649767246155E+03    0.49138E-04   -0.17793E-04  1266   0.316E-02    0.251E-02
RMM:   4    -0.649767241159E+03    0.49967E-05   -0.35035E-05  1298   0.128E-02    0.722E-03
RMM:   5    -0.649767241033E+03    0.12573E-06   -0.22840E-06  1278   0.383E-03    0.333E-03
RMM:   6    -0.649767241138E+03   -0.10552E-06   -0.81550E-07  1148   0.161E-03    0.966E-04
RMM:   7    -0.649767241110E+03    0.28826E-07   -0.52533E-08   786   0.622E-04
  11 F= -.65708434E+03 E0= -.65708434E+03  d E =-.879267E-03
 curvature:  -1.55 expect dE=-0.397E-02 dE for cont linesearch -0.272E-07
 trial: gam= 0.91500 g(F)=  0.234E-02 g(S)=  0.229E-03 ort = 0.166E-04 (trialstep = 0.297E+00)
 search vector abs. value=  0.157E-01
 bond charge predicted
       N       E                     dE             d eps       ncg     rms          rms(c)
DAV:   1    -0.649766604589E+03    0.63655E-03   -0.10074E-01  1268   0.791E-01    0.879E-02
RMM:   2    -0.649766663449E+03   -0.58861E-04   -0.17812E-03  1260   0.106E-01    0.480E-02
RMM:   3    -0.649766638653E+03    0.24796E-04   -0.11110E-04  1260   0.264E-02    0.235E-02
RMM:   4    -0.649766634278E+03    0.43756E-05   -0.23892E-05  1302   0.106E-02    0.657E-03
RMM:   5    -0.649766634360E+03   -0.82138E-07   -0.16986E-06  1275   0.330E-03    0.266E-03
RMM:   6    -0.649766634458E+03   -0.97676E-07   -0.48234E-07  1071   0.130E-03
  12 F= -.65708491E+03 E0= -.65708491E+03  d E =-.570613E-03
 trial-energy change:   -0.000571  1 .order   -0.000577   -0.000769   -0.000385
 step:   0.6825(harm=  0.5958)  dis= 0.00277  next Energy=  -657.085146 (dE=-0.807E-03)
 bond charge predicted
       N       E                     dE             d eps       ncg     rms          rms(c)
DAV:   1    -0.649765236422E+03    0.13979E-02   -0.16951E-01  1264   0.103E+00    0.114E-01
RMM:   2    -0.649765334830E+03   -0.98409E-04   -0.30024E-03  1260   0.138E-01    0.623E-02
RMM:   3    -0.649765292929E+03    0.41902E-04   -0.18767E-04  1260   0.343E-02    0.305E-02
RMM:   4    -0.649765285388E+03    0.75410E-05   -0.40229E-05  1303   0.137E-02    0.855E-03
RMM:   5    -0.649765285422E+03   -0.34113E-07   -0.28614E-06  1274   0.428E-03    0.346E-03
RMM:   6    -0.649765285541E+03   -0.11984E-06   -0.83705E-07  1194   0.169E-03    0.103E-03
RMM:   7    -0.649765285550E+03   -0.83382E-08   -0.53679E-08   786   0.654E-04
  13 F= -.65708509E+03 E0= -.65708509E+03  d E =-.746761E-03
 curvature:  -1.65 expect dE=-0.522E-02 dE for cont linesearch -0.144E-04
 trial: gam= 1.37967 g(F)=  0.309E-02 g(S)=  0.658E-04 ort =-0.370E-03 (trialstep = 0.183E+00)
 search vector abs. value=  0.320E-01
 bond charge predicted
       N       E                     dE             d eps       ncg     rms          rms(c)
DAV:   1    -0.649764393681E+03    0.89186E-03   -0.83965E-02  1272   0.710E-01    0.761E-02
RMM:   2    -0.649764459096E+03   -0.65415E-04   -0.14653E-03  1260   0.934E-02    0.413E-02
RMM:   3    -0.649764441111E+03    0.17985E-04   -0.86686E-05  1270   0.240E-02    0.203E-02
RMM:   4    -0.649764438580E+03    0.25309E-05   -0.19379E-05  1299   0.944E-03    0.561E-03
RMM:   5    -0.649764438737E+03   -0.15742E-06   -0.12076E-06  1262   0.276E-03    0.231E-03
RMM:   6    -0.649764438874E+03   -0.13662E-06   -0.32853E-07   931   0.111E-03    0.696E-04
RMM:   7    -0.649764438885E+03   -0.10856E-07   -0.37299E-08   786   0.575E-04
  14 F= -.65708546E+03 E0= -.65708546E+03  d E =-.376033E-03
 trial-energy change:   -0.000376  1 .order   -0.000379   -0.000485   -0.000272
 step:   0.4780(harm=  0.4177)  dis= 0.00261  next Energy=  -657.085669 (dE=-0.583E-03)
 bond charge predicted
       N       E                     dE             d eps       ncg     rms          rms(c)
DAV:   1    -0.649762513248E+03    0.19256E-02   -0.21641E-01  1260   0.114E+00    0.122E-01
RMM:   2    -0.649762682258E+03   -0.16901E-03   -0.37782E-03  1260   0.150E-01    0.662E-02
RMM:   3    -0.649762635444E+03    0.46814E-04   -0.22353E-04  1270   0.386E-02    0.326E-02
RMM:   4    -0.649762628272E+03    0.71727E-05   -0.50009E-05  1299   0.152E-02    0.902E-03
RMM:   5    -0.649762628389E+03   -0.11741E-06   -0.31222E-06  1269   0.444E-03    0.372E-03
RMM:   6    -0.649762628608E+03   -0.21942E-06   -0.90512E-07  1194   0.178E-03    0.113E-03
RMM:   7    -0.649762628615E+03   -0.62864E-08   -0.62330E-08   786   0.686E-04
  15 F= -.65708562E+03 E0= -.65708562E+03  d E =-.530404E-03
 curvature:  -2.36 expect dE=-0.542E-02 dE for cont linesearch -0.111E-04
 trial: gam= 0.52885 g(F)=  0.218E-02 g(S)=  0.117E-03 ort =-0.388E-03 (trialstep = 0.242E+00)
 search vector abs. value=  0.108E-01
 bond charge predicted
       N       E                     dE             d eps       ncg     rms          rms(c)
DAV:   1    -0.649762252429E+03    0.37618E-03   -0.49787E-02  1288   0.543E-01    0.549E-02
RMM:   2    -0.649762301857E+03   -0.49428E-04   -0.86012E-04  1260   0.724E-02    0.336E-02
RMM:   3    -0.649762289072E+03    0.12785E-04   -0.47362E-05  1264   0.179E-02    0.164E-02
RMM:   4    -0.649762286842E+03    0.22299E-05   -0.13170E-05  1306   0.784E-03    0.413E-03
RMM:   5    -0.649762286837E+03    0.48003E-08   -0.70436E-07  1210   0.215E-03
  16 F= -.65708602E+03 E0= -.65708602E+03  d E =-.401034E-03
 trial-energy change:   -0.000401  1 .order   -0.000400   -0.000508   -0.000292
 step:   0.5468(harm=  0.5699)  dis= 0.00195  next Energy=  -657.086204 (dE=-0.587E-03)
 bond charge predicted
       N       E                     dE             d eps       ncg     rms          rms(c)
DAV:   1    -0.649761499709E+03    0.78713E-03   -0.78558E-02  1260   0.682E-01    0.690E-02
RMM:   2    -0.649761578096E+03   -0.78387E-04   -0.13615E-03  1260   0.911E-02    0.424E-02
RMM:   3    -0.649761557777E+03    0.20319E-04   -0.75424E-05  1266   0.226E-02    0.207E-02
RMM:   4    -0.649761554209E+03    0.35675E-05   -0.20823E-05  1305   0.985E-03    0.524E-03
RMM:   5    -0.649761554183E+03    0.26619E-07   -0.11473E-06  1263   0.272E-03    0.263E-03
RMM:   6    -0.649761554224E+03   -0.41346E-07   -0.36310E-07   975   0.111E-03
  17 F= -.65708622E+03 E0= -.65708622E+03  d E =-.600735E-03
 curvature:  -1.47 expect dE=-0.317E-02 dE for cont linesearch -0.110E-05
 trial: gam= 0.82907 g(F)=  0.206E-02 g(S)=  0.107E-03 ort = 0.903E-04 (trialstep = 0.303E+00)
 search vector abs. value=  0.976E-02
 bond charge predicted
       N       E                     dE             d eps       ncg     rms          rms(c)
DAV:   1    -0.649761963881E+03   -0.40970E-03   -0.60429E-02  1268   0.602E-01    0.669E-02
RMM:   2    -0.649762020073E+03   -0.56192E-04   -0.11556E-03  1260   0.827E-02    0.410E-02
RMM:   3    -0.649761998262E+03    0.21811E-04   -0.66459E-05  1271   0.211E-02    0.203E-02
RMM:   4    -0.649761993521E+03    0.47417E-05   -0.19041E-05  1284   0.950E-03    0.432E-03
RMM:   5    -0.649761993404E+03    0.11672E-06   -0.12037E-06  1276   0.281E-03    0.208E-03
RMM:   6    -0.649761993387E+03    0.16551E-07   -0.20567E-07   792   0.101E-03
  18 F= -.65708672E+03 E0= -.65708672E+03  d E =-.501220E-03
 trial-energy change:   -0.000501  1 .order   -0.000511   -0.000679   -0.000343
 step:   0.6137(harm=  0.6137)  dis= 0.00233  next Energy=  -657.086905 (dE=-0.687E-03)
 bond charge predicted
       N       E                     dE             d eps       ncg     rms          rms(c)
DAV:   1    -0.649762072926E+03   -0.79522E-04   -0.63334E-02  1260   0.616E-01    0.685E-02
RMM:   2    -0.649762131756E+03   -0.58830E-04   -0.12117E-03  1260   0.846E-02    0.420E-02
RMM:   3    -0.649762108874E+03    0.22882E-04   -0.69762E-05  1271   0.216E-02    0.208E-02
RMM:   4    -0.649762103919E+03    0.49555E-05   -0.19931E-05  1284   0.972E-03    0.442E-03
RMM:   5    -0.649762103798E+03    0.12089E-06   -0.12626E-06  1282   0.287E-03    0.213E-03
RMM:   6    -0.649762103781E+03    0.16691E-07   -0.21678E-07   794   0.104E-03
  19 F= -.65708689E+03 E0= -.65708689E+03  d E =-.676303E-03
 curvature:  -1.34 expect dE=-0.278E-02 dE for cont linesearch -0.196E-09
 trial: gam= 1.09808 g(F)=  0.199E-02 g(S)=  0.824E-04 ort = 0.120E-05 (trialstep = 0.258E+00)
 search vector abs. value=  0.139E-01
 bond charge predicted
       N       E                     dE             d eps       ncg     rms          rms(c)
DAV:   1    -0.649762258665E+03   -0.15487E-03   -0.56675E-02  1268   0.582E-01    0.640E-02
RMM:   2    -0.649762308720E+03   -0.50055E-04   -0.99947E-04  1260   0.764E-02    0.394E-02
RMM:   3    -0.649762289637E+03    0.19083E-04   -0.58926E-05  1261   0.196E-02    0.178E-02
RMM:   4    -0.649762286550E+03    0.30868E-05   -0.14812E-05  1295   0.843E-03    0.411E-03
RMM:   5    -0.649762286462E+03    0.88130E-07   -0.90226E-07  1240   0.243E-03
  20 F= -.65708729E+03 E0= -.65708729E+03  d E =-.397909E-03
 trial-energy change:   -0.000398  1 .order   -0.000396   -0.000535   -0.000258
 step:   0.4832(harm=  0.4975)  dis= 0.00230  next Energy=  -657.087406 (dE=-0.512E-03)
 bond charge predicted
       N       E                     dE             d eps       ncg     rms          rms(c)
DAV:   1    -0.649762198909E+03    0.87642E-04   -0.43570E-02  1268   0.510E-01    0.562E-02
RMM:   2    -0.649762237647E+03   -0.38738E-04   -0.77329E-04  1260   0.672E-02    0.346E-02
RMM:   3    -0.649762222870E+03    0.14777E-04   -0.45818E-05  1260   0.173E-02    0.157E-02
RMM:   4    -0.649762220474E+03    0.23957E-05   -0.11602E-05  1296   0.747E-03    0.368E-03
RMM:   5    -0.649762220400E+03    0.74164E-07   -0.69710E-07  1183   0.216E-03
  21 F= -.65708741E+03 E0= -.65708741E+03  d E =-.519546E-03
 curvature:  -1.65 expect dE=-0.255E-02 dE for cont linesearch -0.493E-06
 trial: gam= 0.67884 g(F)=  0.149E-02 g(S)=  0.547E-04 ort = 0.643E-04 (trialstep = 0.303E+00)
 search vector abs. value=  0.801E-02
 bond charge predicted
       N       E                     dE             d eps       ncg     rms          rms(c)
DAV:   1    -0.649762630760E+03   -0.41029E-03   -0.43326E-02  1264   0.506E-01    0.564E-02
RMM:   2    -0.649762662803E+03   -0.32043E-04   -0.70123E-04  1260   0.643E-02    0.347E-02
RMM:   3    -0.649762648480E+03    0.14322E-04   -0.42760E-05  1260   0.165E-02    0.140E-02
RMM:   4    -0.649762647181E+03    0.12992E-05   -0.95828E-06  1289   0.686E-03    0.292E-03
RMM:   5    -0.649762647166E+03    0.15425E-07   -0.72201E-07  1217   0.212E-03
  22 F= -.65708781E+03 E0= -.65708781E+03  d E =-.399225E-03
 trial-energy change:   -0.000399  1 .order   -0.000397   -0.000480   -0.000314
 step:   0.7666(harm=  0.8732)  dis= 0.00252  next Energy=  -657.088062 (dE=-0.649E-03)
 bond charge predicted
       N       E                     dE             d eps       ncg     rms          rms(c)
DAV:   1    -0.649762940969E+03   -0.29379E-03   -0.10177E-01  1260   0.776E-01    0.864E-02
RMM:   2    -0.649763015963E+03   -0.74994E-04   -0.16455E-03  1260   0.985E-02    0.532E-02
RMM:   3    -0.649762982047E+03    0.33916E-04   -0.10029E-04  1260   0.253E-02    0.214E-02
RMM:   4    -0.649762978842E+03    0.32052E-05   -0.22482E-05  1289   0.105E-02    0.448E-03
RMM:   5    -0.649762978795E+03    0.46739E-07   -0.17286E-06  1294   0.326E-03    0.208E-03
RMM:   6    -0.649762978869E+03   -0.73844E-07   -0.21322E-07   798   0.105E-03
  23 F= -.65708810E+03 E0= -.65708810E+03  d E =-.686363E-03
 curvature:  -2.13 expect dE=-0.420E-02 dE for cont linesearch -0.106E-04
 trial: gam= 1.21001 g(F)=  0.191E-02 g(S)=  0.645E-04 ort = 0.200E-03 (trialstep = 0.223E+00)
 search vector abs. value=  0.142E-01
 bond charge predicted
       N       E                     dE             d eps       ncg     rms          rms(c)
DAV:   1    -0.649763451318E+03   -0.47252E-03   -0.39129E-02  1264   0.481E-01    0.544E-02
RMM:   2    -0.649763484205E+03   -0.32887E-04   -0.67456E-04  1260   0.620E-02    0.336E-02
RMM:   3    -0.649763471656E+03    0.12550E-04   -0.40526E-05  1260   0.162E-02    0.149E-02
RMM:   4    -0.649763470010E+03    0.16453E-05   -0.10113E-05  1284   0.697E-03    0.315E-03
RMM:   5    -0.649763469944E+03    0.66108E-07   -0.61300E-07  1159   0.203E-03
  24 F= -.65708852E+03 E0= -.65708852E+03  d E =-.418099E-03
 trial-energy change:   -0.000418  1 .order   -0.000415   -0.000495   -0.000335
 step:   0.5791(harm=  0.6923)  dis= 0.00250  next Energy=  -657.088798 (dE=-0.698E-03)
 bond charge predicted
       N       E                     dE             d eps       ncg     rms          rms(c)
DAV:   1    -0.649763874437E+03   -0.40443E-03   -0.99326E-02  1260   0.766E-01    0.867E-02
RMM:   2    -0.649763958013E+03   -0.83576E-04   -0.17169E-03  1260   0.989E-02    0.537E-02
RMM:   3    -0.649763925723E+03    0.32290E-04   -0.10344E-04  1260   0.259E-02    0.238E-02
RMM:   4    -0.649763921365E+03    0.43576E-05   -0.25759E-05  1284   0.111E-02    0.504E-03
RMM:   5    -0.649763921217E+03    0.14855E-06   -0.16467E-06  1300   0.325E-03    0.274E-03
RMM:   6    -0.649763921232E+03   -0.14825E-07   -0.47725E-07  1099   0.140E-03
  25 F= -.65708885E+03 E0= -.65708885E+03  d E =-.753250E-03
 curvature:  -2.09 expect dE=-0.369E-02 dE for cont linesearch -0.204E-04
 ZBRENT: extrapolating
 opt :   0.6965  next Energy=  -657.088875 (dE=-0.775E-03)
 bond charge predicted
       N       E                     dE             d eps       ncg     rms          rms(c)
DAV:   1    -0.649763977186E+03   -0.55969E-04   -0.10827E-02  1352   0.253E-01    0.286E-02
RMM:   2    -0.649763986385E+03   -0.91991E-05   -0.18649E-04  1260   0.327E-02    0.177E-02
RMM:   3    -0.649763983036E+03    0.33495E-05   -0.11304E-05  1260   0.856E-03    0.784E-03
RMM:   4    -0.649763982653E+03    0.38309E-06   -0.27990E-06  1284   0.368E-03    0.166E-03
RMM:   5    -0.649763982627E+03    0.25942E-07   -0.13921E-07   786   0.107E-03
  26 F= -.65708888E+03 E0= -.65708888E+03  d E =-.776457E-03
 curvature:  -2.24 expect dE=-0.596E-02 dE for cont linesearch -0.154E-08
 trial: gam= 1.57880 g(F)=  0.249E-02 g(S)=  0.169E-03 ort =-0.313E-05 (trialstep = 0.119E+00)
 search vector abs. value=  0.380E-01
 bond charge predicted
       N       E                     dE             d eps       ncg     rms          rms(c)
DAV:   1    -0.649764432515E+03   -0.44986E-03   -0.30059E-02  1264   0.421E-01    0.461E-02
RMM:   2    -0.649764456734E+03   -0.24219E-04   -0.48424E-04  1260   0.522E-02    0.281E-02
RMM:   3    -0.649764448549E+03    0.81847E-05   -0.29264E-05  1260   0.137E-02    0.119E-02
RMM:   4    -0.649764447550E+03    0.99894E-06   -0.61423E-06  1294   0.551E-03    0.250E-03
RMM:   5    -0.649764447495E+03    0.54846E-07   -0.36763E-07   907   0.164E-03
  27 F= -.65708916E+03 E0= -.65708916E+03  d E =-.283612E-03
 trial-energy change:   -0.000284  1 .order   -0.000281   -0.000315   -0.000247
 step:   0.3668(harm=  0.5447)  dis= 0.00268  next Energy=  -657.089442 (dE=-0.566E-03)
 bond charge predicted
       N       E                     dE             d eps       ncg     rms          rms(c)
DAV:   1    -0.649765131386E+03   -0.68384E-03   -0.13139E-01  1260   0.880E-01    0.964E-02
RMM:   2    -0.649765236741E+03   -0.10535E-03   -0.21148E-03  1260   0.109E-01    0.588E-02
RMM:   3    -0.649765200708E+03    0.36033E-04   -0.12781E-04  1260   0.287E-02    0.248E-02
RMM:   4    -0.649765196312E+03    0.43962E-05   -0.26826E-05  1294   0.115E-02    0.523E-03
RMM:   5    -0.649765196184E+03    0.12796E-06   -0.18376E-06  1289   0.344E-03    0.261E-03
RMM:   6    -0.649765196195E+03   -0.10936E-07   -0.40438E-07  1019   0.132E-03
  28 F= -.65708953E+03 E0= -.65708953E+03  d E =-.654387E-03
 curvature:  -3.22 expect dE=-0.543E-02 dE for cont linesearch -0.655E-04
 ZBRENT: increasing intervall
 opt :   0.8630  next Energy=  -657.089373 (dE=-0.496E-03)
 bond charge predicted
       N       E                     dE             d eps       ncg     rms          rms(c)
DAV:   1    -0.649765538271E+03   -0.34209E-03   -0.52532E-01  1260   0.176E+00    0.193E-01
RMM:   2    -0.649765958442E+03   -0.42017E-03   -0.84365E-03  1260   0.218E-01    0.117E-01
RMM:   3    -0.649765813887E+03    0.14455E-03   -0.50904E-04  1260   0.573E-02    0.497E-02
RMM:   4    -0.649765796182E+03    0.17705E-04   -0.10722E-04  1294   0.230E-02    0.104E-02
RMM:   5    -0.649765795845E+03    0.33674E-06   -0.73126E-06  1288   0.686E-03    0.521E-03
RMM:   6    -0.649765795957E+03   -0.11225E-06   -0.17126E-06  1242   0.264E-03    0.148E-03
RMM:   7    -0.649765796000E+03   -0.42692E-07   -0.11926E-07   787   0.938E-04
  29 F= -.65708938E+03 E0= -.65708938E+03  d E =-.502107E-03
 curvature:   7.76 expect dE= 0.510E-01 dE for cont linesearch  0.476E-03
 ZBRENT: bracketing found
 ZBRENT: interpolating
 opt :   0.5483  next Energy=  -657.089610 (dE=-0.734E-03)
 bond charge predicted
       N       E                     dE             d eps       ncg     rms          rms(c)
DAV:   1    -0.649765453112E+03    0.34285E-03   -0.21138E-01  1260   0.112E+00    0.122E-01
RMM:   2    -0.649765620598E+03   -0.16749E-03   -0.33952E-03  1260   0.138E-01    0.745E-02
RMM:   3    -0.649765562006E+03    0.58592E-04   -0.20438E-04  1260   0.363E-02    0.314E-02
RMM:   4    -0.649765554900E+03    0.71057E-05   -0.42927E-05  1294   0.146E-02    0.660E-03
RMM:   5    -0.649765554928E+03   -0.27809E-07   -0.29159E-06  1289   0.434E-03    0.329E-03
RMM:   6    -0.649765555029E+03   -0.10090E-06   -0.67066E-07  1190   0.166E-03    0.926E-04
RMM:   7    -0.649765555002E+03    0.26752E-07   -0.51544E-08   786   0.626E-04
  30 F= -.65708961E+03 E0= -.65708961E+03  d E =-.737241E-03
 curvature:  -1.30 expect dE=-0.344E-02 dE for cont linesearch -0.758E-09
 trial: gam= 0.81354 g(F)=  0.254E-02 g(S)=  0.101E-03 ort = 0.470E-05 (trialstep = 0.205E+00)
 search vector abs. value=  0.278E-01
 bond charge predicted
       N       E                     dE             d eps       ncg     rms          rms(c)
DAV:   1    -0.649766814960E+03   -0.12599E-02   -0.69499E-02  1264   0.648E-01    0.698E-02
RMM:   2    -0.649766872860E+03   -0.57899E-04   -0.11750E-03  1260   0.826E-02    0.416E-02
RMM:   3    -0.649766855319E+03    0.17541E-04   -0.65673E-05  1260   0.214E-02    0.193E-02
RMM:   4    -0.649766852045E+03    0.32735E-05   -0.15247E-05  1286   0.873E-03    0.399E-03
RMM:   5    -0.649766851920E+03    0.12482E-06   -0.10483E-06  1250   0.260E-03    0.186E-03
RMM:   6    -0.649766851910E+03    0.10357E-07   -0.19615E-07   787   0.926E-04
  31 F= -.65709006E+03 E0= -.65709006E+03  d E =-.441713E-03
 trial-energy change:   -0.000442  1 .order   -0.000440   -0.000541   -0.000339
 step:   0.5122(harm=  0.5482)  dis= 0.00324  next Energy=  -657.090316 (dE=-0.702E-03)
 bond charge predicted
       N       E                     dE             d eps       ncg     rms          rms(c)
DAV:   1    -0.649768338145E+03   -0.14862E-02   -0.15716E-01  1260   0.975E-01    0.105E-01
RMM:   2    -0.649768470427E+03   -0.13228E-03   -0.26594E-03  1260   0.124E-01    0.626E-02
RMM:   3    -0.649768431344E+03    0.39083E-04   -0.14882E-04  1260   0.322E-02    0.291E-02
RMM:   4    -0.649768424320E+03    0.70242E-05   -0.34535E-05  1285   0.131E-02    0.601E-03
RMM:   5    -0.649768424096E+03    0.22374E-06   -0.23982E-06  1285   0.393E-03    0.280E-03
RMM:   6    -0.649768424090E+03    0.61445E-08   -0.51052E-07  1112   0.141E-03
  32 F= -.65709034E+03 E0= -.65709034E+03  d E =-.728766E-03
 curvature:  -2.85 expect dE=-0.552E-02 dE for cont linesearch -0.345E-05
 trial: gam= 0.66279 g(F)=  0.190E-02 g(S)=  0.336E-04 ort = 0.183E-03 (trialstep = 0.266E+00)
 search vector abs. value=  0.144E-01
 bond charge predicted
       N       E                     dE             d eps       ncg     rms          rms(c)
DAV:   1    -0.649769147514E+03   -0.72342E-03   -0.62874E-02  1268   0.616E-01    0.639E-02
RMM:   2    -0.649769217005E+03   -0.69491E-04   -0.11349E-03  1260   0.798E-02    0.386E-02
RMM:   3    -0.649769202317E+03    0.14688E-04   -0.60384E-05  1276   0.204E-02    0.200E-02
RMM:   4    -0.649769199089E+03    0.32282E-05   -0.16146E-05  1294   0.843E-03    0.441E-03
RMM:   5    -0.649769198885E+03    0.20434E-06   -0.96296E-07  1256   0.241E-03    0.189E-03
RMM:   6    -0.649769198840E+03    0.44862E-07   -0.21263E-07   786   0.939E-04
  33 F= -.65709077E+03 E0= -.65709077E+03  d E =-.429663E-03
 trial-energy change:   -0.000430  1 .order   -0.000427   -0.000548   -0.000306
 step:   0.5584(harm=  0.6018)  dis= 0.00267  next Energy=  -657.090944 (dE=-0.601E-03)
 bond charge predicted
       N       E                     dE             d eps       ncg     rms          rms(c)
DAV:   1    -0.649769707109E+03   -0.50822E-03   -0.75877E-02  1260   0.677E-01    0.702E-02
RMM:   2    -0.649769791027E+03   -0.83918E-04   -0.13689E-03  1260   0.876E-02    0.424E-02
RMM:   3    -0.649769773315E+03    0.17712E-04   -0.72749E-05  1276   0.223E-02    0.220E-02
RMM:   4    -0.649769769452E+03    0.38629E-05   -0.19413E-05  1294   0.924E-03    0.485E-03
RMM:   5    -0.649769769212E+03    0.24012E-06   -0.11582E-06  1262   0.264E-03    0.208E-03
RMM:   6    -0.649769769161E+03    0.50733E-07   -0.26062E-07   818   0.103E-03
  34 F= -.65709096E+03 E0= -.65709096E+03  d E =-.621229E-03
 curvature:  -2.07 expect dE=-0.381E-02 dE for cont linesearch -0.320E-05
 trial: gam= 0.98318 g(F)=  0.174E-02 g(S)=  0.100E-03 ort = 0.149E-03 (trialstep = 0.291E+00)
 search vector abs. value=  0.161E-01
 bond charge predicted
       N       E                     dE             d eps       ncg     rms          rms(c)
DAV:   1    -0.649769602518E+03    0.16669E-03   -0.81758E-02  1260   0.700E-01    0.673E-02
RMM:   2    -0.649769704266E+03   -0.10175E-03   -0.14357E-03  1260   0.890E-02    0.421E-02
RMM:   3    -0.649769689182E+03    0.15084E-04   -0.71699E-05  1260   0.222E-02    0.219E-02
RMM:   4    -0.649769686461E+03    0.27211E-05   -0.21412E-05  1282   0.990E-03    0.445E-03
RMM:   5    -0.649769686328E+03    0.13218E-06   -0.12366E-06  1279   0.289E-03    0.228E-03
RMM:   6    -0.649769686320E+03    0.86511E-08   -0.34789E-07   944   0.116E-03
  35 F= -.65709140E+03 E0= -.65709140E+03  d E =-.432898E-03
 trial-energy change:   -0.000433  1 .order   -0.000433   -0.000579   -0.000287
 step:   0.5761(harm=  0.5761)  dis= 0.00307  next Energy=  -657.091537 (dE=-0.573E-03)
 bond charge predicted
       N       E                     dE             d eps       ncg     rms          rms(c)
DAV:   1    -0.649769243989E+03    0.44234E-03   -0.78380E-02  1264   0.686E-01    0.659E-02
RMM:   2    -0.649769341278E+03   -0.97289E-04   -0.13749E-03  1260   0.871E-02    0.412E-02
RMM:   3    -0.649769326859E+03    0.14419E-04   -0.68849E-05  1260   0.217E-02    0.214E-02
RMM:   4    -0.649769324278E+03    0.25808E-05   -0.20476E-05  1282   0.970E-03    0.436E-03
RMM:   5    -0.649769324153E+03    0.12500E-06   -0.11842E-06  1276   0.283E-03    0.223E-03
RMM:   6    -0.649769324145E+03    0.84474E-08   -0.33084E-07   920   0.114E-03
  36 F= -.65709154E+03 E0= -.65709154E+03  d E =-.575314E-03
 curvature:  -2.32 expect dE=-0.445E-02 dE for cont linesearch -0.321E-09
 trial: gam= 1.13330 g(F)=  0.180E-02 g(S)=  0.110E-03 ort = 0.149E-05 (trialstep = 0.248E+00)
 search vector abs. value=  0.225E-01
 bond charge predicted
       N       E                     dE             d eps       ncg     rms          rms(c)
DAV:   1    -0.649768759150E+03    0.56500E-03   -0.77381E-02  1264   0.684E-01    0.714E-02
RMM:   2    -0.649768833185E+03   -0.74035E-04   -0.13360E-03  1260   0.870E-02    0.418E-02
RMM:   3    -0.649768819546E+03    0.13639E-04   -0.72314E-05  1265   0.224E-02    0.205E-02
RMM:   4    -0.649768817690E+03    0.18555E-05   -0.18122E-05  1288   0.938E-03    0.433E-03
RMM:   5    -0.649768817735E+03   -0.44944E-07   -0.10434E-06  1273   0.258E-03    0.215E-03
RMM:   6    -0.649768817786E+03   -0.50801E-07   -0.43411E-07  1056   0.130E-03
  37 F= -.65709191E+03 E0= -.65709191E+03  d E =-.374997E-03
 trial-energy change:   -0.000375  1 .order   -0.000376   -0.000475   -0.000278
 step:   0.6399(harm=  0.5968)  dis= 0.00416  next Energy=  -657.092128 (dE=-0.589E-03)
 bond charge predicted
       N       E                     dE             d eps       ncg     rms          rms(c)
DAV:   1    -0.649767469667E+03    0.13481E-02   -0.19333E-01  1260   0.108E+00    0.113E-01
RMM:   2    -0.649767654510E+03   -0.18484E-03   -0.33391E-03  1260   0.137E-01    0.661E-02
RMM:   3    -0.649767619907E+03    0.34603E-04   -0.18048E-04  1265   0.354E-02    0.324E-02
RMM:   4    -0.649767614668E+03    0.52389E-05   -0.45307E-05  1288   0.148E-02    0.684E-03
RMM:   5    -0.649767614649E+03    0.19119E-07   -0.26160E-06  1296   0.407E-03    0.340E-03
RMM:   6    -0.649767614707E+03   -0.58732E-07   -0.11142E-06  1207   0.202E-03    0.106E-03
RMM:   7    -0.649767614704E+03    0.38290E-08   -0.57554E-08   786   0.696E-04
  38 F= -.65709210E+03 E0= -.65709210E+03  d E =-.566117E-03
 curvature:  -3.46 expect dE=-0.662E-02 dE for cont linesearch -0.265E-05
 trial: gam= 0.96615 g(F)=  0.189E-02 g(S)=  0.261E-04 ort =-0.131E-03 (trialstep = 0.324E+00)
 search vector abs. value=  0.227E-01
 bond charge predicted
       N       E                     dE             d eps       ncg     rms          rms(c)
DAV:   1    -0.649766535841E+03    0.10789E-02   -0.12751E-01  1264   0.876E-01    0.985E-02
RMM:   2    -0.649766629859E+03   -0.94018E-04   -0.22016E-03  1260   0.113E-01    0.554E-02
RMM:   3    -0.649766605027E+03    0.24833E-04   -0.12240E-04  1267   0.288E-02    0.271E-02
RMM:   4    -0.649766601606E+03    0.34207E-05   -0.31198E-05  1295   0.121E-02    0.553E-03
RMM:   5    -0.649766601635E+03   -0.29451E-07   -0.16807E-06  1272   0.323E-03    0.271E-03
RMM:   6    -0.649766601745E+03   -0.10934E-06   -0.65714E-07  1166   0.155E-03    0.899E-04
RMM:   7    -0.649766601744E+03    0.10405E-08   -0.45142E-08   786   0.588E-04
  39 F= -.65709252E+03 E0= -.65709252E+03  d E =-.410564E-03
 trial-energy change:   -0.000411  1 .order   -0.000414   -0.000580   -0.000248
 step:   0.5917(harm=  0.5656)  dis= 0.00367  next Energy=  -657.092616 (dE=-0.511E-03)
 bond charge predicted
       N       E                     dE             d eps       ncg     rms          rms(c)
DAV:   1    -0.649765468654E+03    0.11331E-02   -0.87032E-02  1268   0.724E-01    0.814E-02
RMM:   2    -0.649765532769E+03   -0.64115E-04   -0.15022E-03  1260   0.936E-02    0.457E-02
RMM:   3    -0.649765515914E+03    0.16854E-04   -0.83557E-05  1267   0.238E-02    0.224E-02
RMM:   4    -0.649765513734E+03    0.21803E-05   -0.21307E-05  1295   0.999E-03    0.457E-03
RMM:   5    -0.649765513789E+03   -0.54477E-07   -0.11468E-06  1266   0.267E-03    0.224E-03
RMM:   6    -0.649765513882E+03   -0.93234E-07   -0.44381E-07  1094   0.129E-03
  40 F= -.65709260E+03 E0= -.65709260E+03  d E =-.499822E-03
 curvature:  -3.55 expect dE=-0.801E-02 dE for cont linesearch -0.128E-05
 trial: gam= 1.09819 g(F)=  0.221E-02 g(S)=  0.452E-04 ort =-0.904E-04 (trialstep = 0.291E+00)
 search vector abs. value=  0.294E-01
 bond charge predicted
       N       E                     dE             d eps       ncg     rms          rms(c)
DAV:   1    -0.649764700364E+03    0.81342E-03   -0.13590E-01  1260   0.897E-01    0.973E-02
RMM:   2    -0.649764812435E+03   -0.11207E-03   -0.22825E-03  1260   0.113E-01    0.565E-02
RMM:   3    -0.649764784967E+03    0.27467E-04   -0.11866E-04  1260   0.287E-02    0.277E-02
RMM:   4    -0.649764780672E+03    0.42957E-05   -0.35002E-05  1294   0.130E-02    0.544E-03
RMM:   5    -0.649764780640E+03    0.31478E-07   -0.17929E-06  1287   0.333E-03    0.303E-03
RMM:   6    -0.649764780750E+03   -0.10989E-06   -0.86924E-07  1169   0.181E-03    0.101E-03
RMM:   7    -0.649764780744E+03    0.64665E-08   -0.50608E-08   786   0.640E-04
  41 F= -.65709308E+03 E0= -.65709308E+03  d E =-.477910E-03
 trial-energy change:   -0.000478  1 .order   -0.000482   -0.000629   -0.000335
 step:   0.7148(harm=  0.6236)  dis= 0.00501  next Energy=  -657.093313 (dE=-0.709E-03)
 bond charge predicted
       N       E                     dE             d eps       ncg     rms          rms(c)
DAV:   1    -0.649763017732E+03    0.17630E-02   -0.28772E-01  1260   0.130E+00    0.142E-01
RMM:   2    -0.649763254809E+03   -0.23708E-03   -0.48297E-03  1260   0.165E-01    0.822E-02
RMM:   3    -0.649763196300E+03    0.58509E-04   -0.25088E-04  1260   0.418E-02    0.403E-02
RMM:   4    -0.649763186671E+03    0.96291E-05   -0.74307E-05  1294   0.189E-02    0.793E-03
RMM:   5    -0.649763186491E+03    0.17979E-06   -0.38010E-06  1291   0.485E-03    0.442E-03
RMM:   6    -0.649763186631E+03   -0.14060E-06   -0.18631E-06  1250   0.264E-03    0.148E-03
RMM:   7    -0.649763186612E+03    0.19234E-07   -0.10020E-07   795   0.906E-04
  42 F= -.65709325E+03 E0= -.65709325E+03  d E =-.648937E-03
 curvature:  -3.93 expect dE=-0.145E-01 dE for cont linesearch -0.141E-04
 trial: gam= 1.76197 g(F)=  0.352E-02 g(S)=  0.171E-03 ort =-0.325E-03 (trialstep = 0.118E+00)
 search vector abs. value=  0.939E-01
 bond charge predicted
       N       E                     dE             d eps       ncg     rms          rms(c)
DAV:   1    -0.649762765006E+03    0.42163E-03   -0.72846E-02  1268   0.655E-01    0.681E-02
RMM:   2    -0.649762831518E+03   -0.66512E-04   -0.11790E-03  1260   0.810E-02    0.408E-02
RMM:   3    -0.649762816151E+03    0.15367E-04   -0.59860E-05  1266   0.202E-02    0.192E-02
RMM:   4    -0.649762814184E+03    0.19670E-05   -0.17337E-05  1285   0.883E-03    0.361E-03
RMM:   5    -0.649762814156E+03    0.28003E-07   -0.88389E-07  1259   0.242E-03
  43 F= -.65709358E+03 E0= -.65709358E+03  d E =-.322310E-03
 ZBRENT: can't locate minimum, use default step
 trial-energy change:   -0.000322  1 .order   -0.000323   -0.000367   -0.000279
 step:   0.4712(harm=  0.4911)  dis= 0.00623  next Energy=  -657.094180 (dE=-0.926E-03)
 bond charge predicted
       N       E                     dE             d eps       ncg     rms          rms(c)
DAV:   1    -0.649760741170E+03    0.20730E-02   -0.65594E-01  1260   0.196E+00    0.205E-01
RMM:   2    -0.649761344444E+03   -0.60327E-03   -0.10635E-02  1260   0.243E-01    0.123E-01
RMM:   3    -0.649761204120E+03    0.14032E-03   -0.53984E-04  1262   0.608E-02    0.578E-02
RMM:   4    -0.649761184628E+03    0.19492E-04   -0.15800E-04  1287   0.268E-02    0.110E-02
RMM:   5    -0.649761183743E+03    0.88517E-06   -0.81515E-06  1292   0.739E-03    0.614E-03
RMM:   6    -0.649761183871E+03   -0.12803E-06   -0.34679E-06  1267   0.346E-03    0.199E-03
RMM:   7    -0.649761183837E+03    0.34259E-07   -0.17204E-07   798   0.112E-03
  44 F= -.65709403E+03 E0= -.65709403E+03  d E =-.779429E-03
 curvature:  -7.37 expect dE=-0.179E-01 dE for cont linesearch -0.412E-05
 trial: gam= 0.30931 g(F)=  0.228E-02 g(S)=  0.145E-03 ort = 0.229E-03 (trialstep = 0.188E+00)
 search vector abs. value=  0.116E-01
 bond charge predicted
       N       E                     dE             d eps       ncg     rms          rms(c)
DAV:   1    -0.649761416429E+03   -0.23256E-03   -0.26600E-02  1320   0.399E-01    0.391E-02
RMM:   2    -0.649761447494E+03   -0.31065E-04   -0.47991E-04  1260   0.517E-02    0.249E-02
RMM:   3    -0.649761440943E+03    0.65509E-05   -0.24685E-05  1272   0.127E-02    0.125E-02
RMM:   4    -0.649761439683E+03    0.12601E-05   -0.72522E-06  1291   0.560E-03    0.250E-03
RMM:   5    -0.649761439643E+03    0.39290E-07   -0.30524E-07   849   0.163E-03
  45 F= -.65709441E+03 E0= -.65709441E+03  d E =-.381014E-03
 trial-energy change:   -0.000381  1 .order   -0.000380   -0.000471   -0.000290
 step:   0.4904(harm=  0.4904)  dis= 0.00243  next Energy=  -657.094646 (dE=-0.613E-03)
 bond charge predicted
       N       E                     dE             d eps       ncg     rms          rms(c)
DAV:   1    -0.649761412124E+03    0.27559E-04   -0.68317E-02  1260   0.639E-01    0.628E-02
RMM:   2    -0.649761492636E+03   -0.80513E-04   -0.12358E-03  1260   0.829E-02    0.400E-02
RMM:   3    -0.649761475909E+03    0.16727E-04   -0.63702E-05  1272   0.203E-02    0.201E-02
RMM:   4    -0.649761472794E+03    0.31149E-05   -0.18640E-05  1292   0.899E-03    0.405E-03
RMM:   5    -0.649761472698E+03    0.96290E-07   -0.92154E-07  1241   0.262E-03
  46 F= -.65709465E+03 E0= -.65709465E+03  d E =-.614589E-03
 curvature:  -1.13 expect dE=-0.250E-02 dE for cont linesearch -0.798E-08
 trial: gam= 0.96363 g(F)=  0.220E-02 g(S)=  0.680E-05 ort = 0.902E-05 (trialstep = 0.222E+00)
 search vector abs. value=  0.129E-01
 bond charge predicted
       N       E                     dE             d eps       ncg     rms          rms(c)
DAV:   1    -0.649761809297E+03   -0.33650E-03   -0.41046E-02  1272   0.499E-01    0.476E-02
RMM:   2    -0.649761859729E+03   -0.50432E-04   -0.73012E-04  1260   0.634E-02    0.294E-02
RMM:   3    -0.649761852584E+03    0.71448E-05   -0.34508E-05  1272   0.155E-02    0.165E-02
RMM:   4    -0.649761850587E+03    0.19969E-05   -0.10905E-05  1295   0.685E-03    0.326E-03
RMM:   5    -0.649761850487E+03    0.10051E-06   -0.53001E-07  1085   0.188E-03    0.153E-03
RMM:   6    -0.649761850451E+03    0.35961E-07   -0.17390E-07   786   0.937E-04
  47 F= -.65709504E+03 E0= -.65709504E+03  d E =-.390209E-03
 trial-energy change:   -0.000390  1 .order   -0.000390   -0.000491   -0.000289
 step:   0.5399(harm=  0.5399)  dis= 0.00295  next Energy=  -657.095245 (dE=-0.597E-03)
 bond charge predicted
       N       E                     dE             d eps       ncg     rms          rms(c)
DAV:   1    -0.649761955725E+03   -0.10524E-03   -0.84043E-02  1260   0.714E-01    0.681E-02
RMM:   2    -0.649762058434E+03   -0.10271E-03   -0.14897E-03  1260   0.905E-02    0.419E-02
RMM:   3    -0.649762043975E+03    0.14459E-04   -0.70343E-05  1272   0.221E-02    0.235E-02
RMM:   4    -0.649762040035E+03    0.39396E-05   -0.22086E-05  1295   0.974E-03    0.467E-03
RMM:   5    -0.649762039862E+03    0.17370E-06   -0.11324E-06  1268   0.268E-03    0.219E-03
RMM:   6    -0.649762039806E+03    0.55463E-07   -0.30660E-07   884   0.114E-03
  48 F= -.65709525E+03 E0= -.65709525E+03  d E =-.598064E-03
 curvature:  -1.58 expect dE=-0.227E-02 dE for cont linesearch -0.630E-09
 trial: gam= 0.63172 g(F)=  0.139E-02 g(S)=  0.455E-04 ort =-0.227E-05 (trialstep = 0.286E+00)
 search vector abs. value=  0.660E-02
 bond charge predicted
       N       E                     dE             d eps       ncg     rms          rms(c)
DAV:   1    -0.649761998297E+03    0.41565E-04   -0.34160E-02  1288   0.456E-01    0.461E-02
RMM:   2    -0.649762039412E+03   -0.41115E-04   -0.66594E-04  1260   0.618E-02    0.288E-02
RMM:   3    -0.649762030787E+03    0.86249E-05   -0.33768E-05  1267   0.150E-02    0.148E-02
RMM:   4    -0.649762029345E+03    0.14417E-05   -0.11324E-05  1293   0.711E-03    0.295E-03
RMM:   5    -0.649762029264E+03    0.81076E-07   -0.49954E-07  1086   0.189E-03
  49 F= -.65709554E+03 E0= -.65709554E+03  d E =-.291771E-03
 trial-energy change:   -0.000292  1 .order   -0.000292   -0.000409   -0.000174
 step:   0.4969(harm=  0.4969)  dis= 0.00191  next Energy=  -657.095602 (dE=-0.356E-03)
 bond charge predicted
       N       E                     dE             d eps       ncg     rms          rms(c)
DAV:   1    -0.649761852734E+03    0.17661E-03   -0.18715E-02  1288   0.337E-01    0.341E-02
RMM:   2    -0.649761875580E+03   -0.22846E-04   -0.36666E-04  1260   0.457E-02    0.214E-02
RMM:   3    -0.649761870810E+03    0.47697E-05   -0.18764E-05  1268   0.112E-02    0.110E-02
RMM:   4    -0.649761870075E+03    0.73516E-06   -0.62726E-06  1293   0.527E-03    0.222E-03
RMM:   5    -0.649761870031E+03    0.44125E-07   -0.24679E-07   813   0.143E-03
  50 F= -.65709560E+03 E0= -.65709560E+03  d E =-.356227E-03
 curvature:  -1.14 expect dE=-0.128E-02 dE for cont linesearch -0.105E-08
 trial: gam= 0.77532 g(F)=  0.110E-02 g(S)=  0.151E-04 ort = 0.246E-05 (trialstep = 0.328E+00)
 search vector abs. value=  0.509E-02
 bond charge predicted
       N       E                     dE             d eps       ncg     rms          rms(c)
DAV:   1    -0.649761606372E+03    0.26370E-03   -0.33700E-02  1264   0.447E-01    0.491E-02
RMM:   2    -0.649761643681E+03   -0.37308E-04   -0.69753E-04  1260   0.610E-02    0.279E-02
RMM:   3    -0.649761635157E+03    0.85237E-05   -0.33341E-05  1266   0.155E-02    0.149E-02
RMM:   4    -0.649761634537E+03    0.62020E-06   -0.12469E-05  1291   0.719E-03    0.365E-03
RMM:   5    -0.649761634543E+03   -0.59754E-08   -0.52628E-07  1068   0.185E-03
  51 F= -.65709588E+03 E0= -.65709588E+03  d E =-.281468E-03
 trial-energy change:   -0.000281  1 .order   -0.000282   -0.000368   -0.000196
 step:   0.7009(harm=  0.7009)  dis= 0.00232  next Energy=  -657.095995 (dE=-0.393E-03)
 bond charge predicted
       N       E                     dE             d eps       ncg     rms          rms(c)
DAV:   1    -0.649761121271E+03    0.51327E-03   -0.43662E-02  1260   0.509E-01    0.559E-02
RMM:   2    -0.649761170231E+03   -0.48960E-04   -0.90806E-04  1260   0.695E-02    0.319E-02
RMM:   3    -0.649761159019E+03    0.11212E-04   -0.43665E-05  1266   0.177E-02    0.170E-02
RMM:   4    -0.649761158145E+03    0.87402E-06   -0.16224E-05  1292   0.818E-03    0.421E-03
RMM:   5    -0.649761158127E+03    0.17419E-07   -0.70745E-07  1158   0.212E-03
  52 F= -.65709600E+03 E0= -.65709600E+03  d E =-.393405E-03
 curvature:  -1.59 expect dE=-0.191E-02 dE for cont linesearch -0.249E-08
 trial: gam= 1.07822 g(F)=  0.117E-02 g(S)=  0.364E-04 ort = 0.282E-05 (trialstep = 0.287E+00)
 search vector abs. value=  0.713E-02
 bond charge predicted
       N       E                     dE             d eps       ncg     rms          rms(c)
DAV:   1    -0.649760831848E+03    0.32630E-03   -0.35833E-02  1260   0.464E-01    0.472E-02
RMM:   2    -0.649760872495E+03   -0.40647E-04   -0.67753E-04  1260   0.610E-02    0.276E-02
RMM:   3    -0.649760866201E+03    0.62939E-05   -0.33357E-05  1272   0.154E-02    0.141E-02
RMM:   4    -0.649760865514E+03    0.68792E-06   -0.88170E-06  1290   0.661E-03    0.306E-03
RMM:   5    -0.649760865561E+03   -0.47676E-07   -0.44924E-07   985   0.168E-03
  53 F= -.65709624E+03 E0= -.65709624E+03  d E =-.246562E-03
 trial-energy change:   -0.000247  1 .order   -0.000246   -0.000347   -0.000145
 step:   0.4863(harm=  0.4943)  dis= 0.00183  next Energy=  -657.096292 (dE=-0.297E-03)
 bond charge predicted
       N       E                     dE             d eps       ncg     rms          rms(c)
DAV:   1    -0.649760527730E+03    0.33778E-03   -0.17155E-02  1284   0.321E-01    0.326E-02
RMM:   2    -0.649760547481E+03   -0.19751E-04   -0.32557E-04  1260   0.422E-02    0.191E-02
RMM:   3    -0.649760544589E+03    0.28917E-05   -0.16004E-05  1272   0.107E-02    0.978E-03
RMM:   4    -0.649760544358E+03    0.23072E-06   -0.42100E-06  1284   0.458E-03    0.213E-03
RMM:   5    -0.649760544399E+03   -0.40804E-07   -0.19901E-07   817   0.118E-03
  54 F= -.65709629E+03 E0= -.65709629E+03  d E =-.298388E-03
 curvature:  -1.46 expect dE=-0.135E-02 dE for cont linesearch -0.793E-07
 trial: gam= 0.76190 g(F)=  0.910E-03 g(S)=  0.162E-04 ort = 0.197E-04 (trialstep = 0.327E+00)
 search vector abs. value=  0.509E-02
 bond charge predicted
       N       E                     dE             d eps       ncg     rms          rms(c)
DAV:   1    -0.649760265454E+03    0.27890E-03   -0.34962E-02  1260   0.456E-01    0.415E-02
RMM:   2    -0.649760314271E+03   -0.48818E-04   -0.64502E-04  1260   0.596E-02    0.269E-02
RMM:   3    -0.649760307901E+03    0.63701E-05   -0.28559E-05  1269   0.145E-02    0.146E-02
RMM:   4    -0.649760306678E+03    0.12228E-05   -0.10385E-05  1282   0.699E-03    0.307E-03
RMM:   5    -0.649760306578E+03    0.10024E-06   -0.42995E-07   967   0.177E-03    0.158E-03
RMM:   6    -0.649760306535E+03    0.43518E-07   -0.30739E-07   890   0.124E-03
  55 F= -.65709652E+03 E0= -.65709652E+03  d E =-.222013E-03
 trial-energy change:   -0.000222  1 .order   -0.000223   -0.000308   -0.000139
 step:   0.6196(harm=  0.5952)  dis= 0.00185  next Energy=  -657.096577 (dE=-0.283E-03)
 bond charge predicted
       N       E                     dE             d eps       ncg     rms          rms(c)
DAV:   1    -0.649759919120E+03    0.38746E-03   -0.27906E-02  1280   0.407E-01    0.372E-02
RMM:   2    -0.649759957947E+03   -0.38827E-04   -0.51525E-04  1260   0.535E-02    0.240E-02
RMM:   3    -0.649759952858E+03    0.50891E-05   -0.22871E-05  1269   0.130E-02    0.130E-02
RMM:   4    -0.649759951880E+03    0.97839E-06   -0.82383E-06  1283   0.624E-03    0.276E-03
RMM:   5    -0.649759951794E+03    0.85878E-07   -0.32706E-07   869   0.158E-03
  56 F= -.65709657E+03 E0= -.65709657E+03  d E =-.278110E-03
 curvature:  -1.60 expect dE=-0.145E-02 dE for cont linesearch -0.365E-06
 trial: gam= 1.04510 g(F)=  0.856E-03 g(S)=  0.489E-04 ort =-0.341E-04 (trialstep = 0.307E+00)
 search vector abs. value=  0.640E-02
 bond charge predicted
       N       E                     dE             d eps       ncg     rms          rms(c)
DAV:   1    -0.649760024587E+03   -0.72707E-04   -0.37223E-02  1260   0.464E-01    0.421E-02
RMM:   2    -0.649760071021E+03   -0.46434E-04   -0.63523E-04  1260   0.580E-02    0.271E-02
RMM:   3    -0.649760064377E+03    0.66440E-05   -0.26598E-05  1262   0.132E-02    0.140E-02
RMM:   4    -0.649760063149E+03    0.12281E-05   -0.95961E-06  1290   0.638E-03    0.253E-03
RMM:   5    -0.649760063001E+03    0.14768E-06   -0.40627E-07   955   0.173E-03    0.131E-03
RMM:   6    -0.649760062976E+03    0.25690E-07   -0.19820E-07   790   0.963E-04
  57 F= -.65709677E+03 E0= -.65709677E+03  d E =-.201826E-03
 trial-energy change:   -0.000202  1 .order   -0.000202   -0.000267   -0.000138
 step:   0.6335(harm=  0.6335)  dis= 0.00207  next Energy=  -657.096847 (dE=-0.275E-03)
 bond charge predicted
       N       E                     dE             d eps       ncg     rms          rms(c)
DAV:   1    -0.649759997687E+03    0.65315E-04   -0.41995E-02  1260   0.493E-01    0.447E-02
RMM:   2    -0.649760049505E+03   -0.51818E-04   -0.71132E-04  1260   0.613E-02    0.287E-02
RMM:   3    -0.649760042005E+03    0.75005E-05   -0.29885E-05  1262   0.140E-02    0.147E-02
RMM:   4    -0.649760040663E+03    0.13413E-05   -0.10692E-05  1291   0.673E-03    0.267E-03
RMM:   5    -0.649760040500E+03    0.16325E-06   -0.46709E-07  1024   0.183E-03    0.138E-03
RMM:   6    -0.649760040471E+03    0.29018E-07   -0.20008E-07   794   0.943E-04
  58 F= -.65709685E+03 E0= -.65709685E+03  d E =-.275494E-03
 curvature:  -2.33 expect dE=-0.188E-02 dE for cont linesearch -0.165E-09
 trial: gam= 0.79445 g(F)=  0.765E-03 g(S)=  0.398E-04 ort = 0.674E-06 (trialstep = 0.372E+00)
 search vector abs. value=  0.484E-02
 bond charge predicted
       N       E                     dE             d eps       ncg     rms          rms(c)
DAV:   1    -0.649760381693E+03   -0.34119E-03   -0.41742E-02  1260   0.492E-01    0.471E-02
RMM:   2    -0.649760432396E+03   -0.50703E-04   -0.75372E-04  1260   0.636E-02    0.302E-02
RMM:   3    -0.649760421888E+03    0.10508E-04   -0.33805E-05  1262   0.144E-02    0.145E-02
RMM:   4    -0.649760420181E+03    0.17071E-05   -0.10689E-05  1279   0.673E-03    0.263E-03
RMM:   5    -0.649760420064E+03    0.11686E-06   -0.47115E-07  1012   0.196E-03    0.135E-03
RMM:   6    -0.649760420042E+03    0.22874E-07   -0.19968E-07   786   0.947E-04
  59 F= -.65709705E+03 E0= -.65709705E+03  d E =-.200825E-03
 trial-energy change:   -0.000201  1 .order   -0.000201   -0.000300   -0.000101
 step:   0.5627(harm=  0.5627)  dis= 0.00158  next Energy=  -657.097074 (dE=-0.227E-03)
 bond charge predicted
       N       E                     dE             d eps       ncg     rms          rms(c)
DAV:   1    -0.649760529319E+03   -0.10925E-03   -0.10900E-02  1304   0.251E-01    0.241E-02
RMM:   2    -0.649760542487E+03   -0.13167E-04   -0.19678E-04  1260   0.325E-02    0.155E-02
RMM:   3    -0.649760539686E+03    0.28005E-05   -0.88890E-06  1262   0.738E-03    0.740E-03
RMM:   4    -0.649760539173E+03    0.51278E-06   -0.27898E-06  1280   0.344E-03    0.135E-03
RMM:   5    -0.649760539132E+03    0.41819E-07   -0.10801E-07   787   0.100E-03
  60 F= -.65709708E+03 E0= -.65709708E+03  d E =-.228566E-03
 curvature:  -1.69 expect dE=-0.124E-02 dE for cont linesearch -0.397E-09
 trial: gam= 0.94327 g(F)=  0.723E-03 g(S)=  0.128E-04 ort =-0.107E-05 (trialstep = 0.394E+00)
 search vector abs. value=  0.504E-02
 bond charge predicted
       N       E                     dE             d eps       ncg     rms          rms(c)
DAV:   1    -0.649760498529E+03    0.40644E-04   -0.49360E-02  1260   0.538E-01    0.514E-02
RMM:   2    -0.649760557273E+03   -0.58743E-04   -0.89234E-04  1260   0.689E-02    0.335E-02
RMM:   3    -0.649760544751E+03    0.12522E-04   -0.40312E-05  1260   0.158E-02    0.170E-02
RMM:   4    -0.649760542439E+03    0.23126E-05   -0.13945E-05  1280   0.767E-03    0.318E-03
RMM:   5    -0.649760542384E+03    0.54890E-07   -0.59102E-07  1119   0.214E-03
  61 F= -.65709727E+03 E0= -.65709727E+03  d E =-.192526E-03
 trial-energy change:   -0.000193  1 .order   -0.000191   -0.000290   -0.000093
 step:   0.5704(harm=  0.5806)  dis= 0.00167  next Energy=  -657.097289 (dE=-0.213E-03)
 bond charge predicted
       N       E                     dE             d eps       ncg     rms          rms(c)
DAV:   1    -0.649760472822E+03    0.69616E-04   -0.98879E-03  1320   0.241E-01    0.230E-02
RMM:   2    -0.649760484813E+03   -0.11991E-04   -0.18150E-04  1260   0.310E-02    0.151E-02
RMM:   3    -0.649760482281E+03    0.25318E-05   -0.82193E-06  1261   0.713E-03    0.771E-03
RMM:   4    -0.649760481819E+03    0.46156E-06   -0.28640E-06  1276   0.345E-03    0.145E-03
RMM:   5    -0.649760481810E+03    0.94824E-08   -0.10272E-07   786   0.997E-04
  62 F= -.65709729E+03 E0= -.65709729E+03  d E =-.216678E-03
 curvature:  -1.99 expect dE=-0.138E-02 dE for cont linesearch -0.103E-06
 trial: gam= 0.91945 g(F)=  0.665E-03 g(S)=  0.285E-04 ort = 0.161E-04 (trialstep = 0.429E+00)
 search vector abs. value=  0.498E-02
 bond charge predicted
       N       E                     dE             d eps       ncg     rms          rms(c)
DAV:   1    -0.649760353583E+03    0.12824E-03   -0.58825E-02  1260   0.587E-01    0.538E-02
RMM:   2    -0.649760435355E+03   -0.81772E-04   -0.10820E-03  1260   0.761E-02    0.344E-02
RMM:   3    -0.649760424567E+03    0.10787E-04   -0.45290E-05  1264   0.169E-02    0.168E-02
RMM:   4    -0.649760423574E+03    0.99354E-06   -0.13866E-05  1282   0.785E-03    0.304E-03
RMM:   5    -0.649760423415E+03    0.15914E-06   -0.70023E-07  1185   0.206E-03    0.142E-03
RMM:   6    -0.649760423413E+03    0.19063E-08   -0.21530E-07   810   0.961E-04
  63 F= -.65709749E+03 E0= -.65709749E+03  d E =-.195200E-03
 trial-energy change:   -0.000195  1 .order   -0.000192   -0.000304   -0.000079
 step:   0.5634(harm=  0.5804)  dis= 0.00169  next Energy=  -657.097500 (dE=-0.208E-03)
 bond charge predicted
       N       E                     dE             d eps       ncg     rms          rms(c)
DAV:   1    -0.649760352328E+03    0.71087E-04   -0.57201E-03  1304   0.183E-01    0.168E-02
RMM:   2    -0.649760360415E+03   -0.80873E-05   -0.10531E-04  1260   0.238E-02    0.107E-02
RMM:   3    -0.649760359474E+03    0.94110E-06   -0.44345E-06  1264   0.530E-03    0.524E-03
RMM:   4    -0.649760359453E+03    0.20509E-07   -0.13433E-06  1256   0.246E-03    0.953E-04
RMM:   5    -0.649760359435E+03    0.18386E-07   -0.59006E-08   786   0.693E-04
  64 F= -.65709750E+03 E0= -.65709750E+03  d E =-.210424E-03
 curvature:  -2.02 expect dE=-0.114E-02 dE for cont linesearch -0.181E-06
 trial: gam= 0.82922 g(F)=  0.547E-03 g(S)=  0.191E-04 ort = 0.212E-04 (trialstep = 0.456E+00)
 search vector abs. value=  0.403E-02
 bond charge predicted
       N       E                     dE             d eps       ncg     rms          rms(c)
DAV:   1    -0.649760450011E+03   -0.90557E-04   -0.54131E-02  1260   0.558E-01    0.506E-02
RMM:   2    -0.649760525681E+03   -0.75670E-04   -0.99832E-04  1260   0.722E-02    0.330E-02
RMM:   3    -0.649760515524E+03    0.10157E-04   -0.40653E-05  1260   0.161E-02    0.169E-02
RMM:   4    -0.649760514377E+03    0.11468E-05   -0.14266E-05  1273   0.766E-03    0.312E-03
RMM:   5    -0.649760514241E+03    0.13625E-06   -0.65870E-07  1168   0.216E-03    0.167E-03
RMM:   6    -0.649760514256E+03   -0.15809E-07   -0.27697E-07   846   0.104E-03
  65 F= -.65709768E+03 E0= -.65709768E+03  d E =-.181751E-03
 trial-energy change:   -0.000182  1 .order   -0.000182   -0.000266   -0.000097
 step:   0.7173(harm=  0.7173)  dis= 0.00204  next Energy=  -657.097713 (dE=-0.209E-03)
 bond charge predicted
       N       E                     dE             d eps       ncg     rms          rms(c)
DAV:   1    -0.649760506153E+03    0.80871E-05   -0.17713E-02  1260   0.319E-01    0.289E-02
RMM:   2    -0.649760530891E+03   -0.24738E-04   -0.32586E-04  1260   0.413E-02    0.189E-02
RMM:   3    -0.649760527672E+03    0.32194E-05   -0.13307E-05  1261   0.920E-03    0.966E-03
RMM:   4    -0.649760527347E+03    0.32540E-06   -0.46312E-06  1274   0.437E-03    0.178E-03
RMM:   5    -0.649760527301E+03    0.45791E-07   -0.17778E-07   800   0.123E-03
  66 F= -.65709771E+03 E0= -.65709771E+03  d E =-.210184E-03
 curvature:  -2.47 expect dE=-0.179E-02 dE for cont linesearch -0.503E-08
 trial: gam= 1.32088 g(F)=  0.707E-03 g(S)=  0.164E-04 ort =-0.286E-05 (trialstep = 0.264E+00)
 search vector abs. value=  0.775E-02
 bond charge predicted
       N       E                     dE             d eps       ncg     rms          rms(c)
DAV:   1    -0.649760552745E+03   -0.25399E-04   -0.35138E-02  1260   0.446E-01    0.414E-02
RMM:   2    -0.649760600416E+03   -0.47671E-04   -0.64942E-04  1260   0.579E-02    0.269E-02
RMM:   3    -0.649760592873E+03    0.75424E-05   -0.25626E-05  1263   0.128E-02    0.138E-02
RMM:   4    -0.649760591771E+03    0.11021E-05   -0.93535E-06  1263   0.623E-03    0.250E-03
RMM:   5    -0.649760591643E+03    0.12840E-06   -0.36653E-07   914   0.170E-03    0.137E-03
RMM:   6    -0.649760591611E+03    0.31907E-07   -0.25485E-07   827   0.113E-03
  67 F= -.65709787E+03 E0= -.65709787E+03  d E =-.152906E-03
 trial-energy change:   -0.000153  1 .order   -0.000152   -0.000190   -0.000113
 step:   0.5879(harm=  0.6515)  dis= 0.00248  next Energy=  -657.097937 (dE=-0.224E-03)
 bond charge predicted
       N       E                     dE             d eps       ncg     rms          rms(c)
DAV:   1    -0.649760504438E+03    0.87205E-04   -0.52494E-02  1260   0.545E-01    0.506E-02
RMM:   2    -0.649760575137E+03   -0.70699E-04   -0.96610E-04  1260   0.707E-02    0.329E-02
RMM:   3    -0.649760563897E+03    0.11241E-04   -0.38271E-05  1263   0.156E-02    0.168E-02
RMM:   4    -0.649760562281E+03    0.16158E-05   -0.13869E-05  1263   0.760E-03    0.305E-03
RMM:   5    -0.649760562100E+03    0.18118E-06   -0.57599E-07  1076   0.207E-03    0.165E-03
RMM:   6    -0.649760562059E+03    0.40716E-07   -0.33672E-07   914   0.123E-03
  68 F= -.65709795E+03 E0= -.65709795E+03  d E =-.232208E-03
 curvature:  -3.41 expect dE=-0.233E-02 dE for cont linesearch -0.210E-05
 trial: gam= 0.81451 g(F)=  0.673E-03 g(S)=  0.114E-04 ort = 0.691E-04 (trialstep = 0.329E+00)
 search vector abs. value=  0.594E-02
 bond charge predicted
       N       E                     dE             d eps       ncg     rms          rms(c)
DAV:   1    -0.649760845629E+03   -0.28353E-03   -0.43757E-02  1260   0.501E-01    0.454E-02
RMM:   2    -0.649760908905E+03   -0.63276E-04   -0.83159E-04  1260   0.654E-02    0.298E-02
RMM:   3    -0.649760899441E+03    0.94643E-05   -0.30776E-05  1260   0.140E-02    0.158E-02
RMM:   4    -0.649760897614E+03    0.18266E-05   -0.12672E-05  1266   0.715E-03    0.276E-03
RMM:   5    -0.649760897429E+03    0.18476E-06   -0.50316E-07  1040   0.194E-03    0.154E-03
RMM:   6    -0.649760897387E+03    0.42019E-07   -0.38963E-07  1007   0.125E-03
  69 F= -.65709812E+03 E0= -.65709812E+03  d E =-.170632E-03
 trial-energy change:   -0.000171  1 .order   -0.000169   -0.000244   -0.000094
 step:   0.5165(harm=  0.5358)  dis= 0.00205  next Energy=  -657.098143 (dE=-0.198E-03)
 bond charge predicted
       N       E                     dE             d eps       ncg     rms          rms(c)
DAV:   1    -0.649761002577E+03   -0.10515E-03   -0.14178E-02  1288   0.285E-01    0.259E-02
RMM:   2    -0.649761023003E+03   -0.20426E-04   -0.26894E-04  1260   0.372E-02    0.170E-02
RMM:   3    -0.649761019889E+03    0.31135E-05   -0.10018E-05  1260   0.796E-03    0.899E-03
RMM:   4    -0.649761019240E+03    0.64951E-06   -0.40855E-06  1266   0.407E-03    0.158E-03
RMM:   5    -0.649761019171E+03    0.68576E-07   -0.14067E-07   787   0.110E-03
  70 F= -.65709814E+03 E0= -.65709814E+03  d E =-.198820E-03
 curvature:  -2.13 expect dE=-0.112E-02 dE for cont linesearch -0.194E-06
 trial: gam= 0.87407 g(F)=  0.515E-03 g(S)=  0.943E-05 ort = 0.233E-04 (trialstep = 0.367E+00)
 search vector abs. value=  0.510E-02
 bond charge predicted
       N       E                     dE             d eps       ncg     rms          rms(c)
DAV:   1    -0.649761195478E+03   -0.17624E-03   -0.50249E-02  1260   0.534E-01    0.471E-02
RMM:   2    -0.649761266949E+03   -0.71471E-04   -0.93609E-04  1260   0.692E-02    0.304E-02
RMM:   3    -0.649761257686E+03    0.92632E-05   -0.33914E-05  1260   0.148E-02    0.163E-02
RMM:   4    -0.649761255933E+03    0.17525E-05   -0.13076E-05  1262   0.753E-03    0.273E-03
RMM:   5    -0.649761255854E+03    0.79064E-07   -0.48737E-07   990   0.195E-03
  71 F= -.65709830E+03 E0= -.65709830E+03  d E =-.159941E-03
 trial-energy change:   -0.000160  1 .order   -0.000158   -0.000200   -0.000116
 step:   0.7514(harm=  0.8715)  dis= 0.00294  next Energy=  -657.098367 (dE=-0.223E-03)
 bond charge predicted
       N       E                     dE             d eps       ncg     rms          rms(c)
DAV:   1    -0.649761347523E+03   -0.91589E-04   -0.55394E-02  1260   0.561E-01    0.494E-02
RMM:   2    -0.649761426738E+03   -0.79216E-04   -0.10349E-03  1260   0.726E-02    0.320E-02
RMM:   3    -0.649761416484E+03    0.10254E-04   -0.37582E-05  1260   0.155E-02    0.172E-02
RMM:   4    -0.649761414584E+03    0.18998E-05   -0.14443E-05  1261   0.787E-03    0.287E-03
RMM:   5    -0.649761414491E+03    0.93794E-07   -0.55834E-07  1039   0.210E-03
  72 F= -.65709838E+03 E0= -.65709838E+03  d E =-.238042E-03
 curvature:  -3.85 expect dE=-0.253E-02 dE for cont linesearch -0.440E-05
 trial: gam= 1.08085 g(F)=  0.596E-03 g(S)=  0.604E-04 ort = 0.764E-04 (trialstep = 0.334E+00)
 search vector abs. value=  0.678E-02
 bond charge predicted
       N       E                     dE             d eps       ncg     rms          rms(c)
DAV:   1    -0.649761443510E+03   -0.28925E-04   -0.55886E-02  1260   0.563E-01    0.505E-02
RMM:   2    -0.649761522054E+03   -0.78545E-04   -0.10417E-03  1260   0.726E-02    0.326E-02
RMM:   3    -0.649761511693E+03    0.10361E-04   -0.40124E-05  1260   0.157E-02    0.171E-02
RMM:   4    -0.649761510171E+03    0.15220E-05   -0.14152E-05  1267   0.784E-03    0.304E-03
RMM:   5    -0.649761510016E+03    0.15461E-06   -0.67746E-07  1165   0.224E-03    0.157E-03
RMM:   6    -0.649761510002E+03    0.14434E-07   -0.26343E-07   839   0.105E-03
  73 F= -.65709858E+03 E0= -.65709858E+03  d E =-.195821E-03
 trial-energy change:   -0.000196  1 .order   -0.000194   -0.000247   -0.000141
 step:   0.6997(harm=  0.7811)  dis= 0.00325  next Energy=  -657.098658 (dE=-0.276E-03)
 bond charge predicted
       N       E                     dE             d eps       ncg     rms          rms(c)
DAV:   1    -0.649761411160E+03    0.98856E-04   -0.67116E-02  1260   0.616E-01    0.553E-02
RMM:   2    -0.649761504655E+03   -0.93495E-04   -0.12415E-03  1260   0.792E-02    0.357E-02
RMM:   3    -0.649761492242E+03    0.12413E-04   -0.47889E-05  1260   0.172E-02    0.186E-02
RMM:   4    -0.649761490421E+03    0.18212E-05   -0.16722E-05  1268   0.851E-03    0.332E-03
RMM:   5    -0.649761490244E+03    0.17658E-06   -0.82183E-07  1240   0.244E-03    0.170E-03
RMM:   6    -0.649761490232E+03    0.11963E-07   -0.29253E-07   865   0.107E-03
  74 F= -.65709867E+03 E0= -.65709867E+03  d E =-.286636E-03
 curvature:  -3.46 expect dE=-0.235E-02 dE for cont linesearch -0.273E-05
 trial: gam= 1.15211 g(F)=  0.626E-03 g(S)=  0.529E-04 ort = 0.731E-04 (trialstep = 0.280E+00)
 search vector abs. value=  0.985E-02
 bond charge predicted
       N       E                     dE             d eps       ncg     rms          rms(c)
DAV:   1    -0.649761379255E+03    0.11099E-03   -0.58403E-02  1260   0.578E-01    0.529E-02
RMM:   2    -0.649761460645E+03   -0.81390E-04   -0.11059E-03  1260   0.749E-02    0.342E-02
RMM:   3    -0.649761449326E+03    0.11319E-04   -0.42715E-05  1260   0.169E-02    0.184E-02
RMM:   4    -0.649761447025E+03    0.23010E-05   -0.15185E-05  1271   0.839E-03    0.322E-03
RMM:   5    -0.649761446977E+03    0.48303E-07   -0.65762E-07  1075   0.216E-03
  75 F= -.65709884E+03 E0= -.65709884E+03  d E =-.166649E-03
 trial-energy change:   -0.000167  1 .order   -0.000166   -0.000214   -0.000118
 step:   0.5964(harm=  0.6269)  dis= 0.00338  next Energy=  -657.098903 (dE=-0.234E-03)
 bond charge predicted
       N       E                     dE             d eps       ncg     rms          rms(c)
DAV:   1    -0.649761196175E+03    0.25085E-03   -0.74534E-02  1260   0.653E-01    0.599E-02
RMM:   2    -0.649761300772E+03   -0.10460E-03   -0.14195E-03  1260   0.846E-02    0.387E-02
RMM:   3    -0.649761286059E+03    0.14713E-04   -0.54981E-05  1260   0.191E-02    0.209E-02
RMM:   4    -0.649761283085E+03    0.29738E-05   -0.19560E-05  1270   0.945E-03    0.366E-03
RMM:   5    -0.649761283027E+03    0.57997E-07   -0.88721E-07  1251   0.249E-03
  76 F= -.65709891E+03 E0= -.65709891E+03  d E =-.239606E-03
 curvature:  -4.02 expect dE=-0.339E-02 dE for cont linesearch -0.672E-06
 trial: gam= 1.28061 g(F)=  0.819E-03 g(S)=  0.265E-04 ort = 0.406E-04 (trialstep = 0.198E+00)
 search vector abs. value=  0.171E-01
 bond charge predicted
       N       E                     dE             d eps       ncg     rms          rms(c)
DAV:   1    -0.649761075358E+03    0.20773E-03   -0.53242E-02  1264   0.549E-01    0.489E-02
RMM:   2    -0.649761149636E+03   -0.74278E-04   -0.97875E-04  1260   0.703E-02    0.314E-02
RMM:   3    -0.649761139943E+03    0.96927E-05   -0.35873E-05  1260   0.155E-02    0.164E-02
RMM:   4    -0.649761138370E+03    0.15731E-05   -0.13012E-05  1265   0.758E-03    0.264E-03
RMM:   5    -0.649761138289E+03    0.80958E-07   -0.51116E-07   969   0.194E-03
  77 F= -.65709906E+03 E0= -.65709906E+03  d E =-.153239E-03
 trial-energy change:   -0.000153  1 .order   -0.000152   -0.000177   -0.000127
 step:   0.5639(harm=  0.6947)  dis= 0.00418  next Energy=  -657.099186 (dE=-0.277E-03)
 bond charge predicted
       N       E                     dE             d eps       ncg     rms          rms(c)
DAV:   1    -0.649760530328E+03    0.60804E-03   -0.18228E-01  1260   0.102E+00    0.904E-02
RMM:   2    -0.649760782911E+03   -0.25258E-03   -0.33391E-03  1260   0.130E-01    0.581E-02
RMM:   3    -0.649760749360E+03    0.33552E-04   -0.12235E-04  1260   0.286E-02    0.302E-02
RMM:   4    -0.649760743563E+03    0.57963E-05   -0.44367E-05  1265   0.140E-02    0.488E-03
RMM:   5    -0.649760743299E+03    0.26406E-06   -0.19292E-06  1326   0.357E-03    0.286E-03
RMM:   6    -0.649760743310E+03   -0.10892E-07   -0.84448E-07  1196   0.179E-03
  78 F= -.65709922E+03 E0= -.65709922E+03  d E =-.311252E-03
 curvature:  -6.16 expect dE=-0.393E-02 dE for cont linesearch -0.124E-04
 ZBRENT: extrapolating
 opt :   0.7131  next Energy=  -657.099234 (dE=-0.325E-03)
 bond charge predicted
       N       E                     dE             d eps       ncg     rms          rms(c)
DAV:   1    -0.649760496639E+03    0.24666E-03   -0.30228E-02  1304   0.414E-01    0.368E-02
RMM:   2    -0.649760538356E+03   -0.41717E-04   -0.55100E-04  1260   0.529E-02    0.236E-02
RMM:   3    -0.649760532998E+03    0.53582E-05   -0.20282E-05  1260   0.117E-02    0.123E-02
RMM:   4    -0.649760532175E+03    0.82351E-06   -0.73325E-06  1266   0.574E-03    0.199E-03
RMM:   5    -0.649760532124E+03    0.50313E-07   -0.26760E-07   859   0.144E-03
  79 F= -.65709923E+03 E0= -.65709923E+03  d E =-.325701E-03
 curvature:  -6.87 expect dE=-0.653E-02 dE for cont linesearch -0.277E-07
 trial: gam= 1.10509 g(F)=  0.923E-03 g(S)=  0.275E-04 ort =-0.831E-05 (trialstep = 0.236E+00)
 search vector abs. value=  0.218E-01
 bond charge predicted
       N       E                     dE             d eps       ncg     rms          rms(c)
DAV:   1    -0.649760517330E+03    0.14845E-04   -0.99283E-02  1260   0.745E-01    0.651E-02
RMM:   2    -0.649760658025E+03   -0.14070E-03   -0.18413E-03  1260   0.960E-02    0.424E-02
RMM:   3    -0.649760639166E+03    0.18859E-04   -0.66209E-05  1260   0.209E-02    0.224E-02
RMM:   4    -0.649760635515E+03    0.36513E-05   -0.25214E-05  1263   0.103E-02    0.357E-03
RMM:   5    -0.649760635321E+03    0.19424E-06   -0.10548E-06  1283   0.266E-03    0.204E-03
RMM:   6    -0.649760635294E+03    0.26568E-07   -0.44980E-07  1064   0.127E-03
  80 F= -.65709942E+03 E0= -.65709942E+03  d E =-.182836E-03
 trial-energy change:   -0.000183  1 .order   -0.000180   -0.000222   -0.000138
 step:   0.5133(harm=  0.6259)  dis= 0.00422  next Energy=  -657.099503 (dE=-0.269E-03)
 bond charge predicted
       N       E                     dE             d eps       ncg     rms          rms(c)
DAV:   1    -0.649760481694E+03    0.15363E-03   -0.13732E-01  1260   0.876E-01    0.764E-02
RMM:   2    -0.649760675582E+03   -0.19389E-03   -0.25341E-03  1260   0.113E-01    0.498E-02
RMM:   3    -0.649760649798E+03    0.25784E-04   -0.91069E-05  1260   0.245E-02    0.263E-02
RMM:   4    -0.649760644834E+03    0.49640E-05   -0.34520E-05  1263   0.121E-02    0.417E-03
RMM:   5    -0.649760644574E+03    0.26014E-06   -0.14553E-06  1314   0.311E-03    0.240E-03
RMM:   6    -0.649760644538E+03    0.35512E-07   -0.61010E-07  1139   0.148E-03
  81 F= -.65709952E+03 E0= -.65709952E+03  d E =-.286558E-03
 curvature:  -6.65 expect dE=-0.433E-02 dE for cont linesearch -0.782E-05
 ZBRENT: extrapolating
 opt :   0.6176  next Energy=  -657.099529 (dE=-0.295E-03)
 bond charge predicted
       N       E                     dE             d eps       ncg     rms          rms(c)
DAV:   1    -0.649760594339E+03    0.50234E-04   -0.19369E-02  1304   0.329E-01    0.287E-02
RMM:   2    -0.649760621631E+03   -0.27292E-04   -0.35687E-04  1260   0.423E-02    0.187E-02
RMM:   3    -0.649760618023E+03    0.36084E-05   -0.12873E-05  1260   0.923E-03    0.987E-03
RMM:   4    -0.649760617311E+03    0.71206E-06   -0.48605E-06  1263   0.456E-03    0.157E-03
RMM:   5    -0.649760617268E+03    0.43343E-07   -0.16533E-07   818   0.117E-03
  82 F= -.65709953E+03 E0= -.65709953E+03  d E =-.294907E-03
 curvature:  -7.09 expect dE=-0.624E-02 dE for cont linesearch -0.154E-07
 trial: gam= 0.85976 g(F)=  0.862E-03 g(S)=  0.175E-04 ort =-0.688E-05 (trialstep = 0.312E+00)
 search vector abs. value=  0.170E-01
 bond charge predicted
       N       E                     dE             d eps       ncg     rms          rms(c)
DAV:   1    -0.649760819309E+03   -0.20200E-03   -0.13220E-01  1260   0.856E-01    0.777E-02
RMM:   2    -0.649761008087E+03   -0.18878E-03   -0.25554E-03  1260   0.112E-01    0.508E-02
RMM:   3    -0.649760979884E+03    0.28202E-04   -0.93146E-05  1260   0.246E-02    0.274E-02
RMM:   4    -0.649760973647E+03    0.62379E-05   -0.36359E-05  1264   0.124E-02    0.439E-03
RMM:   5    -0.649760973397E+03    0.24904E-06   -0.14578E-06  1314   0.313E-03    0.256E-03
RMM:   6    -0.649760973310E+03    0.87361E-07   -0.77255E-07  1172   0.161E-03
  83 F= -.65709972E+03 E0= -.65709972E+03  d E =-.194912E-03
 trial-energy change:   -0.000195  1 .order   -0.000194   -0.000273   -0.000116
 step:   0.5342(harm=  0.5427)  dis= 0.00375  next Energy=  -657.099765 (dE=-0.236E-03)
 bond charge predicted
       N       E                     dE             d eps       ncg     rms          rms(c)
DAV:   1    -0.649761052369E+03   -0.78971E-04   -0.66782E-02  1264   0.608E-01    0.552E-02
RMM:   2    -0.649761147381E+03   -0.95012E-04   -0.12855E-03  1260   0.796E-02    0.360E-02
RMM:   3    -0.649761133258E+03    0.14123E-04   -0.46895E-05  1260   0.175E-02    0.194E-02
RMM:   4    -0.649761130056E+03    0.32014E-05   -0.18219E-05  1264   0.878E-03    0.311E-03
RMM:   5    -0.649761129922E+03    0.13376E-06   -0.69477E-07  1086   0.222E-03    0.182E-03
RMM:   6    -0.649761129870E+03    0.52612E-07   -0.42920E-07  1048   0.127E-03
  84 F= -.65709977E+03 E0= -.65709977E+03  d E =-.237419E-03
 curvature:  -5.27 expect dE=-0.424E-02 dE for cont linesearch -0.289E-07
 trial: gam= 0.90546 g(F)=  0.760E-03 g(S)=  0.439E-04 ort = 0.965E-05 (trialstep = 0.357E+00)
 search vector abs. value=  0.148E-01
 bond charge predicted
       N       E                     dE             d eps       ncg     rms          rms(c)
DAV:   1    -0.649761211134E+03   -0.81211E-04   -0.15020E-01  1260   0.909E-01    0.809E-02
RMM:   2    -0.649761436219E+03   -0.22509E-03   -0.29079E-03  1260   0.120E-01    0.527E-02
RMM:   3    -0.649761407092E+03    0.29127E-04   -0.10068E-04  1260   0.255E-02    0.285E-02
RMM:   4    -0.649761401334E+03    0.57581E-05   -0.39673E-05  1265   0.130E-02    0.456E-03
RMM:   5    -0.649761401027E+03    0.30708E-06   -0.15862E-06  1310   0.322E-03    0.256E-03
RMM:   6    -0.649761401020E+03    0.75888E-08   -0.73678E-07  1179   0.157E-03
  85 F= -.65709996E+03 E0= -.65709996E+03  d E =-.194219E-03
 trial-energy change:   -0.000194  1 .order   -0.000194   -0.000290   -0.000099
 step:   0.5422(harm=  0.5422)  dis= 0.00343  next Energy=  -657.099987 (dE=-0.220E-03)
 bond charge predicted
       N       E                     dE             d eps       ncg     rms          rms(c)
DAV:   1    -0.649761415219E+03   -0.14192E-04   -0.40688E-02  1272   0.473E-01    0.421E-02
RMM:   2    -0.649761476026E+03   -0.60806E-04   -0.78677E-04  1260   0.622E-02    0.274E-02
RMM:   3    -0.649761468154E+03    0.78711E-05   -0.27300E-05  1260   0.133E-02    0.148E-02
RMM:   4    -0.649761466552E+03    0.16022E-05   -0.10721E-05  1265   0.675E-03    0.237E-03
RMM:   5    -0.649761466467E+03    0.85425E-07   -0.37817E-07   901   0.167E-03
  86 F= -.65709999E+03 E0= -.65709999E+03  d E =-.219969E-03
 curvature:  -4.92 expect dE=-0.334E-02 dE for cont linesearch -0.310E-07
 trial: gam= 0.86474 g(F)=  0.617E-03 g(S)=  0.614E-04 ort =-0.964E-05 (trialstep = 0.394E+00)
 search vector abs. value=  0.117E-01
 bond charge predicted
       N       E                     dE             d eps       ncg     rms          rms(c)
DAV:   1    -0.649761250003E+03    0.21655E-03   -0.14794E-01  1260   0.902E-01    0.792E-02
RMM:   2    -0.649761475868E+03   -0.22586E-03   -0.28705E-03  1260   0.119E-01    0.521E-02
RMM:   3    -0.649761448941E+03    0.26926E-04   -0.98016E-05  1260   0.257E-02    0.291E-02
RMM:   4    -0.649761443515E+03    0.54259E-05   -0.41239E-05  1260   0.133E-02    0.468E-03
RMM:   5    -0.649761443304E+03    0.21195E-06   -0.15960E-06  1327   0.324E-03    0.278E-03
RMM:   6    -0.649761443290E+03    0.13941E-07   -0.87695E-07  1184   0.182E-03
  87 F= -.65710018E+03 E0= -.65710018E+03  d E =-.195498E-03
 trial-energy change:   -0.000195  1 .order   -0.000196   -0.000264   -0.000129
 step:   0.7955(harm=  0.7689)  dis= 0.00432  next Energy=  -657.100247 (dE=-0.260E-03)
 bond charge predicted
       N       E                     dE             d eps       ncg     rms          rms(c)
DAV:   1    -0.649761081190E+03    0.36211E-03   -0.15397E-01  1260   0.921E-01    0.808E-02
RMM:   2    -0.649761315508E+03   -0.23432E-03   -0.29757E-03  1260   0.121E-01    0.530E-02
RMM:   3    -0.649761287751E+03    0.27757E-04   -0.10165E-04  1260   0.262E-02    0.296E-02
RMM:   4    -0.649761282181E+03    0.55700E-05   -0.42634E-05  1260   0.135E-02    0.477E-03
RMM:   5    -0.649761281963E+03    0.21791E-06   -0.16534E-06  1327   0.329E-03    0.284E-03
RMM:   6    -0.649761281947E+03    0.15252E-07   -0.91633E-07  1186   0.187E-03
  88 F= -.65710024E+03 E0= -.65710024E+03  d E =-.258072E-03
 curvature:  -6.68 expect dE=-0.517E-02 dE for cont linesearch -0.448E-06
 trial: gam= 1.16124 g(F)=  0.764E-03 g(S)=  0.966E-05 ort =-0.280E-04 (trialstep = 0.336E+00)
 search vector abs. value=  0.165E-01
 bond charge predicted
       N       E                     dE             d eps       ncg     rms          rms(c)
DAV:   1    -0.649760748957E+03    0.53301E-03   -0.15784E-01  1260   0.929E-01    0.810E-02
RMM:   2    -0.649760988278E+03   -0.23932E-03   -0.30393E-03  1260   0.122E-01    0.530E-02
RMM:   3    -0.649760960491E+03    0.27786E-04   -0.99725E-05  1260   0.259E-02    0.299E-02
RMM:   4    -0.649760954879E+03    0.56120E-05   -0.44471E-05  1265   0.141E-02    0.472E-03
RMM:   5    -0.649760954644E+03    0.23496E-06   -0.16443E-06  1324   0.319E-03    0.285E-03
RMM:   6    -0.649760954606E+03    0.37977E-07   -0.88796E-07  1175   0.202E-03
  89 F= -.65710042E+03 E0= -.65710042E+03  d E =-.173885E-03
 trial-energy change:   -0.000174  1 .order   -0.000173   -0.000249   -0.000096
 step:   0.5320(harm=  0.5465)  dis= 0.00338  next Energy=  -657.100447 (dE=-0.202E-03)
 bond charge predicted
       N       E                     dE             d eps       ncg     rms          rms(c)
DAV:   1    -0.649760625342E+03    0.32930E-03   -0.53351E-02  1268   0.540E-01    0.471E-02
RMM:   2    -0.649760706230E+03   -0.80887E-04   -0.10272E-03  1260   0.710E-02    0.308E-02
RMM:   3    -0.649760696961E+03    0.92685E-05   -0.33801E-05  1260   0.151E-02    0.174E-02
RMM:   4    -0.649760695186E+03    0.17749E-05   -0.15107E-05  1265   0.823E-03    0.278E-03
RMM:   5    -0.649760695099E+03    0.87239E-07   -0.51760E-07   982   0.187E-03
  90 F= -.65710045E+03 E0= -.65710045E+03  d E =-.206119E-03
 curvature:  -6.04 expect dE=-0.440E-02 dE for cont linesearch -0.152E-06
 trial: gam= 0.84285 g(F)=  0.701E-03 g(S)=  0.277E-04 ort = 0.204E-04 (trialstep = 0.376E+00)
 search vector abs. value=  0.125E-01
 bond charge predicted
       N       E                     dE             d eps       ncg     rms          rms(c)
DAV:   1    -0.649760213728E+03    0.48146E-03   -0.15173E-01  1260   0.911E-01    0.774E-02
RMM:   2    -0.649760451337E+03   -0.23761E-03   -0.29809E-03  1260   0.119E-01    0.517E-02
RMM:   3    -0.649760425320E+03    0.26017E-04   -0.97239E-05  1260   0.249E-02    0.305E-02
RMM:   4    -0.649760419494E+03    0.58261E-05   -0.44054E-05  1260   0.135E-02    0.491E-03
RMM:   5    -0.649760419304E+03    0.18963E-06   -0.16296E-06  1319   0.330E-03    0.286E-03
RMM:   6    -0.649760419317E+03   -0.13519E-07   -0.80927E-07  1180   0.170E-03
  91 F= -.65710065E+03 E0= -.65710065E+03  d E =-.197237E-03
 trial-energy change:   -0.000197  1 .order   -0.000195   -0.000280   -0.000111
 step:   0.5987(harm=  0.6217)  dis= 0.00333  next Energy=  -657.100681 (dE=-0.231E-03)
 bond charge predicted
       N       E                     dE             d eps       ncg     rms          rms(c)
DAV:   1    -0.649760103174E+03    0.31613E-03   -0.53503E-02  1268   0.541E-01    0.459E-02
RMM:   2    -0.649760186420E+03   -0.83246E-04   -0.10460E-03  1260   0.708E-02    0.306E-02
RMM:   3    -0.649760177423E+03    0.89969E-05   -0.34249E-05  1260   0.149E-02    0.181E-02
RMM:   4    -0.649760175484E+03    0.19390E-05   -0.15427E-05  1260   0.805E-03    0.292E-03
RMM:   5    -0.649760175428E+03    0.56465E-07   -0.52252E-07   982   0.195E-03
  92 F= -.65710069E+03 E0= -.65710069E+03  d E =-.234703E-03
 curvature:  -5.15 expect dE=-0.314E-02 dE for cont linesearch -0.172E-06
 trial: gam= 0.89599 g(F)=  0.601E-03 g(S)=  0.857E-05 ort = 0.204E-04 (trialstep = 0.420E+00)
 search vector abs. value=  0.107E-01
 bond charge predicted
       N       E                     dE             d eps       ncg     rms          rms(c)
DAV:   1    -0.649759610653E+03    0.56483E-03   -0.16636E-01  1260   0.953E-01    0.797E-02
RMM:   2    -0.649759875354E+03   -0.26470E-03   -0.32676E-03  1260   0.124E-01    0.530E-02
RMM:   3    -0.649759848296E+03    0.27059E-04   -0.10538E-04  1260   0.260E-02    0.309E-02
RMM:   4    -0.649759842395E+03    0.59010E-05   -0.46912E-05  1262   0.139E-02    0.481E-03
RMM:   5    -0.649759842133E+03    0.26190E-06   -0.16675E-06  1313   0.329E-03    0.284E-03
RMM:   6    -0.649759842151E+03   -0.18557E-07   -0.81068E-07  1176   0.164E-03
  93 F= -.65710085E+03 E0= -.65710085E+03  d E =-.169515E-03
 trial-energy change:   -0.000170  1 .order   -0.000168   -0.000264   -0.000071
 step:   0.5641(harm=  0.5758)  dis= 0.00297  next Energy=  -657.100867 (dE=-0.182E-03)
 bond charge predicted
       N       E                     dE             d eps       ncg     rms          rms(c)
DAV:   1    -0.649759656892E+03    0.18524E-03   -0.19467E-02  1304   0.326E-01    0.272E-02
RMM:   2    -0.649759687579E+03   -0.30688E-04   -0.38001E-04  1260   0.423E-02    0.181E-02
RMM:   3    -0.649759684492E+03    0.30877E-05   -0.12337E-05  1260   0.892E-03    0.105E-02
RMM:   4    -0.649759683885E+03    0.60716E-06   -0.54325E-06  1260   0.475E-03    0.164E-03
RMM:   5    -0.649759683863E+03    0.21813E-07   -0.15738E-07   824   0.112E-03
  94 F= -.65710087E+03 E0= -.65710087E+03  d E =-.183445E-03
 curvature:  -4.86 expect dE=-0.253E-02 dE for cont linesearch -0.214E-07
 trial: gam= 0.87782 g(F)=  0.518E-03 g(S)=  0.158E-05 ort = 0.686E-05 (trialstep = 0.449E+00)
 search vector abs. value=  0.874E-02
 bond charge predicted
       N       E                     dE             d eps       ncg     rms          rms(c)
DAV:   1    -0.649758994456E+03    0.68943E-03   -0.16254E-01  1264   0.937E-01    0.784E-02
RMM:   2    -0.649759248162E+03   -0.25371E-03   -0.31740E-03  1260   0.122E-01    0.512E-02
RMM:   3    -0.649759221849E+03    0.26313E-04   -0.10253E-04  1260   0.259E-02    0.301E-02
RMM:   4    -0.649759215962E+03    0.58865E-05   -0.47297E-05  1263   0.140E-02    0.491E-03
RMM:   5    -0.649759215729E+03    0.23333E-06   -0.16585E-06  1296   0.324E-03    0.291E-03
RMM:   6    -0.649759215744E+03   -0.15174E-07   -0.86971E-07  1174   0.177E-03
  95 F= -.65710103E+03 E0= -.65710103E+03  d E =-.158738E-03
 trial-energy change:   -0.000159  1 .order   -0.000160   -0.000236   -0.000083
 step:   0.7104(harm=  0.6942)  dis= 0.00350  next Energy=  -657.101052 (dE=-0.183E-03)
 bond charge predicted
       N       E                     dE             d eps       ncg     rms          rms(c)
DAV:   1    -0.649758799465E+03    0.41626E-03   -0.55083E-02  1264   0.546E-01    0.456E-02
RMM:   2    -0.649758884865E+03   -0.85400E-04   -0.10716E-03  1260   0.707E-02    0.298E-02
RMM:   3    -0.649758875999E+03    0.88655E-05   -0.34832E-05  1260   0.151E-02    0.175E-02
RMM:   4    -0.649758874072E+03    0.19271E-05   -0.15965E-05  1263   0.819E-03    0.288E-03
RMM:   5    -0.649758874005E+03    0.67572E-07   -0.52036E-07   966   0.187E-03
  96 F= -.65710105E+03 E0= -.65710105E+03  d E =-.182564E-03
 curvature:  -5.75 expect dE=-0.294E-02 dE for cont linesearch -0.243E-06
 trial: gam= 1.01214 g(F)=  0.492E-03 g(S)=  0.200E-04 ort =-0.192E-04 (trialstep = 0.465E+00)
 search vector abs. value=  0.943E-02
 bond charge predicted
       N       E                     dE             d eps       ncg     rms          rms(c)
DAV:   1    -0.649757933993E+03    0.94008E-03   -0.19101E-01  1260   0.102E+00    0.871E-02
RMM:   2    -0.649758232675E+03   -0.29868E-03   -0.38239E-03  1260   0.133E-01    0.565E-02
RMM:   3    -0.649758200427E+03    0.32248E-04   -0.12978E-04  1260   0.298E-02    0.333E-02
RMM:   4    -0.649758192713E+03    0.77139E-05   -0.55497E-05  1261   0.157E-02    0.600E-03
RMM:   5    -0.649758192711E+03    0.25939E-08   -0.23564E-06  1326   0.368E-03    0.340E-03
RMM:   6    -0.649758192662E+03    0.48820E-07   -0.13959E-06  1204   0.239E-03    0.118E-03
RMM:   7    -0.649758192650E+03    0.12245E-07   -0.13932E-07   819   0.103E-03
  97 F= -.65710119E+03 E0= -.65710119E+03  d E =-.135704E-03
 trial-energy change:   -0.000136  1 .order   -0.000137   -0.000229   -0.000044
 step:   0.5798(harm=  0.5756)  dis= 0.00308  next Energy=  -657.101193 (dE=-0.141E-03)
 bond charge predicted
       N       E                     dE             d eps       ncg     rms          rms(c)
DAV:   1    -0.649757979381E+03    0.21328E-03   -0.11693E-02  1304   0.251E-01    0.215E-02
RMM:   2    -0.649757997635E+03   -0.18254E-04   -0.23401E-04  1260   0.329E-02    0.139E-02
RMM:   3    -0.649757995703E+03    0.19322E-05   -0.79564E-06  1260   0.742E-03    0.822E-03
RMM:   4    -0.649757995301E+03    0.40186E-06   -0.33696E-06  1262   0.391E-03    0.152E-03
RMM:   5    -0.649757995311E+03   -0.99753E-08   -0.11278E-07   795   0.918E-04
  98 F= -.65710119E+03 E0= -.65710119E+03  d E =-.140789E-03
 curvature:  -5.50 expect dE=-0.333E-02 dE for cont linesearch -0.757E-07
 trial: gam= 1.14102 g(F)=  0.589E-03 g(S)=  0.170E-04 ort =-0.114E-04 (trialstep = 0.358E+00)
 search vector abs. value=  0.129E-01
 bond charge predicted
       N       E                     dE             d eps       ncg     rms          rms(c)
DAV:   1    -0.649757100675E+03    0.89463E-03   -0.15841E-01  1264   0.921E-01    0.822E-02
RMM:   2    -0.649757342669E+03   -0.24199E-03   -0.31827E-03  1260   0.121E-01    0.510E-02
RMM:   3    -0.649757315747E+03    0.26922E-04   -0.10817E-04  1260   0.276E-02    0.290E-02
RMM:   4    -0.649757310337E+03    0.54092E-05   -0.44201E-05  1264   0.144E-02    0.522E-03
RMM:   5    -0.649757310296E+03    0.41708E-07   -0.19241E-06  1303   0.331E-03    0.302E-03
RMM:   6    -0.649757310327E+03   -0.31345E-07   -0.10723E-06  1192   0.218E-03    0.112E-03
RMM:   7    -0.649757310328E+03   -0.54752E-09   -0.11900E-07   813   0.975E-04
  99 F= -.65710135E+03 E0= -.65710135E+03  d E =-.155231E-03
 trial-energy change:   -0.000155  1 .order   -0.000157   -0.000212   -0.000103
 step:   0.8082(harm=  0.6934)  dis= 0.00515  next Energy=  -657.101408 (dE=-0.216E-03)
 bond charge predicted
       N       E                     dE             d eps       ncg     rms          rms(c)
DAV:   1    -0.649755958426E+03    0.13519E-02   -0.25103E-01  1260   0.116E+00    0.103E-01
RMM:   2    -0.649756341248E+03   -0.38282E-03   -0.50400E-03  1260   0.153E-01    0.641E-02
RMM:   3    -0.649756298708E+03    0.42539E-04   -0.17128E-04  1260   0.348E-02    0.364E-02
RMM:   4    -0.649756289954E+03    0.87542E-05   -0.69989E-05  1264   0.182E-02    0.661E-03
RMM:   5    -0.649756289861E+03    0.93551E-07   -0.30846E-06  1326   0.419E-03    0.382E-03
RMM:   6    -0.649756289870E+03   -0.97243E-08   -0.17067E-06  1215   0.273E-03    0.144E-03
RMM:   7    -0.649756289867E+03    0.31614E-08   -0.19526E-07   859   0.122E-03
 100 F= -.65710139E+03 E0= -.65710139E+03  d E =-.193733E-03
 curvature:  -6.64 expect dE=-0.673E-02 dE for cont linesearch -0.585E-05
 trial: gam= 1.84406 g(F)=  0.996E-03 g(S)=  0.172E-04 ort =-0.106E-03 (trialstep = 0.130E+00)
 search vector abs. value=  0.443E-01
 bond charge predicted
       N       E                     dE             d eps       ncg     rms          rms(c)
DAV:   1    -0.649755701854E+03    0.58802E-03   -0.71832E-02  1264   0.617E-01    0.547E-02
RMM:   2    -0.649755812768E+03   -0.11091E-03   -0.14382E-03  1260   0.813E-02    0.342E-02
RMM:   3    -0.649755801207E+03    0.11561E-04   -0.48482E-05  1260   0.185E-02    0.199E-02
RMM:   4    -0.649755798831E+03    0.23761E-05   -0.19300E-05  1263   0.956E-03    0.383E-03
RMM:   5    -0.649755798896E+03   -0.65647E-07   -0.91508E-07  1147   0.228E-03
 101 F= -.65710148E+03 E0= -.65710148E+03  d E =-.912509E-04
 trial-energy change:   -0.000091  1 .order   -0.000091   -0.000106   -0.000077
 step:   0.4675(harm=  0.4675)  dis= 0.00561  next Energy=  -657.101577 (dE=-0.191E-03)
 bond charge predicted
       N       E                     dE             d eps       ncg     rms          rms(c)
DAV:   1    -0.649753736498E+03    0.20623E-02   -0.48586E-01  1260   0.160E+00    0.143E-01
RMM:   2    -0.649754488456E+03   -0.75196E-03   -0.97437E-03  1260   0.211E-01    0.892E-02
RMM:   3    -0.649754408885E+03    0.79571E-04   -0.32780E-04  1260   0.480E-02    0.519E-02
RMM:   4    -0.649754391031E+03    0.17854E-04   -0.13097E-04  1264   0.248E-02    0.986E-03
RMM:   5    -0.649754391191E+03   -0.15985E-06   -0.61639E-06  1324   0.583E-03    0.548E-03
RMM:   6    -0.649754391130E+03    0.60631E-07   -0.30136E-06  1254   0.365E-03    0.193E-03
RMM:   7    -0.649754391131E+03   -0.66211E-09   -0.35848E-07   894   0.166E-03
 102 F= -.65710158E+03 E0= -.65710158E+03  d E =-.198049E-03
 curvature: -12.69 expect dE=-0.787E-02 dE for cont linesearch -0.107E-05
 trial: gam= 0.16152 g(F)=  0.596E-03 g(S)=  0.240E-04 ort = 0.612E-04 (trialstep = 0.197E+00)
 search vector abs. value=  0.180E-02
 bond charge predicted
       N       E                     dE             d eps       ncg     rms          rms(c)
DAV:   1    -0.649754350633E+03    0.40497E-04   -0.72257E-03  1336   0.203E-01    0.170E-02
RMM:   2    -0.649754363572E+03   -0.12940E-04   -0.16295E-04  1260   0.289E-02    0.116E-02
RMM:   3    -0.649754362005E+03    0.15678E-05   -0.59861E-06  1270   0.661E-03    0.721E-03
RMM:   4    -0.649754361473E+03    0.53130E-06   -0.29749E-06  1272   0.353E-03    0.152E-03
RMM:   5    -0.649754361430E+03    0.42970E-07   -0.84460E-08   786   0.837E-04
 103 F= -.65710168E+03 E0= -.65710168E+03  d E =-.964157E-04
 trial-energy change:   -0.000096  1 .order   -0.000097   -0.000124   -0.000070
 step:   0.5354(harm=  0.4528)  dis= 0.00114  next Energy=  -657.101736 (dE=-0.152E-03)
 bond charge predicted
       N       E                     dE             d eps       ncg     rms          rms(c)
DAV:   1    -0.649754153720E+03    0.20775E-03   -0.21208E-02  1268   0.348E-01    0.292E-02
RMM:   2    -0.649754191711E+03   -0.37991E-04   -0.47853E-04  1260   0.495E-02    0.198E-02
RMM:   3    -0.649754187169E+03    0.45420E-05   -0.17566E-05  1270   0.113E-02    0.124E-02
RMM:   4    -0.649754185711E+03    0.14577E-05   -0.88296E-06  1273   0.604E-03    0.258E-03
RMM:   5    -0.649754185609E+03    0.10202E-06   -0.26454E-07   831   0.144E-03    0.138E-03
RMM:   6    -0.649754185550E+03    0.58812E-07   -0.26210E-07   846   0.121E-03
 104 F= -.65710172E+03 E0= -.65710172E+03  d E =-.136441E-03
 curvature:  -0.58 expect dE=-0.336E-03 dE for cont linesearch -0.411E-05
 ZBRENT: interpolating
 opt :   0.4539  next Energy=  -657.101725 (dE=-0.141E-03)
 bond charge predicted
       N       E                     dE             d eps       ncg     rms          rms(c)
DAV:   1    -0.649754240317E+03   -0.54707E-04   -0.12318E-03  1304   0.838E-02    0.701E-03
RMM:   2    -0.649754242540E+03   -0.22239E-05   -0.27758E-05  1260   0.119E-02    0.475E-03
RMM:   3    -0.649754242333E+03    0.20789E-06   -0.98857E-07  1214   0.272E-03    0.297E-03
RMM:   4    -0.649754242295E+03    0.37617E-07   -0.51322E-07  1124   0.150E-03
 105 F= -.65710173E+03 E0= -.65710173E+03  d E =-.141105E-03
 curvature:  -0.65 expect dE=-0.258E-03 dE for cont linesearch -0.480E-09
 trial: gam= 0.66427 g(F)=  0.391E-03 g(S)=  0.735E-05 ort = 0.115E-05 (trialstep = 0.249E+00)
 search vector abs. value=  0.119E-02
 bond charge predicted
       N       E                     dE             d eps       ncg     rms          rms(c)
DAV:   1    -0.649754252665E+03   -0.10332E-04   -0.70451E-03  1272   0.203E-01    0.164E-02
RMM:   2    -0.649754263815E+03   -0.11150E-04   -0.14676E-04  1260   0.270E-02    0.108E-02
RMM:   3    -0.649754262496E+03    0.13182E-05   -0.54515E-06  1268   0.595E-03    0.665E-03
RMM:   4    -0.649754261957E+03    0.53931E-06   -0.22093E-06  1271   0.317E-03    0.130E-03
RMM:   5    -0.649754261929E+03    0.27851E-07   -0.72128E-08   786   0.780E-04
 106 F= -.65710180E+03 E0= -.65710180E+03  d E =-.739235E-04
 trial-energy change:   -0.000074  1 .order   -0.000074   -0.000099   -0.000048
 step:   0.4846(harm=  0.4846)  dis= 0.00079  next Energy=  -657.101822 (dE=-0.966E-04)
 bond charge predicted
       N       E                     dE             d eps       ncg     rms          rms(c)
DAV:   1    -0.649754225128E+03    0.36829E-04   -0.63497E-03  1272   0.193E-01    0.157E-02
RMM:   2    -0.649754235381E+03   -0.10253E-04   -0.13376E-04  1260   0.258E-02    0.103E-02
RMM:   3    -0.649754234207E+03    0.11738E-05   -0.50014E-06  1271   0.568E-03    0.638E-03
RMM:   4    -0.649754233717E+03    0.48984E-06   -0.20154E-06  1267   0.302E-03    0.125E-03
RMM:   5    -0.649754233690E+03    0.27358E-07   -0.66341E-08   786   0.750E-04
 107 F= -.65710182E+03 E0= -.65710182E+03  d E =-.969695E-04
 curvature:  -0.72 expect dE=-0.172E-03 dE for cont linesearch -0.421E-09
 trial: gam= 0.58633 g(F)=  0.234E-03 g(S)=  0.380E-05 ort = 0.833E-06 (trialstep = 0.296E+00)
 search vector abs. value=  0.649E-03
 bond charge predicted
       N       E                     dE             d eps       ncg     rms          rms(c)
DAV:   1    -0.649754300755E+03   -0.67037E-04   -0.54609E-03  1284   0.178E-01    0.150E-02
RMM:   2    -0.649754310399E+03   -0.96448E-05   -0.12405E-04  1260   0.249E-02    0.100E-02
RMM:   3    -0.649754309304E+03    0.10951E-05   -0.48512E-06  1271   0.570E-03    0.611E-03
RMM:   4    -0.649754308958E+03    0.34681E-06   -0.17917E-06  1270   0.281E-03    0.131E-03
RMM:   5    -0.649754308953E+03    0.44492E-08   -0.67521E-08   786   0.778E-04
 108 F= -.65710187E+03 E0= -.65710187E+03  d E =-.476382E-04
 trial-energy change:   -0.000048  1 .order   -0.000049   -0.000071   -0.000027
 step:   0.5961(harm=  0.4843)  dis= 0.00071  next Energy=  -657.101882 (dE=-0.602E-04)
 bond charge predicted
       N       E                     dE             d eps       ncg     rms          rms(c)
DAV:   1    -0.649754334986E+03   -0.26029E-04   -0.56270E-03  1284   0.181E-01    0.153E-02
RMM:   2    -0.649754344971E+03   -0.99847E-05   -0.12845E-04  1260   0.253E-02    0.102E-02
RMM:   3    -0.649754343842E+03    0.11293E-05   -0.50466E-06  1271   0.580E-03    0.622E-03
RMM:   4    -0.649754343486E+03    0.35601E-06   -0.18539E-06  1269   0.286E-03    0.136E-03
RMM:   5    -0.649754343482E+03    0.43219E-08   -0.71667E-08   786   0.802E-04
 109 F= -.65710188E+03 E0= -.65710188E+03  d E =-.541877E-04
 curvature:  -0.43 expect dE=-0.886E-04 dE for cont linesearch -0.197E-05
 ZBRENT: interpolating
 opt :   0.4847  next Energy=  -657.101879 (dE=-0.572E-04)
 bond charge predicted
       N       E                     dE             d eps       ncg     rms          rms(c)
DAV:   1    -0.649754334149E+03    0.93364E-05   -0.77175E-04  1288   0.671E-02    0.564E-03
RMM:   2    -0.649754335506E+03   -0.13566E-05   -0.17197E-05  1260   0.932E-03    0.375E-03
RMM:   3    -0.649754335345E+03    0.16124E-06   -0.64337E-07  1054   0.214E-03    0.227E-03
RMM:   4    -0.649754335307E+03    0.37295E-07   -0.27056E-07   840   0.127E-03
 110 F= -.65710188E+03 E0= -.65710188E+03  d E =-.563942E-04
 curvature:  -0.66 expect dE=-0.863E-04 dE for cont linesearch -0.529E-09
 trial: gam= 0.55488 g(F)=  0.122E-03 g(S)=  0.902E-05 ort =-0.721E-06 (trialstep = 0.334E+00)
 search vector abs. value=  0.330E-03
 bond charge predicted
       N       E                     dE             d eps       ncg     rms          rms(c)
DAV:   1    -0.649754284038E+03    0.51307E-04   -0.35432E-03  1272   0.142E-01    0.129E-02
RMM:   2    -0.649754290244E+03   -0.62055E-05   -0.83027E-05  1260   0.205E-02    0.798E-03
RMM:   3    -0.649754289523E+03    0.72093E-06   -0.33171E-06  1272   0.488E-03    0.468E-03
RMM:   4    -0.649754289385E+03    0.13818E-06   -0.12906E-06  1216   0.250E-03    0.115E-03
RMM:   5    -0.649754289399E+03   -0.14552E-07   -0.72697E-08   789   0.712E-04
 111 F= -.65710191E+03 E0= -.65710191E+03  d E =-.336652E-04
 trial-energy change:   -0.000034  1 .order   -0.000033   -0.000043   -0.000022
 step:   0.5775(harm=  0.6807)  dis= 0.00051  next Energy=  -657.101921 (dE=-0.421E-04)
 bond charge predicted
       N       E                     dE             d eps       ncg     rms          rms(c)
DAV:   1    -0.649754238924E+03    0.50461E-04   -0.18970E-03  1272   0.104E-01    0.951E-03
RMM:   2    -0.649754242367E+03   -0.34433E-05   -0.45066E-05  1260   0.151E-02    0.591E-03
RMM:   3    -0.649754242003E+03    0.36454E-06   -0.18036E-06  1257   0.361E-03    0.348E-03
RMM:   4    -0.649754241956E+03    0.47050E-07   -0.70281E-07  1133   0.187E-03
 112 F= -.65710192E+03 E0= -.65710192E+03  d E =-.444280E-04
 curvature:  -0.79 expect dE=-0.897E-04 dE for cont linesearch -0.105E-05
 trial: gam= 0.71187 g(F)=  0.114E-03 g(S)=  0.595E-06 ort = 0.209E-04 (trialstep = 0.382E+00)
 search vector abs. value=  0.311E-03
 bond charge predicted
       N       E                     dE             d eps       ncg     rms          rms(c)
DAV:   1    -0.649754202309E+03    0.39694E-04   -0.44036E-03  1268   0.158E-01    0.136E-02
RMM:   2    -0.649754210276E+03   -0.79668E-05   -0.99005E-05  1260   0.222E-02    0.904E-03
RMM:   3    -0.649754209549E+03    0.72699E-06   -0.39734E-06  1283   0.529E-03    0.533E-03
RMM:   4    -0.649754209428E+03    0.12109E-06   -0.14218E-06  1236   0.259E-03    0.125E-03
RMM:   5    -0.649754209434E+03   -0.60427E-08   -0.66380E-08   792   0.682E-04
 113 F= -.65710196E+03 E0= -.65710196E+03  d E =-.332106E-04
 trial-energy change:   -0.000033  1 .order   -0.000034   -0.000049   -0.000018
 step:   0.5981(harm=  0.5981)  dis= 0.00050  next Energy=  -657.101962 (dE=-0.386E-04)
 bond charge predicted
       N       E                     dE             d eps       ncg     rms          rms(c)
DAV:   1    -0.649754175129E+03    0.34299E-04   -0.14063E-03  1288   0.892E-02    0.767E-03
RMM:   2    -0.649754177789E+03   -0.26604E-05   -0.32064E-05  1260   0.126E-02    0.512E-03
RMM:   3    -0.649754177581E+03    0.20767E-06   -0.12676E-06  1221   0.299E-03    0.303E-03
RMM:   4    -0.649754177574E+03    0.72032E-08   -0.46844E-07  1048   0.153E-03
 114 F= -.65710196E+03 E0= -.65710196E+03  d E =-.384184E-04
 curvature:  -0.72 expect dE=-0.875E-04 dE for cont linesearch -0.429E-08
 trial: gam= 1.27236 g(F)=  0.114E-03 g(S)=  0.772E-05 ort = 0.136E-05 (trialstep = 0.211E+00)
 search vector abs. value=  0.629E-03
 bond charge predicted
       N       E                     dE             d eps       ncg     rms          rms(c)
DAV:   1    -0.649754269847E+03   -0.92265E-04   -0.27715E-03  1268   0.122E-01    0.983E-03
RMM:   2    -0.649754274641E+03   -0.47942E-05   -0.58165E-05  1260   0.165E-02    0.643E-03
RMM:   3    -0.649754274244E+03    0.39653E-06   -0.20014E-06  1269   0.353E-03    0.391E-03
RMM:   4    -0.649754274130E+03    0.11412E-06   -0.89403E-07  1170   0.194E-03    0.645E-04
RMM:   5    -0.649754274124E+03    0.58790E-08   -0.30187E-08   786   0.499E-04
 115 F= -.65710198E+03 E0= -.65710198E+03  d E =-.214788E-04
 trial-energy change:   -0.000021  1 .order   -0.000021   -0.000026   -0.000017
 step:   0.5937(harm=  0.5937)  dis= 0.00075  next Energy=  -657.101998 (dE=-0.366E-04)
 bond charge predicted
       N       E                     dE             d eps       ncg     rms          rms(c)
DAV:   1    -0.649754413173E+03   -0.13904E-03   -0.91935E-03  1260   0.223E-01    0.178E-02
RMM:   2    -0.649754429043E+03   -0.15871E-04   -0.19305E-04  1260   0.299E-02    0.117E-02
RMM:   3    -0.649754427641E+03    0.14023E-05   -0.65986E-06  1269   0.638E-03    0.708E-03
RMM:   4    -0.649754427264E+03    0.37657E-06   -0.30177E-06  1254   0.351E-03    0.118E-03
RMM:   5    -0.649754427237E+03    0.27327E-07   -0.89836E-08   792   0.857E-04
 116 F= -.65710200E+03 E0= -.65710200E+03  d E =-.380200E-04
 curvature:  -1.51 expect dE=-0.203E-03 dE for cont linesearch -0.425E-08
 trial: gam= 0.90875 g(F)=  0.127E-03 g(S)=  0.648E-05 ort = 0.133E-05 (trialstep = 0.276E+00)
 search vector abs. value=  0.655E-03
 bond charge predicted
       N       E                     dE             d eps       ncg     rms          rms(c)
DAV:   1    -0.649754607978E+03   -0.18071E-03   -0.50434E-03  1260   0.164E-01    0.142E-02
RMM:   2    -0.649754615741E+03   -0.77624E-05   -0.10463E-04  1260   0.224E-02    0.899E-03
RMM:   3    -0.649754614751E+03    0.99015E-06   -0.38224E-06  1268   0.508E-03    0.515E-03
RMM:   4    -0.649754614399E+03    0.35126E-06   -0.14636E-06  1218   0.260E-03    0.957E-04
RMM:   5    -0.649754614379E+03    0.20656E-07   -0.49179E-08   786   0.624E-04
 117 F= -.65710203E+03 E0= -.65710203E+03  d E =-.305436E-04
 trial-energy change:   -0.000031  1 .order   -0.000031   -0.000037   -0.000024
 step:   0.7746(harm=  0.7746)  dis= 0.00099  next Energy=  -657.102052 (dE=-0.523E-04)
 bond charge predicted
       N       E                     dE             d eps       ncg     rms          rms(c)
DAV:   1    -0.649754898382E+03   -0.28398E-03   -0.16516E-02  1260   0.297E-01    0.257E-02
RMM:   2    -0.649754923939E+03   -0.25557E-04   -0.34148E-04  1260   0.405E-02    0.162E-02
RMM:   3    -0.649754920874E+03    0.30649E-05   -0.12402E-05  1268   0.915E-03    0.928E-03
RMM:   4    -0.649754919949E+03    0.92490E-06   -0.47645E-06  1265   0.467E-03    0.174E-03
RMM:   5    -0.649754919903E+03    0.45799E-07   -0.16195E-07   827   0.108E-03
 118 F= -.65710205E+03 E0= -.65710205E+03  d E =-.525159E-04
 curvature:  -1.88 expect dE=-0.274E-03 dE for cont linesearch -0.130E-07
 trial: gam= 1.13546 g(F)=  0.141E-03 g(S)=  0.438E-05 ort =-0.213E-05 (trialstep = 0.249E+00)
 search vector abs. value=  0.986E-03
 bond charge predicted
       N       E                     dE             d eps       ncg     rms          rms(c)
DAV:   1    -0.649755029969E+03   -0.11002E-03   -0.65854E-03  1264   0.186E-01    0.152E-02
RMM:   2    -0.649755040961E+03   -0.10991E-04   -0.13534E-04  1260   0.249E-02    0.993E-03
RMM:   3    -0.649755039907E+03    0.10543E-05   -0.44099E-06  1260   0.544E-03    0.602E-03
RMM:   4    -0.649755039510E+03    0.39666E-06   -0.18838E-06  1224   0.294E-03    0.105E-03
RMM:   5    -0.649755039496E+03    0.14161E-07   -0.57767E-08   787   0.672E-04
 119 F= -.65710208E+03 E0= -.65710208E+03  d E =-.295719E-04
 trial-energy change:   -0.000030  1 .order   -0.000029   -0.000036   -0.000023
 step:   0.5494(harm=  0.6739)  dis= 0.00083  next Energy=  -657.102096 (dE=-0.438E-04)
 bond charge predicted
       N       E                     dE             d eps       ncg     rms          rms(c)
DAV:   1    -0.649755152661E+03   -0.11315E-03   -0.95110E-03  1260   0.224E-01    0.182E-02
RMM:   2    -0.649755168507E+03   -0.15846E-04   -0.19537E-04  1260   0.300E-02    0.119E-02
RMM:   3    -0.649755166993E+03    0.15136E-05   -0.63670E-06  1260   0.658E-03    0.724E-03
RMM:   4    -0.649755166441E+03    0.55223E-06   -0.27444E-06  1244   0.358E-03    0.129E-03
RMM:   5    -0.649755166424E+03    0.16695E-07   -0.87261E-08   793   0.822E-04
 120 F= -.65710210E+03 E0= -.65710210E+03  d E =-.482774E-04
 curvature:  -2.12 expect dE=-0.304E-03 dE for cont linesearch -0.151E-05
 trial: gam= 0.76100 g(F)=  0.137E-03 g(S)=  0.643E-05 ort = 0.265E-04 (trialstep = 0.309E+00)
 search vector abs. value=  0.755E-03
 bond charge predicted
       N       E                     dE             d eps       ncg     rms          rms(c)
DAV:   1    -0.649755138310E+03    0.28131E-04   -0.84005E-03  1264   0.214E-01    0.174E-02
RMM:   2    -0.649755152965E+03   -0.14655E-04   -0.17952E-04  1260   0.291E-02    0.116E-02
RMM:   3    -0.649755151562E+03    0.14026E-05   -0.60507E-06  1267   0.628E-03    0.702E-03
RMM:   4    -0.649755151186E+03    0.37636E-06   -0.27201E-06  1255   0.340E-03    0.114E-03
RMM:   5    -0.649755151176E+03    0.99863E-08   -0.76658E-08   791   0.797E-04
 121 F= -.65710214E+03 E0= -.65710214E+03  d E =-.365929E-04
 trial-energy change:   -0.000037  1 .order   -0.000036   -0.000051   -0.000022
 step:   0.5474(harm=  0.5474)  dis= 0.00069  next Energy=  -657.102145 (dE=-0.448E-04)
 bond charge predicted
       N       E                     dE             d eps       ncg     rms          rms(c)
DAV:   1    -0.649755112103E+03    0.39083E-04   -0.49705E-03  1264   0.165E-01    0.134E-02
RMM:   2    -0.649755120834E+03   -0.87314E-05   -0.10658E-04  1260   0.224E-02    0.895E-03
RMM:   3    -0.649755120014E+03    0.82041E-06   -0.35920E-06  1267   0.481E-03    0.542E-03
RMM:   4    -0.649755119802E+03    0.21252E-06   -0.16122E-06  1249   0.260E-03    0.877E-04
RMM:   5    -0.649755119798E+03    0.32542E-08   -0.44954E-08   786   0.620E-04
 122 F= -.65710215E+03 E0= -.65710215E+03  d E =-.450535E-04
 curvature:  -1.26 expect dE=-0.149E-03 dE for cont linesearch -0.573E-09
 trial: gam= 1.07842 g(F)=  0.115E-03 g(S)=  0.330E-05 ort = 0.585E-06 (trialstep = 0.270E+00)
 search vector abs. value=  0.997E-03
 bond charge predicted
       N       E                     dE             d eps       ncg     rms          rms(c)
DAV:   1    -0.649755056185E+03    0.63617E-04   -0.85734E-03  1260   0.214E-01    0.167E-02
RMM:   2    -0.649755071026E+03   -0.14841E-04   -0.17481E-04  1260   0.284E-02    0.111E-02
RMM:   3    -0.649755069838E+03    0.11871E-05   -0.54544E-06  1270   0.601E-03    0.677E-03
RMM:   4    -0.649755069625E+03    0.21307E-06   -0.25823E-06  1241   0.337E-03    0.116E-03
RMM:   5    -0.649755069598E+03    0.27518E-07   -0.70612E-08   788   0.736E-04
 123 F= -.65710217E+03 E0= -.65710217E+03  d E =-.265387E-04
 trial-energy change:   -0.000027  1 .order   -0.000026   -0.000032   -0.000020
 step:   0.5866(harm=  0.7286)  dis= 0.00080  next Energy=  -657.102184 (dE=-0.390E-04)
 bond charge predicted
       N       E                     dE             d eps       ncg     rms          rms(c)
DAV:   1    -0.649754978074E+03    0.91551E-04   -0.11751E-02  1260   0.251E-01    0.196E-02
RMM:   2    -0.649754998412E+03   -0.20337E-04   -0.23994E-04  1260   0.332E-02    0.130E-02
RMM:   3    -0.649754996756E+03    0.16557E-05   -0.74878E-06  1270   0.701E-03    0.794E-03
RMM:   4    -0.649754996430E+03    0.32570E-06   -0.35405E-06  1260   0.392E-03    0.134E-03
RMM:   5    -0.649754996395E+03    0.34974E-07   -0.96107E-08   797   0.845E-04
 124 F= -.65710219E+03 E0= -.65710219E+03  d E =-.431254E-04
 curvature:  -2.77 expect dE=-0.363E-03 dE for cont linesearch -0.150E-05
 trial: gam= 0.70860 g(F)=  0.124E-03 g(S)=  0.683E-05 ort = 0.233E-04 (trialstep = 0.334E+00)
 search vector abs. value=  0.665E-03
 bond charge predicted
       N       E                     dE             d eps       ncg     rms          rms(c)
DAV:   1    -0.649755140774E+03   -0.14434E-03   -0.86110E-03  1260   0.214E-01    0.172E-02
RMM:   2    -0.649755155544E+03   -0.14769E-04   -0.17974E-04  1260   0.289E-02    0.114E-02
RMM:   3    -0.649755154121E+03    0.14223E-05   -0.56081E-06  1266   0.606E-03    0.699E-03
RMM:   4    -0.649755153684E+03    0.43709E-06   -0.28165E-06  1256   0.342E-03    0.113E-03
RMM:   5    -0.649755153669E+03    0.15370E-07   -0.68418E-08   786   0.764E-04
 125 F= -.65710223E+03 E0= -.65710223E+03  d E =-.374579E-04
 trial-energy change:   -0.000037  1 .order   -0.000037   -0.000049   -0.000025
 step:   0.6026(harm=  0.6661)  dis= 0.00077  next Energy=  -657.102236 (dE=-0.477E-04)
 bond charge predicted
       N       E                     dE             d eps       ncg     rms          rms(c)
DAV:   1    -0.649755254217E+03   -0.10053E-03   -0.56054E-03  1280   0.173E-01    0.138E-02
RMM:   2    -0.649755263828E+03   -0.96101E-05   -0.11707E-04  1260   0.233E-02    0.919E-03
RMM:   3    -0.649755262889E+03    0.93805E-06   -0.36395E-06  1267   0.483E-03    0.564E-03
RMM:   4    -0.649755262605E+03    0.28408E-06   -0.18256E-06  1240   0.272E-03    0.906E-04
RMM:   5    -0.649755262593E+03    0.12387E-07   -0.45397E-08   786   0.623E-04
 126 F= -.65710224E+03 E0= -.65710224E+03  d E =-.497691E-04
 curvature:  -1.44 expect dE=-0.175E-03 dE for cont linesearch -0.459E-06
 trial: gam= 1.03431 g(F)=  0.117E-03 g(S)=  0.377E-05 ort = 0.145E-04 (trialstep = 0.299E+00)
 search vector abs. value=  0.862E-03
 bond charge predicted
       N       E                     dE             d eps       ncg     rms          rms(c)
DAV:   1    -0.649755439492E+03   -0.17689E-03   -0.89105E-03  1260   0.215E-01    0.171E-02
RMM:   2    -0.649755454354E+03   -0.14861E-04   -0.18265E-04  1260   0.287E-02    0.114E-02
RMM:   3    -0.649755452878E+03    0.14759E-05   -0.56367E-06  1262   0.600E-03    0.692E-03
RMM:   4    -0.649755452416E+03    0.46164E-06   -0.27259E-06  1225   0.346E-03    0.119E-03
RMM:   5    -0.649755452404E+03    0.12071E-07   -0.79342E-08   788   0.785E-04
 127 F= -.65710227E+03 E0= -.65710227E+03  d E =-.326337E-04
 trial-energy change:   -0.000033  1 .order   -0.000032   -0.000041   -0.000023
 step:   0.5763(harm=  0.6974)  dis= 0.00089  next Energy=  -657.102282 (dE=-0.440E-04)
 bond charge predicted
       N       E                     dE             d eps       ncg     rms          rms(c)
DAV:   1    -0.649755602232E+03   -0.14982E-03   -0.77191E-03  1260   0.200E-01    0.160E-02
RMM:   2    -0.649755615151E+03   -0.12918E-04   -0.15865E-04  1260   0.267E-02    0.106E-02
RMM:   3    -0.649755613868E+03    0.12822E-05   -0.49067E-06  1263   0.558E-03    0.646E-03
RMM:   4    -0.649755613468E+03    0.40057E-06   -0.23576E-06  1218   0.320E-03    0.110E-03
RMM:   5    -0.649755613457E+03    0.10821E-07   -0.67355E-08   786   0.724E-04
 128 F= -.65710229E+03 E0= -.65710229E+03  d E =-.473888E-04
 curvature:  -2.00 expect dE=-0.244E-03 dE for cont linesearch -0.132E-05
 trial: gam= 0.91647 g(F)=  0.120E-03 g(S)=  0.148E-05 ort = 0.238E-04 (trialstep = 0.343E+00)
 search vector abs. value=  0.890E-03
 bond charge predicted
       N       E                     dE             d eps       ncg     rms          rms(c)
DAV:   1    -0.649755695614E+03   -0.82146E-04   -0.12151E-02  1260   0.252E-01    0.200E-02
RMM:   2    -0.649755716539E+03   -0.20925E-04   -0.25218E-04  1260   0.337E-02    0.134E-02
RMM:   3    -0.649755714484E+03    0.20544E-05   -0.74773E-06  1269   0.659E-03    0.829E-03
RMM:   4    -0.649755713887E+03    0.59757E-06   -0.36583E-06  1260   0.380E-03    0.131E-03
RMM:   5    -0.649755713863E+03    0.23601E-07   -0.92289E-08   794   0.863E-04
 129 F= -.65710232E+03 E0= -.65710232E+03  d E =-.355735E-04
 trial-energy change:   -0.000036  1 .order   -0.000035   -0.000049   -0.000021
 step:   0.5500(harm=  0.5918)  dis= 0.00089  next Energy=  -657.102327 (dE=-0.419E-04)
 bond charge predicted
       N       E                     dE             d eps       ncg     rms          rms(c)
DAV:   1    -0.649755753470E+03   -0.39583E-04   -0.44165E-03  1268   0.152E-01    0.121E-02
RMM:   2    -0.649755761081E+03   -0.76116E-05   -0.92306E-05  1260   0.204E-02    0.814E-03
RMM:   3    -0.649755760320E+03    0.76185E-06   -0.27673E-06  1270   0.400E-03    0.503E-03
RMM:   4    -0.649755760085E+03    0.23446E-06   -0.13307E-06  1208   0.230E-03    0.789E-04
RMM:   5    -0.649755760079E+03    0.61900E-08   -0.35544E-08   786   0.537E-04
 130 F= -.65710233E+03 E0= -.65710233E+03  d E =-.427969E-04
 curvature:  -1.78 expect dE=-0.148E-03 dE for cont linesearch -0.274E-06
 trial: gam= 0.82902 g(F)=  0.780E-04 g(S)=  0.526E-05 ort = 0.117E-04 (trialstep = 0.385E+00)
 search vector abs. value=  0.714E-03
 bond charge predicted
       N       E                     dE             d eps       ncg     rms          rms(c)
DAV:   1    -0.649755674051E+03    0.86034E-04   -0.12376E-02  1260   0.252E-01    0.203E-02
RMM:   2    -0.649755695559E+03   -0.21509E-04   -0.25654E-04  1260   0.333E-02    0.133E-02
RMM:   3    -0.649755693596E+03    0.19630E-05   -0.73340E-06  1262   0.671E-03    0.808E-03
RMM:   4    -0.649755693111E+03    0.48485E-06   -0.37277E-06  1258   0.398E-03    0.140E-03
RMM:   5    -0.649755693072E+03    0.39150E-07   -0.99424E-08   807   0.832E-04
 131 F= -.65710236E+03 E0= -.65710236E+03  d E =-.284549E-04
 trial-energy change:   -0.000028  1 .order   -0.000028   -0.000036   -0.000020
 step:   0.7274(harm=  0.8711)  dis= 0.00113  next Energy=  -657.102366 (dE=-0.378E-04)
 bond charge predicted
       N       E                     dE             d eps       ncg     rms          rms(c)
DAV:   1    -0.649755604397E+03    0.88714E-04   -0.98469E-03  1260   0.224E-01    0.181E-02
RMM:   2    -0.649755621630E+03   -0.17233E-04   -0.20517E-04  1260   0.297E-02    0.119E-02
RMM:   3    -0.649755620046E+03    0.15849E-05   -0.58567E-06  1260   0.592E-03    0.725E-03
RMM:   4    -0.649755619654E+03    0.39137E-06   -0.29833E-06  1249   0.351E-03    0.122E-03
RMM:   5    -0.649755619624E+03    0.29991E-07   -0.73851E-08   789   0.734E-04
 132 F= -.65710237E+03 E0= -.65710237E+03  d E =-.401784E-04
 curvature:  -3.05 expect dE=-0.401E-03 dE for cont linesearch -0.106E-05
 trial: gam= 1.38608 g(F)=  0.130E-03 g(S)=  0.158E-05 ort = 0.158E-04 (trialstep = 0.209E+00)
 search vector abs. value=  0.155E-02
 bond charge predicted
       N       E                     dE             d eps       ncg     rms          rms(c)
DAV:   1    -0.649755536906E+03    0.82749E-04   -0.80544E-03  1260   0.203E-01    0.166E-02
RMM:   2    -0.649755550568E+03   -0.13663E-04   -0.16763E-04  1260   0.270E-02    0.109E-02
RMM:   3    -0.649755549194E+03    0.13746E-05   -0.49044E-06  1264   0.541E-03    0.656E-03
RMM:   4    -0.649755548909E+03    0.28521E-06   -0.24630E-06  1248   0.313E-03    0.107E-03
RMM:   5    -0.649755548896E+03    0.12595E-07   -0.62917E-08   786   0.692E-04
 133 F= -.65710240E+03 E0= -.65710240E+03  d E =-.272876E-04
 trial-energy change:   -0.000027  1 .order   -0.000028   -0.000032   -0.000023
 step:   0.7664(harm=  0.7664)  dis= 0.00172  next Energy=  -657.102427 (dE=-0.587E-04)
 bond charge predicted
       N       E                     dE             d eps       ncg     rms          rms(c)
DAV:   1    -0.649755235824E+03    0.31308E-03   -0.57043E-02  1260   0.541E-01    0.440E-02
RMM:   2    -0.649755332206E+03   -0.96383E-04   -0.11816E-03  1260   0.719E-02    0.290E-02
RMM:   3    -0.649755322501E+03    0.97049E-05   -0.34626E-05  1265   0.145E-02    0.174E-02
RMM:   4    -0.649755320195E+03    0.23065E-05   -0.17271E-05  1261   0.833E-03    0.284E-03
RMM:   5    -0.649755320077E+03    0.11814E-06   -0.52743E-07   953   0.180E-03    0.157E-03
RMM:   6    -0.649755320104E+03   -0.27158E-07   -0.27230E-07   850   0.109E-03
 134 F= -.65710243E+03 E0= -.65710243E+03  d E =-.596555E-04
 curvature:  -3.87 expect dE=-0.648E-03 dE for cont linesearch -0.317E-08
 trial: gam= 1.54335 g(F)=  0.166E-03 g(S)=  0.182E-05 ort = 0.112E-05 (trialstep = 0.129E+00)
 search vector abs. value=  0.386E-02
 bond charge predicted
       N       E                     dE             d eps       ncg     rms          rms(c)
DAV:   1    -0.649755224694E+03    0.95383E-04   -0.75838E-03  1268   0.195E-01    0.161E-02
RMM:   2    -0.649755237346E+03   -0.12652E-04   -0.15620E-04  1260   0.258E-02    0.104E-02
RMM:   3    -0.649755236163E+03    0.11825E-05   -0.44930E-06  1260   0.525E-03    0.625E-03
RMM:   4    -0.649755235952E+03    0.21116E-06   -0.22569E-06  1214   0.306E-03    0.107E-03
RMM:   5    -0.649755235941E+03    0.10530E-07   -0.58234E-08   786   0.654E-04
 135 F= -.65710245E+03 E0= -.65710245E+03  d E =-.191323E-04
 ZBRENT: can't locate minimum, use default step
 trial-energy change:   -0.000019  1 .order   -0.000020   -0.000022   -0.000018
 step:   0.5146(harm=  0.6742)  dis= 0.00196  next Energy=  -657.102485 (dE=-0.570E-04)
 bond charge predicted
       N       E                     dE             d eps       ncg     rms          rms(c)
DAV:   1    -0.649754858174E+03    0.37778E-03   -0.68324E-02  1260   0.586E-01    0.482E-02
RMM:   2    -0.649754973296E+03   -0.11512E-03   -0.14106E-03  1260   0.773E-02    0.311E-02
RMM:   3    -0.649754962428E+03    0.10868E-04   -0.40090E-05  1260   0.154E-02    0.188E-02
RMM:   4    -0.649754959932E+03    0.24962E-05   -0.20405E-05  1260   0.903E-03    0.313E-03
RMM:   5    -0.649754959791E+03    0.14087E-06   -0.61780E-07   983   0.189E-03    0.177E-03
RMM:   6    -0.649754959837E+03   -0.45842E-07   -0.31886E-07   924   0.118E-03
 136 F= -.65710248E+03 E0= -.65710248E+03  d E =-.529793E-04
 curvature:  -7.03 expect dE=-0.136E-02 dE for cont linesearch -0.288E-05
 ZBRENT: extrapolating
 opt :   0.6727  next Energy=  -657.102484 (dE=-0.561E-04)
 bond charge predicted
       N       E                     dE             d eps       ncg     rms          rms(c)
DAV:   1    -0.649754817579E+03    0.14221E-03   -0.11466E-02  1260   0.240E-01    0.198E-02
RMM:   2    -0.649754836716E+03   -0.19137E-04   -0.23613E-04  1260   0.317E-02    0.128E-02
RMM:   3    -0.649754834912E+03    0.18039E-05   -0.67814E-06  1260   0.641E-03    0.768E-03
RMM:   4    -0.649754834568E+03    0.34453E-06   -0.34196E-06  1244   0.375E-03    0.131E-03
RMM:   5    -0.649754834550E+03    0.17913E-07   -0.89979E-08   803   0.789E-04
 137 F= -.65710248E+03 E0= -.65710248E+03  d E =-.546766E-04
 curvature:  -7.67 expect dE=-0.221E-02 dE for cont linesearch -0.109E-10
 trial: gam= 1.46971 g(F)=  0.286E-03 g(S)=  0.284E-05 ort = 0.742E-07 (trialstep = 0.106E+00)
 search vector abs. value=  0.862E-02
 bond charge predicted
       N       E                     dE             d eps       ncg     rms          rms(c)
DAV:   1    -0.649754685155E+03    0.14941E-03   -0.11437E-02  1260   0.239E-01    0.198E-02
RMM:   2    -0.649754704513E+03   -0.19358E-04   -0.23839E-04  1260   0.318E-02    0.129E-02
RMM:   3    -0.649754702695E+03    0.18180E-05   -0.68919E-06  1260   0.648E-03    0.772E-03
RMM:   4    -0.649754702350E+03    0.34492E-06   -0.34825E-06  1252   0.381E-03    0.133E-03
RMM:   5    -0.649754702330E+03    0.19552E-07   -0.89374E-08   803   0.790E-04
 138 F= -.65710251E+03 E0= -.65710251E+03  d E =-.277073E-04
 ZBRENT: can't locate minimum, use default step
 trial-energy change:   -0.000028  1 .order   -0.000028   -0.000031   -0.000026
 step:   0.4250(harm=  0.6592)  dis= 0.00235  next Energy=  -657.102578 (dE=-0.952E-04)
 bond charge predicted
       N       E                     dE             d eps       ncg     rms          rms(c)
DAV:   1    -0.649754124813E+03    0.57754E-03   -0.10279E-01  1260   0.717E-01    0.593E-02
RMM:   2    -0.649754298606E+03   -0.17379E-03   -0.21359E-03  1260   0.952E-02    0.384E-02
RMM:   3    -0.649754282328E+03    0.16278E-04   -0.61724E-05  1260   0.195E-02    0.231E-02
RMM:   4    -0.649754278523E+03    0.38058E-05   -0.31207E-05  1266   0.115E-02    0.404E-03
RMM:   5    -0.649754278295E+03    0.22790E-06   -0.98545E-07  1114   0.235E-03    0.235E-03
RMM:   6    -0.649754278317E+03   -0.22124E-07   -0.66467E-07  1119   0.169E-03
 139 F= -.65710257E+03 E0= -.65710257E+03  d E =-.837365E-04
 curvature:  -8.07 expect dE=-0.105E-02 dE for cont linesearch -0.997E-05
 ZBRENT: increasing intervall
 opt :   1.0625  next Energy=  -657.102544 (dE=-0.608E-04)
 bond charge predicted
       N       E                     dE             d eps       ncg     rms          rms(c)
DAV:   1    -0.649752684300E+03    0.15940E-02   -0.41077E-01  1260   0.143E+00    0.119E-01
RMM:   2    -0.649753377536E+03   -0.69324E-03   -0.85261E-03  1260   0.190E-01    0.766E-02
RMM:   3    -0.649753313087E+03    0.64449E-04   -0.24699E-04  1260   0.393E-02    0.460E-02
RMM:   4    -0.649753297278E+03    0.15808E-04   -0.12461E-04  1266   0.231E-02    0.820E-03
RMM:   5    -0.649753296328E+03    0.95018E-06   -0.41340E-06  1307   0.475E-03    0.478E-03
RMM:   6    -0.649753296248E+03    0.79715E-07   -0.26540E-06  1241   0.335E-03    0.174E-03
RMM:   7    -0.649753296233E+03    0.15043E-07   -0.22611E-07   871   0.129E-03
 140 F= -.65710255E+03 E0= -.65710255E+03  d E =-.624872E-04
 curvature:  18.55 expect dE= 0.125E-01 dE for cont linesearch  0.591E-04
 ZBRENT: bracketing found
 ZBRENT: interpolating
 opt :   0.6697  next Energy=  -657.102579 (dE=-0.964E-04)
 bond charge predicted
       N       E                     dE             d eps       ncg     rms          rms(c)
DAV:   1    -0.649753689588E+03   -0.39334E-03   -0.15596E-01  1260   0.884E-01    0.729E-02
RMM:   2    -0.649753953141E+03   -0.26355E-03   -0.32252E-03  1260   0.117E-01    0.472E-02
RMM:   3    -0.649753928354E+03    0.24787E-04   -0.93284E-05  1260   0.241E-02    0.283E-02
RMM:   4    -0.649753921633E+03    0.67215E-05   -0.47099E-05  1266   0.142E-02    0.501E-03
RMM:   5    -0.649753921216E+03    0.41642E-06   -0.15299E-06  1205   0.291E-03    0.294E-03
RMM:   6    -0.649753921071E+03    0.14537E-06   -0.10777E-06  1172   0.214E-03    0.110E-03
RMM:   7    -0.649753921040E+03    0.30794E-07   -0.94401E-08   800   0.862E-04
 141 F= -.65710258E+03 E0= -.65710258E+03  d E =-.951381E-04
 curvature:  -3.97 expect dE=-0.910E-03 dE for cont linesearch -0.766E-09
 trial: gam= 0.79436 g(F)=  0.228E-03 g(S)=  0.112E-05 ort = 0.129E-05 (trialstep = 0.219E+00)
 search vector abs. value=  0.567E-02
 bond charge predicted
       N       E                     dE             d eps       ncg     rms          rms(c)
DAV:   1    -0.649753686332E+03    0.23474E-03   -0.32316E-02  1260   0.401E-01    0.328E-02
RMM:   2    -0.649753740511E+03   -0.54178E-04   -0.66788E-04  1260   0.531E-02    0.215E-02
RMM:   3    -0.649753735086E+03    0.54249E-05   -0.19288E-05  1260   0.108E-02    0.130E-02
RMM:   4    -0.649753733833E+03    0.12529E-05   -0.98637E-06  1260   0.631E-03    0.218E-03
RMM:   5    -0.649753733786E+03    0.47339E-07   -0.27043E-07   864   0.129E-03
 142 F= -.65710262E+03 E0= -.65710262E+03  d E =-.411296E-04
 trial-energy change:   -0.000041  1 .order   -0.000040   -0.000050   -0.000030
 step:   0.4474(harm=  0.5500)  dis= 0.00198  next Energy=  -657.102636 (dE=-0.578E-04)
 bond charge predicted
       N       E                     dE             d eps       ncg     rms          rms(c)
DAV:   1    -0.649753465793E+03    0.26804E-03   -0.35255E-02  1260   0.419E-01    0.343E-02
RMM:   2    -0.649753525413E+03   -0.59620E-04   -0.73427E-04  1260   0.556E-02    0.226E-02
RMM:   3    -0.649753519438E+03    0.59751E-05   -0.21203E-05  1260   0.112E-02    0.137E-02
RMM:   4    -0.649753518057E+03    0.13815E-05   -0.10921E-05  1260   0.655E-03    0.227E-03
RMM:   5    -0.649753518006E+03    0.51119E-07   -0.30798E-07   872   0.137E-03
 143 F= -.65710264E+03 E0= -.65710264E+03  d E =-.637589E-04
 curvature:  -6.12 expect dE=-0.903E-03 dE for cont linesearch -0.253E-05
 ZBRENT: increasing intervall
 opt :   0.9043  next Energy=  -657.102623 (dE=-0.446E-04)
 bond charge predicted
       N       E                     dE             d eps       ncg     rms          rms(c)
DAV:   1    -0.649752814371E+03    0.70369E-03   -0.14087E-01  1260   0.838E-01    0.686E-02
RMM:   2    -0.649753052592E+03   -0.23822E-03   -0.29255E-03  1260   0.111E-01    0.451E-02
RMM:   3    -0.649753029018E+03    0.23574E-04   -0.84496E-05  1260   0.225E-02    0.272E-02
RMM:   4    -0.649753023247E+03    0.57708E-05   -0.43324E-05  1260   0.131E-02    0.455E-03
RMM:   5    -0.649753022995E+03    0.25249E-06   -0.13295E-06  1202   0.271E-03    0.264E-03
RMM:   6    -0.649753023062E+03   -0.67477E-07   -0.73422E-07  1160   0.168E-03
 144 F= -.65710262E+03 E0= -.65710262E+03  d E =-.458607E-04
 curvature:  46.36 expect dE= 0.284E-01 dE for cont linesearch  0.130E-03
 ZBRENT: bracketing found
 ZBRENT: interpolating
 opt :   0.5743  next Energy=  -657.102645 (dE=-0.668E-04)
 bond charge predicted
       N       E                     dE             d eps       ncg     rms          rms(c)
DAV:   1    -0.649753280203E+03   -0.25721E-03   -0.73470E-02  1260   0.605E-01    0.493E-02
RMM:   2    -0.649753405297E+03   -0.12509E-03   -0.15196E-03  1260   0.801E-02    0.324E-02
RMM:   3    -0.649753393092E+03    0.12205E-04   -0.43657E-05  1260   0.162E-02    0.196E-02
RMM:   4    -0.649753389683E+03    0.34097E-05   -0.22376E-05  1260   0.947E-03    0.326E-03
RMM:   5    -0.649753389482E+03    0.20038E-06   -0.65356E-07   993   0.193E-03    0.191E-03
RMM:   6    -0.649753389415E+03    0.67266E-07   -0.43291E-07  1030   0.136E-03
 145 F= -.65710265E+03 E0= -.65710265E+03  d E =-.675970E-04
 curvature:  -1.10 expect dE=-0.244E-03 dE for cont linesearch -0.229E-07
 trial: gam= 0.94218 g(F)=  0.212E-03 g(S)=  0.102E-04 ort = 0.109E-04 (trialstep = 0.290E+00)
 search vector abs. value=  0.527E-02
 bond charge predicted
       N       E                     dE             d eps       ncg     rms          rms(c)
DAV:   1    -0.649753023153E+03    0.36633E-03   -0.52662E-02  1260   0.513E-01    0.421E-02
RMM:   2    -0.649753111624E+03   -0.88472E-04   -0.10918E-03  1260   0.681E-02    0.276E-02
RMM:   3    -0.649753103126E+03    0.84984E-05   -0.32310E-05  1260   0.143E-02    0.166E-02
RMM:   4    -0.649753101032E+03    0.20937E-05   -0.15406E-05  1260   0.810E-03    0.288E-03
RMM:   5    -0.649753101010E+03    0.22441E-07   -0.52629E-07   954   0.172E-03
 146 F= -.65710269E+03 E0= -.65710269E+03  d E =-.434627E-04
 trial-energy change:   -0.000043  1 .order   -0.000046   -0.000067   -0.000024
 step:   0.4533(harm=  0.4533)  dis= 0.00193  next Energy=  -657.102698 (dE=-0.527E-04)
 bond charge predicted
       N       E                     dE             d eps       ncg     rms          rms(c)
DAV:   1    -0.649752895948E+03    0.20508E-03   -0.16766E-02  1260   0.289E-01    0.238E-02
RMM:   2    -0.649752924466E+03   -0.28518E-04   -0.35180E-04  1260   0.385E-02    0.158E-02
RMM:   3    -0.649752921661E+03    0.28048E-05   -0.10315E-05  1260   0.785E-03    0.952E-03
RMM:   4    -0.649752921049E+03    0.61235E-06   -0.50302E-06  1260   0.448E-03    0.156E-03
RMM:   5    -0.649752921050E+03   -0.78035E-09   -0.13493E-07   824   0.943E-04
 147 F= -.65710270E+03 E0= -.65710270E+03  d E =-.505463E-04
 curvature:  -5.15 expect dE=-0.735E-03 dE for cont linesearch -0.399E-07
 trial: gam= 0.63463 g(F)=  0.139E-03 g(S)=  0.367E-05 ort = 0.639E-05 (trialstep = 0.323E+00)
 search vector abs. value=  0.228E-02
 bond charge predicted
       N       E                     dE             d eps       ncg     rms          rms(c)
DAV:   1    -0.649752605337E+03    0.31571E-03   -0.27475E-02  1260   0.373E-01    0.312E-02
RMM:   2    -0.649752650945E+03   -0.45608E-04   -0.57814E-04  1260   0.500E-02    0.202E-02
RMM:   3    -0.649752646484E+03    0.44605E-05   -0.17960E-05  1260   0.108E-02    0.121E-02
RMM:   4    -0.649752645589E+03    0.89515E-06   -0.81788E-06  1260   0.610E-03    0.226E-03
RMM:   5    -0.649752645577E+03    0.12151E-07   -0.29669E-07   886   0.136E-03
 148 F= -.65710273E+03 E0= -.65710273E+03  d E =-.366490E-04
 trial-energy change:   -0.000037  1 .order   -0.000037   -0.000047   -0.000026
 step:   0.7152(harm=  0.7152)  dis= 0.00189  next Energy=  -657.102749 (dE=-0.525E-04)
 bond charge predicted
       N       E                     dE             d eps       ncg     rms          rms(c)
DAV:   1    -0.649752222010E+03    0.42358E-03   -0.40659E-02  1260   0.454E-01    0.379E-02
RMM:   2    -0.649752289723E+03   -0.67713E-04   -0.85667E-04  1260   0.608E-02    0.246E-02
RMM:   3    -0.649752283062E+03    0.66611E-05   -0.26535E-05  1260   0.131E-02    0.147E-02
RMM:   4    -0.649752281665E+03    0.13964E-05   -0.12101E-05  1260   0.738E-03    0.272E-03
RMM:   5    -0.649752281645E+03    0.20053E-07   -0.44846E-07   941   0.164E-03
 149 F= -.65710275E+03 E0= -.65710275E+03  d E =-.526105E-04
 curvature:  -5.54 expect dE=-0.104E-02 dE for cont linesearch -0.209E-08
 trial: gam= 1.37943 g(F)=  0.184E-03 g(S)=  0.433E-05 ort =-0.925E-06 (trialstep = 0.202E+00)
 search vector abs. value=  0.452E-02
 bond charge predicted
       N       E                     dE             d eps       ncg     rms          rms(c)
DAV:   1    -0.649752011078E+03    0.27059E-03   -0.21353E-02  1260   0.327E-01    0.272E-02
RMM:   2    -0.649752046230E+03   -0.35152E-04   -0.44278E-04  1260   0.431E-02    0.179E-02
RMM:   3    -0.649752042604E+03    0.36268E-05   -0.13165E-05  1260   0.876E-03    0.107E-02
RMM:   4    -0.649752041905E+03    0.69838E-06   -0.64202E-06  1260   0.507E-03    0.176E-03
RMM:   5    -0.649752041894E+03    0.11671E-07   -0.17531E-07   835   0.106E-03
 150 F= -.65710278E+03 E0= -.65710278E+03  d E =-.327761E-04
 trial-energy change:   -0.000033  1 .order   -0.000033   -0.000038   -0.000027
 step:   0.7382(harm=  0.7382)  dis= 0.00276  next Energy=  -657.102818 (dE=-0.690E-04)
 bond charge predicted
       N       E                     dE             d eps       ncg     rms          rms(c)
DAV:   1    -0.649751142737E+03    0.89917E-03   -0.14980E-01  1260   0.867E-01    0.721E-02
RMM:   2    -0.649751387695E+03   -0.24496E-03   -0.30871E-03  1260   0.114E-01    0.471E-02
RMM:   3    -0.649751362733E+03    0.24962E-04   -0.92786E-05  1260   0.237E-02    0.281E-02
RMM:   4    -0.649751356969E+03    0.57646E-05   -0.44641E-05  1260   0.137E-02    0.482E-03
RMM:   5    -0.649751356790E+03    0.17822E-06   -0.15428E-06  1215   0.290E-03    0.284E-03
RMM:   6    -0.649751356853E+03   -0.62551E-07   -0.95671E-07  1171   0.200E-03
 151 F= -.65710282E+03 E0= -.65710282E+03  d E =-.710297E-04
 curvature:  -8.91 expect dE=-0.191E-02 dE for cont linesearch -0.182E-07
 trial: gam= 1.06376 g(F)=  0.208E-03 g(S)=  0.726E-05 ort = 0.303E-05 (trialstep = 0.262E+00)
 search vector abs. value=  0.533E-02
 bond charge predicted
       N       E                     dE             d eps       ncg     rms          rms(c)
DAV:   1    -0.649751096466E+03    0.26032E-03   -0.41809E-02  1260   0.458E-01    0.369E-02
RMM:   2    -0.649751167121E+03   -0.70654E-04   -0.85646E-04  1260   0.601E-02    0.249E-02
RMM:   3    -0.649751160368E+03    0.67527E-05   -0.24534E-05  1260   0.120E-02    0.151E-02
RMM:   4    -0.649751158696E+03    0.16725E-05   -0.12552E-05  1260   0.708E-03    0.244E-03
RMM:   5    -0.649751158618E+03    0.77976E-07   -0.34896E-07   884   0.145E-03
 152 F= -.65710287E+03 E0= -.65710287E+03  d E =-.473847E-04
 trial-energy change:   -0.000047  1 .order   -0.000044   -0.000057   -0.000032
 step:   0.4136(harm=  0.5849)  dis= 0.00164  next Energy=  -657.102877 (dE=-0.571E-04)
 bond charge predicted
       N       E                     dE             d eps       ncg     rms          rms(c)
DAV:   1    -0.649751010207E+03    0.14849E-03   -0.14039E-02  1268   0.265E-01    0.214E-02
RMM:   2    -0.649751034250E+03   -0.24043E-04   -0.29181E-04  1260   0.350E-02    0.146E-02
RMM:   3    -0.649751031896E+03    0.23540E-05   -0.82962E-06  1260   0.686E-03    0.883E-03
RMM:   4    -0.649751031329E+03    0.56687E-06   -0.43603E-06  1257   0.411E-03    0.143E-03
RMM:   5    -0.649751031309E+03    0.20751E-07   -0.10875E-07   812   0.879E-04
 153 F= -.65710288E+03 E0= -.65710288E+03  d E =-.620590E-04
 curvature:  -5.14 expect dE=-0.576E-03 dE for cont linesearch -0.446E-05
 ZBRENT: increasing intervall
 opt :   0.7166  next Energy=  -657.102887 (dE=-0.668E-04)
 bond charge predicted
       N       E                     dE             d eps       ncg     rms          rms(c)
DAV:   1    -0.649750668027E+03    0.36330E-03   -0.56005E-02  1260   0.530E-01    0.427E-02
RMM:   2    -0.649750763195E+03   -0.95167E-04   -0.11535E-03  1260   0.697E-02    0.289E-02
RMM:   3    -0.649750753950E+03    0.92445E-05   -0.32840E-05  1260   0.137E-02    0.175E-02
RMM:   4    -0.649750751604E+03    0.23459E-05   -0.16991E-05  1260   0.814E-03    0.281E-03
RMM:   5    -0.649750751497E+03    0.10764E-06   -0.47742E-07   919   0.169E-03    0.162E-03
RMM:   6    -0.649750751520E+03   -0.23365E-07   -0.30799E-07   911   0.110E-03
 154 F= -.65710289E+03 E0= -.65710289E+03  d E =-.665755E-04
 curvature:  -5.48 expect dE=-0.159E-02 dE for cont linesearch -0.143E-05
 ZBRENT: bracketing found
 ZBRENT: interpolating
 opt :   0.6093  next Energy=  -657.102888 (dE=-0.686E-04)
 bond charge predicted
       N       E                     dE             d eps       ncg     rms          rms(c)
DAV:   1    -0.649750844482E+03   -0.92986E-04   -0.70191E-03  1300   0.187E-01    0.151E-02
RMM:   2    -0.649750856522E+03   -0.12040E-04   -0.14421E-04  1260   0.246E-02    0.102E-02
RMM:   3    -0.649750855349E+03    0.11732E-05   -0.40529E-06  1260   0.482E-03    0.617E-03
RMM:   4    -0.649750854977E+03    0.37225E-06   -0.21170E-06  1217   0.286E-03    0.987E-04
RMM:   5    -0.649750854948E+03    0.28907E-07   -0.48882E-08   785   0.607E-04
 155 F= -.65710289E+03 E0= -.65710289E+03  d E =-.693297E-04
 curvature:  -7.67 expect dE=-0.156E-02 dE for cont linesearch -0.118E-06
 trial: gam= 0.97988 g(F)=  0.198E-03 g(S)=  0.450E-05 ort = 0.906E-05 (trialstep = 0.331E+00)
 search vector abs. value=  0.534E-02
 bond charge predicted
       N       E                     dE             d eps       ncg     rms          rms(c)
DAV:   1    -0.649750609246E+03    0.24573E-03   -0.67430E-02  1260   0.583E-01    0.458E-02
RMM:   2    -0.649750724853E+03   -0.11561E-03   -0.13814E-03  1260   0.763E-02    0.310E-02
RMM:   3    -0.649750714191E+03    0.10663E-04   -0.38063E-05  1260   0.147E-02    0.191E-02
RMM:   4    -0.649750711315E+03    0.28760E-05   -0.20590E-05  1260   0.892E-03    0.314E-03
RMM:   5    -0.649750711150E+03    0.16436E-06   -0.55751E-07   947   0.182E-03    0.173E-03
RMM:   6    -0.649750711174E+03   -0.23865E-07   -0.32031E-07   910   0.120E-03
 156 F= -.65710293E+03 E0= -.65710293E+03  d E =-.441663E-04
 trial-energy change:   -0.000044  1 .order   -0.000046   -0.000070   -0.000023
 step:   0.6948(harm=  0.4879)  dis= 0.00278  next Energy=  -657.102943 (dE=-0.537E-04)
 bond charge predicted
       N       E                     dE             d eps       ncg     rms          rms(c)
DAV:   1    -0.649750378169E+03    0.33298E-03   -0.81515E-02  1260   0.641E-01    0.504E-02
RMM:   2    -0.649750518084E+03   -0.13991E-03   -0.16732E-03  1260   0.840E-02    0.342E-02
RMM:   3    -0.649750505173E+03    0.12910E-04   -0.46357E-05  1260   0.162E-02    0.210E-02
RMM:   4    -0.649750501721E+03    0.34528E-05   -0.25043E-05  1260   0.985E-03    0.346E-03
RMM:   5    -0.649750501519E+03    0.20155E-06   -0.69502E-07  1003   0.201E-03    0.191E-03
RMM:   6    -0.649750501547E+03   -0.28333E-07   -0.38225E-07   981   0.127E-03
 157 F= -.65710293E+03 E0= -.65710293E+03  d E =-.413223E-04
 curvature:   4.54 expect dE= 0.151E-02 dE for cont linesearch  0.542E-05
 ZBRENT: interpolating
 opt :   0.4985  next Energy=  -657.102939 (dE=-0.499E-04)
 bond charge predicted
       N       E                     dE             d eps       ncg     rms          rms(c)
DAV:   1    -0.649750584579E+03   -0.83060E-04   -0.23729E-02  1260   0.346E-01    0.271E-02
RMM:   2    -0.649750625869E+03   -0.41290E-04   -0.48704E-04  1260   0.453E-02    0.184E-02
RMM:   3    -0.649750622169E+03    0.37000E-05   -0.13334E-05  1260   0.869E-03    0.113E-02
RMM:   4    -0.649750621079E+03    0.10903E-05   -0.72615E-06  1260   0.528E-03    0.186E-03
RMM:   5    -0.649750620987E+03    0.92041E-07   -0.18166E-07   836   0.108E-03
 158 F= -.65710294E+03 E0= -.65710294E+03  d E =-.491781E-04
 curvature:  -4.79 expect dE=-0.748E-03 dE for cont linesearch -0.128E-06
 trial: gam= 0.75491 g(F)=  0.153E-03 g(S)=  0.333E-05 ort = 0.119E-04 (trialstep = 0.364E+00)
 search vector abs. value=  0.322E-02
 bond charge predicted
       N       E                     dE             d eps       ncg     rms          rms(c)
DAV:   1    -0.649750401026E+03    0.22005E-03   -0.49577E-02  1260   0.502E-01    0.389E-02
RMM:   2    -0.649750485497E+03   -0.84471E-04   -0.10086E-03  1260   0.658E-02    0.266E-02
RMM:   3    -0.649750477929E+03    0.75682E-05   -0.28310E-05  1260   0.131E-02    0.166E-02
RMM:   4    -0.649750475818E+03    0.21106E-05   -0.14775E-05  1260   0.781E-03    0.266E-03
RMM:   5    -0.649750475760E+03    0.57804E-07   -0.41194E-07   915   0.156E-03
 159 F= -.65710298E+03 E0= -.65710298E+03  d E =-.396328E-04
 trial-energy change:   -0.000040  1 .order   -0.000040   -0.000060   -0.000020
 step:   0.5738(harm=  0.5469)  dis= 0.00177  next Energy=  -657.102984 (dE=-0.453E-04)
 bond charge predicted
       N       E                     dE             d eps       ncg     rms          rms(c)
DAV:   1    -0.649750349756E+03    0.12606E-03   -0.16439E-02  1260   0.289E-01    0.225E-02
RMM:   2    -0.649750378274E+03   -0.28518E-04   -0.34057E-04  1260   0.381E-02    0.156E-02
RMM:   3    -0.649750375696E+03    0.25788E-05   -0.95522E-06  1260   0.740E-03    0.970E-03
RMM:   4    -0.649750375018E+03    0.67762E-06   -0.50971E-06  1260   0.446E-03    0.151E-03
RMM:   5    -0.649750375000E+03    0.17781E-07   -0.11710E-07   812   0.901E-04
 160 F= -.65710298E+03 E0= -.65710298E+03  d E =-.451686E-04
 curvature:  -5.20 expect dE=-0.662E-03 dE for cont linesearch -0.346E-08
 trial: gam= 0.81678 g(F)=  0.127E-03 g(S)=  0.555E-06 ort =-0.146E-05 (trialstep = 0.406E+00)
 search vector abs. value=  0.227E-02
 bond charge predicted
       N       E                     dE             d eps       ncg     rms          rms(c)
DAV:   1    -0.649750207630E+03    0.16739E-03   -0.43366E-02  1260   0.470E-01    0.363E-02
RMM:   2    -0.649750283667E+03   -0.76037E-04   -0.89623E-04  1260   0.623E-02    0.251E-02
RMM:   3    -0.649750277101E+03    0.65662E-05   -0.24610E-05  1260   0.122E-02    0.157E-02
RMM:   4    -0.649750275332E+03    0.17691E-05   -0.13614E-05  1265   0.739E-03    0.255E-03
RMM:   5    -0.649750275221E+03    0.11035E-06   -0.33920E-07   883   0.144E-03    0.147E-03
RMM:   6    -0.649750275236E+03   -0.14970E-07   -0.24938E-07   839   0.111E-03
 161 F= -.65710302E+03 E0= -.65710302E+03  d E =-.346229E-04
 trial-energy change:   -0.000035  1 .order   -0.000035   -0.000051   -0.000018
 step:   0.6336(harm=  0.6336)  dis= 0.00163  next Energy=  -657.103023 (dE=-0.399E-04)
 bond charge predicted
       N       E                     dE             d eps       ncg     rms          rms(c)
DAV:   1    -0.649750184978E+03    0.90244E-04   -0.13548E-02  1268   0.263E-01    0.203E-02
RMM:   2    -0.649750208565E+03   -0.23587E-04   -0.27847E-04  1260   0.348E-02    0.140E-02
RMM:   3    -0.649750206548E+03    0.20169E-05   -0.76912E-06  1260   0.689E-03    0.872E-03
RMM:   4    -0.649750206060E+03    0.48775E-06   -0.42246E-06  1260   0.417E-03    0.144E-03
RMM:   5    -0.649750206024E+03    0.35609E-07   -0.95578E-08   804   0.818E-04
 162 F= -.65710302E+03 E0= -.65710302E+03  d E =-.406731E-04
 curvature:  -5.71 expect dE=-0.797E-03 dE for cont linesearch -0.298E-09
 trial: gam= 1.09282 g(F)=  0.136E-03 g(S)=  0.321E-05 ort =-0.345E-06 (trialstep = 0.360E+00)
 search vector abs. value=  0.285E-02
 bond charge predicted
       N       E                     dE             d eps       ncg     rms          rms(c)
DAV:   1    -0.649750136437E+03    0.69623E-04   -0.43030E-02  1260   0.468E-01    0.361E-02
RMM:   2    -0.649750211079E+03   -0.74641E-04   -0.87962E-04  1260   0.618E-02    0.251E-02
RMM:   3    -0.649750204342E+03    0.67365E-05   -0.24035E-05  1260   0.119E-02    0.156E-02
RMM:   4    -0.649750202465E+03    0.18768E-05   -0.13322E-05  1267   0.723E-03    0.249E-03
RMM:   5    -0.649750202333E+03    0.13205E-06   -0.33746E-07   878   0.147E-03    0.138E-03
RMM:   6    -0.649750202323E+03    0.98644E-08   -0.19150E-07   808   0.101E-03
 163 F= -.65710306E+03 E0= -.65710306E+03  d E =-.360901E-04
 trial-energy change:   -0.000036  1 .order   -0.000035   -0.000050   -0.000020
 step:   0.5599(harm=  0.6087)  dis= 0.00159  next Energy=  -657.103066 (dE=-0.419E-04)
 bond charge predicted
       N       E                     dE             d eps       ncg     rms          rms(c)
DAV:   1    -0.649750167442E+03    0.34891E-04   -0.13274E-02  1264   0.260E-01    0.201E-02
RMM:   2    -0.649750190347E+03   -0.22905E-04   -0.26992E-04  1260   0.343E-02    0.139E-02
RMM:   3    -0.649750188293E+03    0.20538E-05   -0.74162E-06  1260   0.665E-03    0.860E-03
RMM:   4    -0.649750187744E+03    0.54969E-06   -0.40800E-06  1261   0.403E-03    0.139E-03
RMM:   5    -0.649750187698E+03    0.45469E-07   -0.93727E-08   801   0.822E-04
 164 F= -.65710307E+03 E0= -.65710307E+03  d E =-.435515E-04
 curvature:  -5.99 expect dE=-0.793E-03 dE for cont linesearch -0.236E-06
 trial: gam= 0.87431 g(F)=  0.124E-03 g(S)=  0.794E-05 ort = 0.106E-04 (trialstep = 0.400E+00)
 search vector abs. value=  0.233E-02
 bond charge predicted
       N       E                     dE             d eps       ncg     rms          rms(c)
DAV:   1    -0.649750354671E+03   -0.16693E-03   -0.43317E-02  1260   0.471E-01    0.370E-02
RMM:   2    -0.649750427359E+03   -0.72687E-04   -0.87804E-04  1260   0.620E-02    0.255E-02
RMM:   3    -0.649750420028E+03    0.73308E-05   -0.24388E-05  1260   0.122E-02    0.156E-02
RMM:   4    -0.649750417760E+03    0.22677E-05   -0.13293E-05  1266   0.736E-03    0.248E-03
RMM:   5    -0.649750417676E+03    0.83892E-07   -0.34131E-07   884   0.147E-03
 165 F= -.65710311E+03 E0= -.65710311E+03  d E =-.445636E-04
 trial-energy change:   -0.000045  1 .order   -0.000041   -0.000057   -0.000026
 step:   0.5811(harm=  0.7438)  dis= 0.00143  next Energy=  -657.103118 (dE=-0.508E-04)
 bond charge predicted
       N       E                     dE             d eps       ncg     rms          rms(c)
DAV:   1    -0.649750498208E+03   -0.80448E-04   -0.89321E-03  1284   0.214E-01    0.168E-02
RMM:   2    -0.649750513369E+03   -0.15161E-04   -0.18344E-04  1260   0.283E-02    0.117E-02
RMM:   3    -0.649750511784E+03    0.15851E-05   -0.51181E-06  1260   0.547E-03    0.716E-03
RMM:   4    -0.649750511269E+03    0.51454E-06   -0.28210E-06  1254   0.332E-03    0.112E-03
RMM:   5    -0.649750511240E+03    0.29604E-07   -0.60435E-08   786   0.700E-04
 166 F= -.65710312E+03 E0= -.65710312E+03  d E =-.541522E-04
 curvature:  -4.75 expect dE=-0.461E-03 dE for cont linesearch -0.218E-05
 ZBRENT: increasing intervall
 opt :   0.9435  next Energy=  -657.103122 (dE=-0.541E-04)
 bond charge predicted
       N       E                     dE             d eps       ncg     rms          rms(c)
DAV:   1    -0.649750627358E+03   -0.11609E-03   -0.35590E-02  1260   0.427E-01    0.335E-02
RMM:   2    -0.649750687022E+03   -0.59664E-04   -0.72134E-04  1260   0.562E-02    0.231E-02
RMM:   3    -0.649750680944E+03    0.60784E-05   -0.20017E-05  1260   0.110E-02    0.142E-02
RMM:   4    -0.649750679062E+03    0.18812E-05   -0.10919E-05  1266   0.663E-03    0.223E-03
RMM:   5    -0.649750678990E+03    0.72669E-07   -0.27414E-07   866   0.133E-03
 167 F= -.65710312E+03 E0= -.65710312E+03  d E =-.540706E-04
 curvature:   0.04 expect dE= 0.112E-04 dE for cont linesearch  0.228E-07
 trial: gam= 0.00000 g(F)=  0.274E-03 g(S)=  0.657E-05 ort =-0.364E-04 (trialstep = 0.509E+00)
 search vector abs. value=  0.280E-03
 bond charge predicted
       N       E                     dE             d eps       ncg     rms          rms(c)
DAV:   1    -0.649750786797E+03   -0.10773E-03   -0.89276E-03  1310   0.232E-01    0.234E-02
RMM:   2    -0.649750803481E+03   -0.16684E-04   -0.25284E-04  1260   0.364E-02    0.160E-02
RMM:   3    -0.649750799778E+03    0.37026E-05   -0.13658E-05  1278   0.892E-03    0.901E-03
RMM:   4    -0.649750798889E+03    0.88940E-06   -0.39965E-06  1263   0.407E-03    0.249E-03
RMM:   5    -0.649750798882E+03    0.65702E-08   -0.21912E-07   827   0.142E-03
 168 F= -.65710312E+03 E0= -.65710312E+03  d E =-.138724E-05
 trial-energy change:   -0.000001  1 .order   -0.000002   -0.000142    0.000139
 step:   0.2572(harm=  0.2572)  dis= 0.00014  next Energy=  -657.103158 (dE=-0.360E-04)
 bond charge predicted
       N       E                     dE             d eps       ncg     rms          rms(c)
DAV:   1    -0.649750771628E+03    0.27261E-04   -0.21845E-03  1326   0.115E-01    0.117E-02
RMM:   2    -0.649750776052E+03   -0.44238E-05   -0.62058E-05  1260   0.182E-02    0.794E-03
RMM:   3    -0.649750775126E+03    0.92620E-06   -0.34294E-06  1272   0.450E-03    0.439E-03
RMM:   4    -0.649750774897E+03    0.22917E-06   -0.98292E-07  1211   0.204E-03    0.123E-03
RMM:   5    -0.649750774876E+03    0.20393E-07   -0.56655E-08   784   0.732E-04
 169 F= -.65710316E+03 E0= -.65710316E+03  d E =-.359636E-04
 curvature:  -0.13 expect dE=-0.572E-05 dE for cont linesearch -0.777E-09
 trial: gam= 0.16333 g(F)=  0.430E-04 g(S)=  0.143E-05 ort =-0.130E-05 (trialstep = 0.458E+00)
 search vector abs. value=  0.515E-04
 bond charge predicted
       N       E                     dE             d eps       ncg     rms          rms(c)
DAV:   1    -0.649750850744E+03   -0.75848E-04   -0.12191E-03  1304   0.857E-02    0.839E-03
RMM:   2    -0.649750852474E+03   -0.17291E-05   -0.27061E-05  1260   0.123E-02    0.501E-03
RMM:   3    -0.649750852123E+03    0.35089E-06   -0.14845E-06  1272   0.310E-03    0.267E-03
RMM:   4    -0.649750852018E+03    0.10450E-06   -0.40964E-07  1043   0.139E-03    0.767E-04
RMM:   5    -0.649750852008E+03    0.10241E-07   -0.38242E-08   772   0.572E-04
 170 F= -.65710317E+03 E0= -.65710317E+03  d E =-.119692E-04
 trial-energy change:   -0.000012  1 .order   -0.000012   -0.000020   -0.000004
 step:   0.5625(harm=  0.5625)  dis= 0.00014  next Energy=  -657.103170 (dE=-0.124E-04)
 bond charge predicted
       N       E                     dE             d eps       ncg     rms          rms(c)
DAV:   1    -0.649750867223E+03   -0.15204E-04   -0.63034E-05  1384   0.194E-02    0.191E-03
RMM:   2    -0.649750867333E+03   -0.11065E-06   -0.14472E-06  1260   0.281E-03    0.117E-03
RMM:   3    -0.649750867314E+03    0.18867E-07   -0.62755E-08   762   0.702E-04
 171 F= -.65710317E+03 E0= -.65710317E+03  d E =-.124591E-04
 curvature:  -0.33 expect dE=-0.147E-04 dE for cont linesearch -0.535E-09
 trial: gam= 1.00102 g(F)=  0.444E-04 g(S)=  0.580E-06 ort = 0.290E-06 (trialstep = 0.254E+00)
 search vector abs. value=  0.972E-04
 bond charge predicted
       N       E                     dE             d eps       ncg     rms          rms(c)
DAV:   1    -0.649750958859E+03   -0.91525E-04   -0.68619E-04  1268   0.633E-02    0.576E-03
RMM:   2    -0.649750959753E+03   -0.89410E-06   -0.13793E-05  1260   0.858E-03    0.332E-03
RMM:   3    -0.649750959607E+03    0.14520E-06   -0.59827E-07  1016   0.217E-03    0.197E-03
RMM:   4    -0.649750959514E+03    0.93334E-07   -0.21459E-07   793   0.123E-03
 172 F= -.65710318E+03 E0= -.65710318E+03  d E =-.961147E-05
 trial-energy change:   -0.000010  1 .order   -0.000010   -0.000011   -0.000008
 step:   0.9211(harm=  0.9211)  dis= 0.00038  next Energy=  -657.103191 (dE=-0.208E-04)
 bond charge predicted
       N       E                     dE             d eps       ncg     rms          rms(c)
DAV:   1    -0.649751180882E+03   -0.22127E-03   -0.47422E-03  1260   0.166E-01    0.150E-02
RMM:   2    -0.649751187292E+03   -0.64109E-05   -0.95488E-05  1260   0.225E-02    0.872E-03
RMM:   3    -0.649751186475E+03    0.81724E-06   -0.43409E-06  1274   0.570E-03    0.519E-03
RMM:   4    -0.649751186082E+03    0.39285E-06   -0.13480E-06  1256   0.253E-03    0.143E-03
RMM:   5    -0.649751186034E+03    0.48756E-07   -0.82433E-08   786   0.782E-04
 173 F= -.65710319E+03 E0= -.65710319E+03  d E =-.192129E-04
 curvature:  -0.99 expect dE=-0.802E-04 dE for cont linesearch -0.623E-07
 trial: gam= 1.86763 g(F)=  0.807E-04 g(S)=  0.504E-06 ort =-0.247E-05 (trialstep = 0.916E-01)
 search vector abs. value=  0.411E-03
 bond charge predicted
       N       E                     dE             d eps       ncg     rms          rms(c)
DAV:   1    -0.649751241936E+03   -0.55854E-04   -0.38449E-04  1320   0.465E-02    0.417E-03
RMM:   2    -0.649751242531E+03   -0.59514E-06   -0.77125E-06  1260   0.621E-03    0.236E-03
RMM:   3    -0.649751242465E+03    0.66082E-07   -0.30283E-07   872   0.155E-03
 174 F= -.65710320E+03 E0= -.65710320E+03  d E =-.664016E-05
 ZBRENT: can't locate minimum, use default step
 trial-energy change:   -0.000007  1 .order   -0.000006   -0.000007   -0.000006
 step:   0.3665(harm=  0.5819)  dis= 0.00029  next Energy=  -657.103212 (dE=-0.223E-04)
 bond charge predicted
       N       E                     dE             d eps       ncg     rms          rms(c)
DAV:   1    -0.649751400642E+03   -0.15811E-03   -0.34355E-03  1264   0.139E-01    0.127E-02
RMM:   2    -0.649751405455E+03   -0.48122E-05   -0.68094E-05  1260   0.187E-02    0.711E-03
RMM:   3    -0.649751404934E+03    0.52020E-06   -0.30387E-06  1265   0.473E-03    0.410E-03
RMM:   4    -0.649751404686E+03    0.24883E-06   -0.97790E-07  1233   0.226E-03    0.101E-03
RMM:   5    -0.649751404654E+03    0.31974E-07   -0.54036E-08   784   0.629E-04
 175 F= -.65710321E+03 E0= -.65710321E+03  d E =-.193442E-04
 curvature:  -1.26 expect dE=-0.541E-04 dE for cont linesearch -0.176E-05
 ZBRENT: increasing intervall
 opt :   0.9162  next Energy=  -657.103200 (dE=-0.102E-04)
 bond charge predicted
       N       E                     dE             d eps       ncg     rms          rms(c)
DAV:   1    -0.649751679484E+03   -0.27480E-03   -0.13827E-02  1260   0.279E-01    0.252E-02
RMM:   2    -0.649751698963E+03   -0.19479E-04   -0.27612E-04  1260   0.375E-02    0.141E-02
RMM:   3    -0.649751696819E+03    0.21434E-05   -0.12083E-05  1265   0.944E-03    0.816E-03
RMM:   4    -0.649751696008E+03    0.81153E-06   -0.39988E-06  1284   0.449E-03    0.204E-03
RMM:   5    -0.649751695930E+03    0.78344E-07   -0.20838E-07   829   0.116E-03
 176 F= -.65710320E+03 E0= -.65710320E+03  d E =-.117478E-04
 curvature:   6.52 expect dE= 0.135E-02 dE for cont linesearch  0.471E-04
 ZBRENT: bracketing found
 ZBRENT: interpolating
 opt :   0.5344  next Energy=  -657.103211 (dE=-0.214E-04)
 bond charge predicted
       N       E                     dE             d eps       ncg     rms          rms(c)
DAV:   1    -0.649751490425E+03    0.20558E-03   -0.66551E-03  1260   0.194E-01    0.176E-02
RMM:   2    -0.649751499210E+03   -0.87857E-05   -0.13198E-04  1260   0.262E-02    0.967E-03
RMM:   3    -0.649751498244E+03    0.96676E-06   -0.57181E-06  1265   0.651E-03    0.559E-03
RMM:   4    -0.649751498065E+03    0.17900E-06   -0.18894E-06  1276   0.311E-03    0.137E-03
RMM:   5    -0.649751498093E+03   -0.28767E-07   -0.95074E-08   795   0.820E-04
 177 F= -.65710321E+03 E0= -.65710321E+03  d E =-.215011E-04
 curvature:  -0.28 expect dE=-0.181E-04 dE for cont linesearch -0.955E-10
 trial: gam= 0.67203 g(F)=  0.622E-04 g(S)=  0.273E-05 ort = 0.376E-06 (trialstep = 0.180E+00)
 search vector abs. value=  0.251E-03
 bond charge predicted
       N       E                     dE             d eps       ncg     rms          rms(c)
DAV:   1    -0.649751553804E+03   -0.55739E-04   -0.89057E-04  1268   0.706E-02    0.567E-03
RMM:   2    -0.649751555162E+03   -0.13586E-05   -0.17460E-05  1260   0.948E-03    0.351E-03
RMM:   3    -0.649751555031E+03    0.13153E-06   -0.64534E-07  1027   0.219E-03    0.219E-03
RMM:   4    -0.649751554954E+03    0.76570E-07   -0.27099E-07   839   0.132E-03
 178 F= -.65710322E+03 E0= -.65710322E+03  d E =-.104692E-04
 ZBRENT: can't locate minimum, use default step
 trial-energy change:   -0.000010  1 .order   -0.000010   -0.000012   -0.000009
 step:   0.7207(harm=  0.7541)  dis= 0.00041  next Energy=  -657.103235 (dE=-0.246E-04)
 bond charge predicted
       N       E                     dE             d eps       ncg     rms          rms(c)
DAV:   1    -0.649751695245E+03   -0.14021E-03   -0.80264E-03  1260   0.211E-01    0.170E-02
RMM:   2    -0.649751707899E+03   -0.12655E-04   -0.15826E-04  1260   0.283E-02    0.106E-02
RMM:   3    -0.649751706854E+03    0.10453E-05   -0.61887E-06  1268   0.660E-03    0.661E-03
RMM:   4    -0.649751706410E+03    0.44421E-06   -0.22084E-06  1268   0.321E-03    0.132E-03
RMM:   5    -0.649751706387E+03    0.22825E-07   -0.83144E-08   793   0.827E-04
 179 F= -.65710323E+03 E0= -.65710323E+03  d E =-.226455E-04
 curvature:  -1.45 expect dE=-0.113E-03 dE for cont linesearch -0.171E-07
 trial: gam= 1.27289 g(F)=  0.767E-04 g(S)=  0.125E-05 ort =-0.172E-05 (trialstep = 0.151E+00)
 search vector abs. value=  0.480E-03
 bond charge predicted
       N       E                     dE             d eps       ncg     rms          rms(c)
DAV:   1    -0.649751727834E+03   -0.21424E-04   -0.11818E-03  1268   0.814E-02    0.658E-03
RMM:   2    -0.649751729795E+03   -0.19612E-05   -0.23193E-05  1260   0.108E-02    0.411E-03
RMM:   3    -0.649751729654E+03    0.14095E-06   -0.87503E-07  1113   0.254E-03    0.260E-03
RMM:   4    -0.649751729591E+03    0.63279E-07   -0.33025E-07   900   0.137E-03
 180 F= -.65710324E+03 E0= -.65710324E+03  d E =-.103051E-04
 trial-energy change:   -0.000010  1 .order   -0.000010   -0.000011   -0.000008
 step:   0.3037(harm=  0.5611)  dis= 0.00022  next Energy=  -657.103248 (dE=-0.150E-04)
 bond charge predicted
       N       E                     dE             d eps       ncg     rms          rms(c)
DAV:   1    -0.649751747676E+03   -0.18022E-04   -0.12134E-03  1264   0.825E-02    0.666E-03
RMM:   2    -0.649751749704E+03   -0.20283E-05   -0.23757E-05  1260   0.108E-02    0.420E-03
RMM:   3    -0.649751749563E+03    0.14099E-06   -0.88381E-07  1110   0.254E-03    0.269E-03
RMM:   4    -0.649751749492E+03    0.71632E-07   -0.32911E-07   896   0.133E-03
 181 F= -.65710325E+03 E0= -.65710325E+03  d E =-.171839E-04
 curvature:  -1.08 expect dE=-0.365E-04 dE for cont linesearch -0.246E-05
 ZBRENT: increasing intervall
 opt :   0.6097  next Energy=  -657.103254 (dE=-0.205E-04)
 bond charge predicted
       N       E                     dE             d eps       ncg     rms          rms(c)
DAV:   1    -0.649751773996E+03   -0.24433E-04   -0.48598E-03  1260   0.165E-01    0.133E-02
RMM:   2    -0.649751781892E+03   -0.78954E-05   -0.94607E-05  1260   0.216E-02    0.835E-03
RMM:   3    -0.649751781326E+03    0.56566E-06   -0.36161E-06  1266   0.509E-03    0.531E-03
RMM:   4    -0.649751781079E+03    0.24738E-06   -0.12938E-06  1257   0.246E-03    0.111E-03
RMM:   5    -0.649751781057E+03    0.21635E-07   -0.51678E-08   786   0.655E-04
 182 F= -.65710326E+03 E0= -.65710326E+03  d E =-.226254E-04
 curvature:  -1.45 expect dE=-0.106E-03 dE for cont linesearch -0.423E-06
 trial: gam= 1.03775 g(F)=  0.719E-04 g(S)=  0.113E-05 ort =-0.118E-04 (trialstep = 0.206E+00)
 search vector abs. value=  0.566E-03
 bond charge predicted
       N       E                     dE             d eps       ncg     rms          rms(c)
DAV:   1    -0.649751803856E+03   -0.22777E-04   -0.25837E-03  1264   0.120E-01    0.991E-03
RMM:   2    -0.649751808089E+03   -0.42328E-05   -0.51136E-05  1260   0.158E-02    0.604E-03
RMM:   3    -0.649751807767E+03    0.32165E-06   -0.19022E-06  1262   0.367E-03    0.373E-03
RMM:   4    -0.649751807609E+03    0.15800E-06   -0.67349E-07  1162   0.177E-03    0.646E-04
RMM:   5    -0.649751807601E+03    0.76689E-08   -0.29041E-08   778   0.483E-04
 183 F= -.65710327E+03 E0= -.65710327E+03  d E =-.984466E-05
 trial-energy change:   -0.000010  1 .order   -0.000010   -0.000013   -0.000008
 step:   0.5371(harm=  0.5371)  dis= 0.00041  next Energy=  -657.103272 (dE=-0.163E-04)
 bond charge predicted
       N       E                     dE             d eps       ncg     rms          rms(c)
DAV:   1    -0.649751830891E+03   -0.23282E-04   -0.66883E-03  1260   0.194E-01    0.159E-02
RMM:   2    -0.649751841791E+03   -0.10900E-04   -0.13197E-04  1260   0.254E-02    0.971E-03
RMM:   3    -0.649751840968E+03    0.82269E-06   -0.49035E-06  1262   0.589E-03    0.599E-03
RMM:   4    -0.649751840615E+03    0.35290E-06   -0.17729E-06  1266   0.284E-03    0.104E-03
RMM:   5    -0.649751840598E+03    0.16951E-07   -0.59552E-08   787   0.693E-04
 184 F= -.65710327E+03 E0= -.65710327E+03  d E =-.159501E-04
 curvature:  -2.50 expect dE=-0.166E-03 dE for cont linesearch -0.399E-10
 trial: gam= 0.61089 g(F)=  0.642E-04 g(S)=  0.213E-05 ort =-0.950E-07 (trialstep = 0.272E+00)
 search vector abs. value=  0.277E-03
 bond charge predicted
       N       E                     dE             d eps       ncg     rms          rms(c)
DAV:   1    -0.649751800093E+03    0.40522E-04   -0.21984E-03  1264   0.113E-01    0.962E-03
RMM:   2    -0.649751803941E+03   -0.38477E-05   -0.46824E-05  1260   0.155E-02    0.592E-03
RMM:   3    -0.649751803668E+03    0.27260E-06   -0.19260E-06  1270   0.374E-03    0.378E-03
RMM:   4    -0.649751803569E+03    0.99923E-07   -0.66209E-07  1164   0.174E-03
 185 F= -.65710329E+03 E0= -.65710329E+03  d E =-.141844E-04
 trial-energy change:   -0.000014  1 .order   -0.000015   -0.000018   -0.000011
 step:   0.7470(harm=  0.7470)  dis= 0.00035  next Energy=  -657.103297 (dE=-0.248E-04)
 bond charge predicted
       N       E                     dE             d eps       ncg     rms          rms(c)
DAV:   1    -0.649751711509E+03    0.92159E-04   -0.66766E-03  1260   0.197E-01    0.169E-02
RMM:   2    -0.649751723241E+03   -0.11732E-04   -0.14200E-04  1260   0.269E-02    0.104E-02
RMM:   3    -0.649751722428E+03    0.81350E-06   -0.58416E-06  1269   0.655E-03    0.665E-03
RMM:   4    -0.649751722137E+03    0.29041E-06   -0.20367E-06  1272   0.303E-03    0.157E-03
RMM:   5    -0.649751722136E+03    0.97498E-09   -0.82078E-08   787   0.826E-04
 186 F= -.65710329E+03 E0= -.65710329E+03  d E =-.220685E-04
 curvature:  -1.56 expect dE=-0.109E-03 dE for cont linesearch -0.361E-07
 trial: gam= 1.19388 g(F)=  0.675E-04 g(S)=  0.218E-05 ort =-0.253E-05 (trialstep = 0.222E+00)
 search vector abs. value=  0.459E-03
 bond charge predicted
       N       E                     dE             d eps       ncg     rms          rms(c)
DAV:   1    -0.649751646033E+03    0.76105E-04   -0.22069E-03  1284   0.112E-01    0.100E-02
RMM:   2    -0.649751649797E+03   -0.37648E-05   -0.46210E-05  1260   0.153E-02    0.598E-03
RMM:   3    -0.649751649498E+03    0.29938E-06   -0.17343E-06  1263   0.356E-03    0.365E-03
RMM:   4    -0.649751649436E+03    0.61897E-07   -0.58798E-07  1129   0.168E-03
 187 F= -.65710331E+03 E0= -.65710331E+03  d E =-.122039E-04
 trial-energy change:   -0.000012  1 .order   -0.000012   -0.000015   -0.000010
 step:   0.7094(harm=  0.7094)  dis= 0.00046  next Energy=  -657.103318 (dE=-0.236E-04)
 bond charge predicted
       N       E                     dE             d eps       ncg     rms          rms(c)
DAV:   1    -0.649751455616E+03    0.19388E-03   -0.10644E-02  1260   0.247E-01    0.221E-02
RMM:   2    -0.649751473546E+03   -0.17930E-04   -0.22118E-04  1260   0.334E-02    0.132E-02
RMM:   3    -0.649751472063E+03    0.14824E-05   -0.83194E-06  1263   0.781E-03    0.803E-03
RMM:   4    -0.649751471697E+03    0.36668E-06   -0.28966E-06  1278   0.363E-03    0.153E-03
RMM:   5    -0.649751471693E+03    0.40054E-08   -0.12052E-07   803   0.919E-04
 188 F= -.65710332E+03 E0= -.65710332E+03  d E =-.212458E-04
 curvature:  -2.44 expect dE=-0.184E-03 dE for cont linesearch -0.500E-07
 trial: gam= 1.02700 g(F)=  0.729E-04 g(S)=  0.247E-05 ort =-0.306E-05 (trialstep = 0.265E+00)
 search vector abs. value=  0.553E-03
 bond charge predicted
       N       E                     dE             d eps       ncg     rms          rms(c)
DAV:   1    -0.649751369000E+03    0.10270E-03   -0.34316E-03  1268   0.140E-01    0.131E-02
RMM:   2    -0.649751374699E+03   -0.56996E-05   -0.74635E-05  1260   0.192E-02    0.815E-03
RMM:   3    -0.649751374098E+03    0.60151E-06   -0.28938E-06  1260   0.451E-03    0.496E-03
RMM:   4    -0.649751373949E+03    0.14859E-06   -0.10018E-06  1241   0.213E-03    0.112E-03
RMM:   5    -0.649751373960E+03   -0.11396E-07   -0.54477E-08   785   0.644E-04
 189 F= -.65710333E+03 E0= -.65710333E+03  d E =-.146994E-04
 trial-energy change:   -0.000015  1 .order   -0.000015   -0.000019   -0.000011
 step:   0.5959(harm=  0.5959)  dis= 0.00048  next Energy=  -657.103337 (dE=-0.215E-04)
 bond charge predicted
       N       E                     dE             d eps       ncg     rms          rms(c)
DAV:   1    -0.649751232207E+03    0.14174E-03   -0.53496E-03  1260   0.175E-01    0.164E-02
RMM:   2    -0.649751241069E+03   -0.88623E-05   -0.11623E-04  1260   0.239E-02    0.102E-02
RMM:   3    -0.649751240124E+03    0.94545E-06   -0.45011E-06  1260   0.564E-03    0.619E-03
RMM:   4    -0.649751239883E+03    0.24046E-06   -0.15647E-06  1265   0.266E-03    0.142E-03
RMM:   5    -0.649751239896E+03   -0.12978E-07   -0.81425E-08   787   0.775E-04
 190 F= -.65710334E+03 E0= -.65710334E+03  d E =-.210983E-04
 curvature:  -2.28 expect dE=-0.213E-03 dE for cont linesearch -0.123E-08
 trial: gam= 1.21393 g(F)=  0.923E-04 g(S)=  0.933E-06 ort =-0.546E-06 (trialstep = 0.202E+00)
 search vector abs. value=  0.907E-03
 bond charge predicted
       N       E                     dE             d eps       ncg     rms          rms(c)
DAV:   1    -0.649751171470E+03    0.68414E-04   -0.32828E-03  1272   0.136E-01    0.124E-02
RMM:   2    -0.649751176841E+03   -0.53715E-05   -0.68930E-05  1260   0.185E-02    0.756E-03
RMM:   3    -0.649751176301E+03    0.54008E-06   -0.25796E-06  1263   0.421E-03    0.446E-03
RMM:   4    -0.649751176197E+03    0.10404E-06   -0.90560E-07  1216   0.200E-03    0.877E-04
RMM:   5    -0.649751176206E+03   -0.91313E-08   -0.40879E-08   779   0.567E-04
 191 F= -.65710335E+03 E0= -.65710335E+03  d E =-.164146E-04
 trial-energy change:   -0.000016  1 .order   -0.000016   -0.000019   -0.000013
 step:   0.4094(harm=  0.6627)  dis= 0.00046  next Energy=  -657.103360 (dE=-0.237E-04)
 bond charge predicted
       N       E                     dE             d eps       ncg     rms          rms(c)
DAV:   1    -0.649751098946E+03    0.77251E-04   -0.34644E-03  1264   0.140E-01    0.128E-02
RMM:   2    -0.649751104592E+03   -0.56456E-05   -0.72816E-05  1260   0.190E-02    0.777E-03
RMM:   3    -0.649751104014E+03    0.57762E-06   -0.27329E-06  1263   0.433E-03    0.458E-03
RMM:   4    -0.649751103902E+03    0.11245E-06   -0.96143E-07  1234   0.207E-03    0.910E-04
RMM:   5    -0.649751103910E+03   -0.87311E-08   -0.42421E-08   784   0.578E-04
 192 F= -.65710336E+03 E0= -.65710336E+03  d E =-.263449E-04
 curvature:  -2.27 expect dE=-0.880E-04 dE for cont linesearch -0.316E-05
 ZBRENT: increasing intervall
 opt :   0.8242  next Energy=  -657.103366 (dE=-0.292E-04)
 bond charge predicted
       N       E                     dE             d eps       ncg     rms          rms(c)
DAV:   1    -0.649750922689E+03    0.18121E-03   -0.13850E-02  1260   0.280E-01    0.256E-02
RMM:   2    -0.649750945160E+03   -0.22471E-04   -0.29041E-04  1260   0.380E-02    0.155E-02
RMM:   3    -0.649750942792E+03    0.23681E-05   -0.10884E-05  1263   0.866E-03    0.914E-03
RMM:   4    -0.649750942251E+03    0.54138E-06   -0.38572E-06  1276   0.413E-03    0.183E-03
RMM:   5    -0.649750942262E+03   -0.11436E-07   -0.16545E-07   815   0.107E-03
 193 F= -.65710337E+03 E0= -.65710337E+03  d E =-.291516E-04
 curvature:  -2.02 expect dE=-0.232E-03 dE for cont linesearch -0.112E-05
 ZBRENT: bracketing found
 ZBRENT: interpolating
 opt :   0.6640  next Energy=  -657.103367 (dE=-0.309E-04)
 bond charge predicted
       N       E                     dE             d eps       ncg     rms          rms(c)
DAV:   1    -0.649751004831E+03   -0.62581E-04   -0.20602E-03  1272   0.108E-01    0.991E-03
RMM:   2    -0.649751008088E+03   -0.32566E-05   -0.42571E-05  1260   0.146E-02    0.596E-03
RMM:   3    -0.649751007700E+03    0.38826E-06   -0.15829E-06  1260   0.335E-03    0.350E-03
RMM:   4    -0.649751007564E+03    0.13534E-06   -0.55105E-07  1117   0.159E-03    0.690E-04
RMM:   5    -0.649751007557E+03    0.69413E-08   -0.30850E-08   722   0.482E-04
 194 F= -.65710337E+03 E0= -.65710337E+03  d E =-.310031E-04
 curvature:  -3.24 expect dE=-0.225E-03 dE for cont linesearch -0.506E-08
 trial: gam= 0.77008 g(F)=  0.684E-04 g(S)=  0.839E-06 ort = 0.119E-05 (trialstep = 0.294E+00)
 search vector abs. value=  0.609E-03
 bond charge predicted
       N       E                     dE             d eps       ncg     rms          rms(c)
DAV:   1    -0.649750978402E+03    0.29162E-04   -0.45886E-03  1264   0.161E-01    0.146E-02
RMM:   2    -0.649750985702E+03   -0.73001E-05   -0.95114E-05  1260   0.217E-02    0.909E-03
RMM:   3    -0.649750984868E+03    0.83389E-06   -0.35924E-06  1260   0.510E-03    0.546E-03
RMM:   4    -0.649750984634E+03    0.23431E-06   -0.13138E-06  1243   0.245E-03    0.110E-03
RMM:   5    -0.649750984635E+03   -0.11514E-08   -0.58751E-08   786   0.680E-04
 195 F= -.65710338E+03 E0= -.65710338E+03  d E =-.155285E-04
 trial-energy change:   -0.000016  1 .order   -0.000016   -0.000021   -0.000011
 step:   0.6350(harm=  0.6350)  dis= 0.00065  next Energy=  -657.103390 (dE=-0.223E-04)
 bond charge predicted
       N       E                     dE             d eps       ncg     rms          rms(c)
DAV:   1    -0.649750937937E+03    0.46697E-04   -0.61539E-03  1260   0.186E-01    0.168E-02
RMM:   2    -0.649750947909E+03   -0.99718E-05   -0.12859E-04  1260   0.252E-02    0.106E-02
RMM:   3    -0.649750946815E+03    0.10940E-05   -0.48707E-06  1260   0.591E-03    0.636E-03
RMM:   4    -0.649750946510E+03    0.30516E-06   -0.17809E-06  1260   0.283E-03    0.127E-03
RMM:   5    -0.649750946512E+03   -0.20373E-08   -0.78372E-08   788   0.791E-04
 196 F= -.65710339E+03 E0= -.65710339E+03  d E =-.220960E-04
 curvature:  -2.76 expect dE=-0.157E-03 dE for cont linesearch -0.237E-08
 trial: gam= 0.82777 g(F)=  0.569E-04 g(S)=  0.121E-06 ort = 0.724E-06 (trialstep = 0.362E+00)
 search vector abs. value=  0.475E-03
 bond charge predicted
       N       E                     dE             d eps       ncg     rms          rms(c)
DAV:   1    -0.649750907033E+03    0.39477E-04   -0.54073E-03  1264   0.176E-01    0.157E-02
RMM:   2    -0.649750915910E+03   -0.88770E-05   -0.11121E-04  1260   0.235E-02    0.101E-02
RMM:   3    -0.649750914920E+03    0.99006E-06   -0.40884E-06  1262   0.530E-03    0.609E-03
RMM:   4    -0.649750914627E+03    0.29275E-06   -0.16904E-06  1259   0.269E-03    0.117E-03
RMM:   5    -0.649750914614E+03    0.12964E-07   -0.67979E-08   786   0.733E-04
 197 F= -.65710340E+03 E0= -.65710340E+03  d E =-.127218E-04
 trial-energy change:   -0.000013  1 .order   -0.000013   -0.000021   -0.000004
 step:   0.4577(harm=  0.4577)  dis= 0.00043  next Energy=  -657.103403 (dE=-0.132E-04)
 bond charge predicted
       N       E                     dE             d eps       ncg     rms          rms(c)
DAV:   1    -0.649750902963E+03    0.11665E-04   -0.37462E-04  1336   0.463E-02    0.415E-03
RMM:   2    -0.649750903615E+03   -0.65178E-06   -0.78629E-06  1260   0.624E-03    0.269E-03
RMM:   3    -0.649750903547E+03    0.67506E-07   -0.26151E-07   861   0.140E-03
 198 F= -.65710340E+03 E0= -.65710340E+03  d E =-.133605E-04
 curvature:  -1.89 expect dE=-0.630E-04 dE for cont linesearch -0.157E-07
 trial: gam= 0.58684 g(F)=  0.331E-04 g(S)=  0.290E-06 ort = 0.199E-05 (trialstep = 0.382E+00)
 search vector abs. value=  0.199E-03
 bond charge predicted
       N       E                     dE             d eps       ncg     rms          rms(c)
DAV:   1    -0.649750915725E+03   -0.12111E-04   -0.25761E-03  1264   0.121E-01    0.103E-02
RMM:   2    -0.649750919592E+03   -0.38665E-05   -0.49165E-05  1260   0.156E-02    0.664E-03
RMM:   3    -0.649750919160E+03    0.43175E-06   -0.18427E-06  1269   0.346E-03    0.391E-03
RMM:   4    -0.649750919027E+03    0.13300E-06   -0.68815E-07  1162   0.173E-03    0.738E-04
RMM:   5    -0.649750919024E+03    0.32705E-08   -0.30019E-08   776   0.491E-04
 199 F= -.65710341E+03 E0= -.65710341E+03  d E =-.827756E-05
 trial-energy change:   -0.000008  1 .order   -0.000008   -0.000013   -0.000004
 step:   0.5290(harm=  0.5290)  dis= 0.00034  next Energy=  -657.103412 (dE=-0.913E-05)
 bond charge predicted
       N       E                     dE             d eps       ncg     rms          rms(c)
DAV:   1    -0.649750922008E+03   -0.29807E-05   -0.38822E-04  1320   0.471E-02    0.396E-03
RMM:   2    -0.649750922590E+03   -0.58220E-06   -0.76546E-06  1260   0.617E-03    0.257E-03
RMM:   3    -0.649750922516E+03    0.73782E-07   -0.24553E-07   844   0.134E-03
 200 F= -.65710341E+03 E0= -.65710341E+03  d E =-.894509E-05
 curvature:  -1.53 expect dE=-0.387E-04 dE for cont linesearch -0.131E-07
 trial: gam= 0.74828 g(F)=  0.246E-04 g(S)=  0.696E-06 ort = 0.131E-05 (trialstep = 0.411E+00)
 search vector abs. value=  0.139E-03
 bond charge predicted
       N       E                     dE             d eps       ncg     rms          rms(c)
DAV:   1    -0.649750897779E+03    0.24811E-04   -0.20649E-03  1264   0.108E-01    0.944E-03
RMM:   2    -0.649750901036E+03   -0.32572E-05   -0.39658E-05  1260   0.139E-02    0.608E-03
RMM:   3    -0.649750900711E+03    0.32568E-06   -0.14002E-06  1240   0.310E-03    0.360E-03
RMM:   4    -0.649750900623E+03    0.87337E-07   -0.53902E-07  1098   0.156E-03
 201 F= -.65710342E+03 E0= -.65710342E+03  d E =-.737290E-05
 trial-energy change:   -0.000007  1 .order   -0.000008   -0.000011   -0.000004
 step:   0.6973(harm=  0.6973)  dis= 0.00040  next Energy=  -657.103421 (dE=-0.918E-05)
 bond charge predicted
       N       E                     dE             d eps       ncg     rms          rms(c)
DAV:   1    -0.649750881276E+03    0.19435E-04   -0.10075E-03  1272   0.753E-02    0.659E-03
RMM:   2    -0.649750882968E+03   -0.16928E-05   -0.19913E-05  1260   0.985E-03    0.425E-03
RMM:   3    -0.649750882819E+03    0.14971E-06   -0.66396E-07  1052   0.221E-03    0.257E-03
RMM:   4    -0.649750882778E+03    0.40911E-07   -0.27815E-07   833   0.122E-03
 202 F= -.65710342E+03 E0= -.65710342E+03  d E =-.990505E-05
 curvature:  -1.84 expect dE=-0.531E-04 dE for cont linesearch -0.471E-09
 trial: gam= 1.15281 g(F)=  0.287E-04 g(S)=  0.191E-06 ort = 0.189E-06 (trialstep = 0.304E+00)
 search vector abs. value=  0.214E-03
 bond charge predicted
       N       E                     dE             d eps       ncg     rms          rms(c)
DAV:   1    -0.649750896434E+03   -0.13616E-04   -0.18918E-03  1264   0.103E-01    0.871E-03
RMM:   2    -0.649750899307E+03   -0.28724E-05   -0.36042E-05  1260   0.134E-02    0.558E-03
RMM:   3    -0.649750898987E+03    0.32004E-06   -0.12922E-06  1251   0.300E-03    0.329E-03
RMM:   4    -0.649750898884E+03    0.10270E-06   -0.49925E-07  1069   0.148E-03    0.550E-04
RMM:   5    -0.649750898878E+03    0.54406E-08   -0.25189E-08   771   0.448E-04
 203 F= -.65710343E+03 E0= -.65710343E+03  d E =-.686331E-05
 trial-energy change:   -0.000007  1 .order   -0.000007   -0.000009   -0.000005
 step:   0.6357(harm=  0.6357)  dis= 0.00047  next Energy=  -657.103431 (dE=-0.924E-05)
 bond charge predicted
       N       E                     dE             d eps       ncg     rms          rms(c)
DAV:   1    -0.649750908664E+03   -0.97802E-05   -0.22518E-03  1264   0.113E-01    0.947E-03
RMM:   2    -0.649750912068E+03   -0.34041E-05   -0.42920E-05  1260   0.146E-02    0.609E-03
RMM:   3    -0.649750911675E+03    0.39330E-06   -0.15389E-06  1259   0.326E-03    0.358E-03
RMM:   4    -0.649750911555E+03    0.11996E-06   -0.60420E-07  1114   0.162E-03    0.607E-04
RMM:   5    -0.649750911548E+03    0.69867E-08   -0.27385E-08   774   0.470E-04
 204 F= -.65710343E+03 E0= -.65710343E+03  d E =-.951123E-05
 curvature:  -2.34 expect dE=-0.590E-04 dE for cont linesearch -0.105E-08
 trial: gam= 0.84003 g(F)=  0.249E-04 g(S)=  0.360E-06 ort = 0.310E-06 (trialstep = 0.370E+00)
 search vector abs. value=  0.177E-03
 bond charge predicted
       N       E                     dE             d eps       ncg     rms          rms(c)
DAV:   1    -0.649750986464E+03   -0.74909E-04   -0.23825E-03  1264   0.116E-01    0.975E-03
RMM:   2    -0.649750990232E+03   -0.37685E-05   -0.48145E-05  1260   0.152E-02    0.644E-03
RMM:   3    -0.649750989791E+03    0.44093E-06   -0.16325E-06  1257   0.338E-03    0.397E-03
RMM:   4    -0.649750989616E+03    0.17557E-06   -0.68001E-07  1134   0.175E-03    0.749E-04
RMM:   5    -0.649750989608E+03    0.74124E-08   -0.32502E-08   774   0.503E-04
 205 F= -.65710344E+03 E0= -.65710344E+03  d E =-.673074E-05
 trial-energy change:   -0.000007  1 .order   -0.000007   -0.000009   -0.000004
 step:   0.5978(harm=  0.5978)  dis= 0.00039  next Energy=  -657.103439 (dE=-0.762E-05)
 bond charge predicted
       N       E                     dE             d eps       ncg     rms          rms(c)
DAV:   1    -0.649751033821E+03   -0.44205E-04   -0.89858E-04  1288   0.712E-02    0.597E-03
RMM:   2    -0.649751035251E+03   -0.14301E-05   -0.18271E-05  1260   0.933E-03    0.397E-03
RMM:   3    -0.649751035078E+03    0.17344E-06   -0.58974E-07  1015   0.206E-03    0.246E-03
RMM:   4    -0.649751035002E+03    0.76445E-07   -0.27837E-07   832   0.122E-03
 206 F= -.65710344E+03 E0= -.65710344E+03  d E =-.833500E-05
 curvature:  -2.07 expect dE=-0.669E-04 dE for cont linesearch -0.319E-08
 trial: gam= 1.29967 g(F)=  0.312E-04 g(S)=  0.109E-05 ort = 0.522E-06 (trialstep = 0.221E+00)
 search vector abs. value=  0.332E-03
 bond charge predicted
       N       E                     dE             d eps       ncg     rms          rms(c)
DAV:   1    -0.649751114614E+03   -0.79536E-04   -0.16315E-03  1264   0.954E-02    0.827E-03
RMM:   2    -0.649751117084E+03   -0.24704E-05   -0.32080E-05  1260   0.124E-02    0.527E-03
RMM:   3    -0.649751116759E+03    0.32533E-06   -0.10704E-06  1203   0.273E-03    0.310E-03
RMM:   4    -0.649751116626E+03    0.13228E-06   -0.41912E-07   995   0.140E-03    0.522E-04
RMM:   5    -0.649751116620E+03    0.63246E-08   -0.28069E-08   761   0.503E-04
 207 F= -.65710345E+03 E0= -.65710345E+03  d E =-.615941E-05
 trial-energy change:   -0.000006  1 .order   -0.000006   -0.000007   -0.000005
 step:   0.7324(harm=  0.7324)  dis= 0.00066  next Energy=  -657.103452 (dE=-0.121E-04)
 bond charge predicted
       N       E                     dE             d eps       ncg     rms          rms(c)
DAV:   1    -0.649751286678E+03   -0.17005E-03   -0.87179E-03  1260   0.221E-01    0.191E-02
RMM:   2    -0.649751299794E+03   -0.13116E-04   -0.17132E-04  1260   0.288E-02    0.122E-02
RMM:   3    -0.649751298109E+03    0.16853E-05   -0.57635E-06  1260   0.629E-03    0.711E-03
RMM:   4    -0.649751297570E+03    0.53899E-06   -0.23032E-06  1275   0.318E-03    0.123E-03
RMM:   5    -0.649751297540E+03    0.29215E-07   -0.70655E-08   786   0.736E-04
 208 F= -.65710345E+03 E0= -.65710345E+03  d E =-.128793E-04
 curvature:  -3.69 expect dE=-0.123E-03 dE for cont linesearch -0.241E-07
 trial: gam= 0.94406 g(F)=  0.322E-04 g(S)=  0.972E-06 ort = 0.147E-05 (trialstep = 0.324E+00)
 search vector abs. value=  0.332E-03
 bond charge predicted
       N       E                     dE             d eps       ncg     rms          rms(c)
DAV:   1    -0.649751360716E+03   -0.63146E-04   -0.34717E-03  1264   0.138E-01    0.122E-02
RMM:   2    -0.649751366196E+03   -0.54805E-05   -0.70818E-05  1260   0.183E-02    0.801E-03
RMM:   3    -0.649751365472E+03    0.72413E-06   -0.23541E-06  1266   0.398E-03    0.484E-03
RMM:   4    -0.649751365255E+03    0.21763E-06   -0.10361E-06  1222   0.210E-03    0.856E-04
RMM:   5    -0.649751365249E+03    0.61664E-08   -0.36485E-08   781   0.561E-04
 209 F= -.65710346E+03 E0= -.65710346E+03  d E =-.821822E-05
 trial-energy change:   -0.000008  1 .order   -0.000008   -0.000011   -0.000005
 step:   0.6260(harm=  0.6260)  dis= 0.00056  next Energy=  -657.103463 (dE=-0.108E-04)
 bond charge predicted
       N       E                     dE             d eps       ncg     rms          rms(c)
DAV:   1    -0.649751419922E+03   -0.54667E-04   -0.30349E-03  1264   0.129E-01    0.114E-02
RMM:   2    -0.649751424717E+03   -0.47945E-05   -0.61901E-05  1260   0.171E-02    0.750E-03
RMM:   3    -0.649751424082E+03    0.63481E-06   -0.20576E-06  1266   0.371E-03    0.454E-03
RMM:   4    -0.649751423885E+03    0.19650E-06   -0.89765E-07  1196   0.193E-03    0.798E-04
RMM:   5    -0.649751423882E+03    0.31287E-08   -0.33263E-08   777   0.529E-04
 210 F= -.65710346E+03 E0= -.65710346E+03  d E =-.111451E-04
 curvature:  -3.00 expect dE=-0.994E-04 dE for cont linesearch -0.114E-09
 trial: gam= 1.09329 g(F)=  0.322E-04 g(S)=  0.867E-06 ort =-0.112E-06 (trialstep = 0.297E+00)
 search vector abs. value=  0.430E-03
 bond charge predicted
       N       E                     dE             d eps       ncg     rms          rms(c)
DAV:   1    -0.649751422031E+03    0.18542E-05   -0.37491E-03  1264   0.143E-01    0.122E-02
RMM:   2    -0.649751428292E+03   -0.62607E-05   -0.75969E-05  1260   0.187E-02    0.802E-03
RMM:   3    -0.649751427668E+03    0.62381E-06   -0.22926E-06  1257   0.395E-03    0.485E-03
RMM:   4    -0.649751427541E+03    0.12703E-06   -0.10518E-06  1193   0.212E-03    0.768E-04
RMM:   5    -0.649751427538E+03    0.30905E-08   -0.33629E-08   776   0.505E-04
 211 F= -.65710347E+03 E0= -.65710347E+03  d E =-.870246E-05
 trial-energy change:   -0.000009  1 .order   -0.000008   -0.000010   -0.000006
 step:   0.4826(harm=  0.8312)  dis= 0.00048  next Energy=  -657.103474 (dE=-0.108E-04)
 bond charge predicted
       N       E                     dE             d eps       ncg     rms          rms(c)
DAV:   1    -0.649751425510E+03    0.20313E-05   -0.14740E-03  1284   0.894E-02    0.768E-03
RMM:   2    -0.649751428003E+03   -0.24936E-05   -0.30068E-05  1260   0.117E-02    0.505E-03
RMM:   3    -0.649751427767E+03    0.23608E-06   -0.89722E-07  1144   0.248E-03    0.306E-03
RMM:   4    -0.649751427732E+03    0.35237E-07   -0.42400E-07  1004   0.139E-03
 212 F= -.65710348E+03 E0= -.65710348E+03  d E =-.120656E-04
 curvature:  -3.11 expect dE=-0.740E-04 dE for cont linesearch -0.164E-05
 ZBRENT: increasing intervall
 opt :   0.8544  next Energy=  -657.103479 (dE=-0.154E-04)
 bond charge predicted
       N       E                     dE             d eps       ncg     rms          rms(c)
DAV:   1    -0.649751414991E+03    0.12776E-04   -0.58812E-03  1264   0.179E-01    0.154E-02
RMM:   2    -0.649751424843E+03   -0.98521E-05   -0.11933E-04  1260   0.234E-02    0.101E-02
RMM:   3    -0.649751423876E+03    0.96711E-06   -0.36083E-06  1260   0.498E-03    0.610E-03
RMM:   4    -0.649751423665E+03    0.21078E-06   -0.16481E-06  1264   0.265E-03    0.969E-04
RMM:   5    -0.649751423660E+03    0.55188E-08   -0.46149E-08   785   0.595E-04
 213 F= -.65710348E+03 E0= -.65710348E+03  d E =-.143671E-04
 curvature:  -6.27 expect dE=-0.317E-03 dE for cont linesearch -0.394E-08
 trial: gam= 1.44315 g(F)=  0.501E-04 g(S)=  0.440E-06 ort =-0.519E-06 (trialstep = 0.186E+00)
 search vector abs. value=  0.944E-03
 bond charge predicted
       N       E                     dE             d eps       ncg     rms          rms(c)
DAV:   1    -0.649751404090E+03    0.19575E-04   -0.33029E-03  1264   0.133E-01    0.112E-02
RMM:   2    -0.649751409597E+03   -0.55071E-05   -0.66840E-05  1260   0.174E-02    0.745E-03
RMM:   3    -0.649751409046E+03    0.55154E-06   -0.19955E-06  1252   0.363E-03    0.457E-03
RMM:   4    -0.649751408901E+03    0.14493E-06   -0.93573E-07  1178   0.198E-03    0.706E-04
RMM:   5    -0.649751408900E+03    0.54388E-09   -0.29517E-08   774   0.477E-04
 214 F= -.65710349E+03 E0= -.65710349E+03  d E =-.765057E-05
 trial-energy change:   -0.000008  1 .order   -0.000008   -0.000009   -0.000007
 step:   0.6429(harm=  0.6429)  dis= 0.00096  next Energy=  -657.103494 (dE=-0.160E-04)
 bond charge predicted
       N       E                     dE             d eps       ncg     rms          rms(c)
DAV:   1    -0.649751333641E+03    0.75260E-04   -0.19952E-02  1260   0.328E-01    0.274E-02
RMM:   2    -0.649751366675E+03   -0.33035E-04   -0.40148E-04  1260   0.426E-02    0.183E-02
RMM:   3    -0.649751363294E+03    0.33813E-05   -0.11983E-05  1260   0.891E-03    0.112E-02
RMM:   4    -0.649751362349E+03    0.94553E-06   -0.56294E-06  1260   0.485E-03    0.174E-03
RMM:   5    -0.649751362336E+03    0.12664E-07   -0.17092E-07   832   0.111E-03
 215 F= -.65710349E+03 E0= -.65710349E+03  d E =-.161259E-04
 curvature:  -6.10 expect dE=-0.394E-03 dE for cont linesearch -0.150E-07
 trial: gam= 1.28861 g(F)=  0.626E-04 g(S)=  0.210E-05 ort =-0.152E-05 (trialstep = 0.161E+00)
 search vector abs. value=  0.163E-02
 bond charge predicted
       N       E                     dE             d eps       ncg     rms          rms(c)
DAV:   1    -0.649751333805E+03    0.28543E-04   -0.43166E-03  1260   0.153E-01    0.126E-02
RMM:   2    -0.649751341090E+03   -0.72846E-05   -0.87099E-05  1260   0.198E-02    0.845E-03
RMM:   3    -0.649751340362E+03    0.72840E-06   -0.25763E-06  1260   0.412E-03    0.520E-03
RMM:   4    -0.649751340158E+03    0.20327E-06   -0.12539E-06  1207   0.229E-03    0.809E-04
RMM:   5    -0.649751340151E+03    0.70140E-08   -0.35685E-08   775   0.532E-04
 216 F= -.65710350E+03 E0= -.65710350E+03  d E =-.898091E-05
 trial-energy change:   -0.000009  1 .order   -0.000009   -0.000010   -0.000007
 step:   0.5994(harm=  0.5994)  dis= 0.00120  next Energy=  -657.103513 (dE=-0.188E-04)
 bond charge predicted
       N       E                     dE             d eps       ncg     rms          rms(c)
DAV:   1    -0.649751218309E+03    0.12185E-03   -0.32059E-02  1260   0.416E-01    0.344E-02
RMM:   2    -0.649751271447E+03   -0.53138E-04   -0.63968E-04  1260   0.538E-02    0.229E-02
RMM:   3    -0.649751265981E+03    0.54661E-05   -0.18829E-05  1260   0.112E-02    0.140E-02
RMM:   4    -0.649751264449E+03    0.15317E-05   -0.92367E-06  1261   0.620E-03    0.220E-03
RMM:   5    -0.649751264405E+03    0.43647E-07   -0.26971E-07   854   0.139E-03
 217 F= -.65710351E+03 E0= -.65710351E+03  d E =-.183528E-04
 curvature:  -7.78 expect dE=-0.491E-03 dE for cont linesearch -0.735E-07
 trial: gam= 1.00118 g(F)=  0.603E-04 g(S)=  0.278E-05 ort =-0.392E-05 (trialstep = 0.240E+00)
 search vector abs. value=  0.169E-02
 bond charge predicted
       N       E                     dE             d eps       ncg     rms          rms(c)
DAV:   1    -0.649751234662E+03    0.29787E-04   -0.99921E-03  1260   0.233E-01    0.192E-02
RMM:   2    -0.649751251293E+03   -0.16630E-04   -0.20094E-04  1260   0.301E-02    0.127E-02
RMM:   3    -0.649751249601E+03    0.16917E-05   -0.58486E-06  1260   0.620E-03    0.773E-03
RMM:   4    -0.649751249105E+03    0.49541E-06   -0.27816E-06  1260   0.342E-03    0.118E-03
RMM:   5    -0.649751249102E+03    0.38017E-08   -0.71920E-08   787   0.764E-04
 218 F= -.65710353E+03 E0= -.65710353E+03  d E =-.127467E-04
 trial-energy change:   -0.000013  1 .order   -0.000012   -0.000014   -0.000010
 step:   0.4117(harm=  0.7407)  dis= 0.00087  next Energy=  -657.103529 (dE=-0.165E-04)
 bond charge predicted
       N       E                     dE             d eps       ncg     rms          rms(c)
DAV:   1    -0.649751227449E+03    0.21656E-04   -0.51323E-03  1268   0.167E-01    0.137E-02
RMM:   2    -0.649751235927E+03   -0.84781E-05   -0.10296E-04  1260   0.215E-02    0.907E-03
RMM:   3    -0.649751235045E+03    0.88201E-06   -0.29907E-06  1260   0.444E-03    0.552E-03
RMM:   4    -0.649751234791E+03    0.25459E-06   -0.14225E-06  1242   0.244E-03    0.846E-04
RMM:   5    -0.649751234789E+03    0.20045E-08   -0.37849E-08   780   0.552E-04
 219 F= -.65710353E+03 E0= -.65710353E+03  d E =-.185957E-04
 curvature:  -6.00 expect dE=-0.217E-03 dE for cont linesearch -0.247E-05
 ZBRENT: increasing intervall
 opt :   0.7554  next Energy=  -657.103535 (dE=-0.230E-04)
 bond charge predicted
       N       E                     dE             d eps       ncg     rms          rms(c)
DAV:   1    -0.649751168645E+03    0.66145E-04   -0.20496E-02  1260   0.333E-01    0.274E-02
RMM:   2    -0.649751202520E+03   -0.33875E-04   -0.40841E-04  1260   0.429E-02    0.181E-02
RMM:   3    -0.649751199076E+03    0.34438E-05   -0.11808E-05  1260   0.883E-03    0.110E-02
RMM:   4    -0.649751198099E+03    0.97763E-06   -0.56171E-06  1260   0.484E-03    0.168E-03
RMM:   5    -0.649751198084E+03    0.15247E-07   -0.15908E-07   829   0.108E-03
 220 F= -.65710353E+03 E0= -.65710353E+03  d E =-.223705E-04
 curvature: -10.60 expect dE=-0.798E-03 dE for cont linesearch -0.710E-07
 trial: gam= 1.16309 g(F)=  0.716E-04 g(S)=  0.365E-05 ort =-0.336E-05 (trialstep = 0.246E+00)
 search vector abs. value=  0.235E-02
 bond charge predicted
       N       E                     dE             d eps       ncg     rms          rms(c)
DAV:   1    -0.649751084544E+03    0.11355E-03   -0.14784E-02  1260   0.283E-01    0.231E-02
RMM:   2    -0.649751108861E+03   -0.24317E-04   -0.29312E-04  1260   0.364E-02    0.153E-02
RMM:   3    -0.649751106475E+03    0.23865E-05   -0.86094E-06  1260   0.767E-03    0.932E-03
RMM:   4    -0.649751105853E+03    0.62183E-06   -0.41134E-06  1260   0.421E-03    0.144E-03
RMM:   5    -0.649751105847E+03    0.59154E-08   -0.10858E-07   800   0.916E-04
 221 F= -.65710355E+03 E0= -.65710355E+03  d E =-.151873E-04
 trial-energy change:   -0.000015  1 .order   -0.000015   -0.000018   -0.000012
 step:   0.4727(harm=  0.7311)  dis= 0.00120  next Energy=  -657.103556 (dE=-0.210E-04)
 bond charge predicted
       N       E                     dE             d eps       ncg     rms          rms(c)
DAV:   1    -0.649750996831E+03    0.10902E-03   -0.12510E-02  1260   0.260E-01    0.212E-02
RMM:   2    -0.649751017417E+03   -0.20586E-04   -0.24812E-04  1260   0.335E-02    0.141E-02
RMM:   3    -0.649751015380E+03    0.20373E-05   -0.72562E-06  1260   0.701E-03    0.857E-03
RMM:   4    -0.649751014847E+03    0.53230E-06   -0.34905E-06  1260   0.383E-03    0.131E-03
RMM:   5    -0.649751014845E+03    0.25866E-08   -0.88852E-08   795   0.845E-04
 222 F= -.65710356E+03 E0= -.65710356E+03  d E =-.230443E-04
 curvature:  -8.62 expect dE=-0.414E-03 dE for cont linesearch -0.219E-05
 ZBRENT: increasing intervall
 opt :   0.9256  next Energy=  -657.103559 (dE=-0.238E-04)
 bond charge predicted
       N       E                     dE             d eps       ncg     rms          rms(c)
DAV:   1    -0.649750747876E+03    0.26697E-03   -0.49982E-02  1260   0.519E-01    0.424E-02
RMM:   2    -0.649750829825E+03   -0.81949E-04   -0.98700E-04  1260   0.668E-02    0.281E-02
RMM:   3    -0.649750821720E+03    0.81054E-05   -0.28846E-05  1260   0.140E-02    0.171E-02
RMM:   4    -0.649750819518E+03    0.22022E-05   -0.13822E-05  1266   0.767E-03    0.263E-03
RMM:   5    -0.649750819493E+03    0.24440E-07   -0.41184E-07   908   0.165E-03
 223 F= -.65710356E+03 E0= -.65710356E+03  d E =-.256043E-04
 curvature:  -2.85 expect dE=-0.432E-03 dE for cont linesearch -0.605E-06
 trial: gam= 0.00000 g(F)=  0.145E-03 g(S)=  0.587E-05 ort =-0.223E-04 (trialstep = 0.382E+00)
 search vector abs. value=  0.151E-03
 bond charge predicted
       N       E                     dE             d eps       ncg     rms          rms(c)
DAV:   1    -0.649750668132E+03    0.15139E-03   -0.25863E-03  1328   0.129E-01    0.138E-02
RMM:   2    -0.649750673397E+03   -0.52649E-05   -0.82963E-05  1260   0.208E-02    0.931E-03
RMM:   3    -0.649750672343E+03    0.10540E-05   -0.41294E-06  1271   0.517E-03    0.570E-03
RMM:   4    -0.649750672076E+03    0.26765E-06   -0.13421E-06  1252   0.247E-03    0.185E-03
RMM:   5    -0.649750672124E+03   -0.48041E-07   -0.12339E-07   787   0.962E-04
 224 F= -.65710357E+03 E0= -.65710357E+03  d E =-.139950E-04
 trial-energy change:   -0.000014  1 .order   -0.000015   -0.000058    0.000027
 step:   0.2519(harm=  0.2594)  dis= 0.00013  next Energy=  -657.103579 (dE=-0.187E-04)
 bond charge predicted
       N       E                     dE             d eps       ncg     rms          rms(c)
DAV:   1    -0.649750731412E+03   -0.59337E-04   -0.30107E-04  1336   0.447E-02    0.481E-03
RMM:   2    -0.649750731958E+03   -0.54574E-06   -0.97959E-06  1260   0.732E-03    0.318E-03
RMM:   3    -0.649750731786E+03    0.17228E-06   -0.46817E-07   966   0.185E-03    0.193E-03
RMM:   4    -0.649750731675E+03    0.11122E-06   -0.20088E-07   791   0.121E-03    0.716E-04
RMM:   5    -0.649750731661E+03    0.13764E-07   -0.70286E-08   710   0.841E-04
 225 F= -.65710358E+03 E0= -.65710358E+03  d E =-.185375E-04
 curvature:  -0.13 expect dE=-0.492E-05 dE for cont linesearch -0.817E-08
 trial: gam= 0.23116 g(F)=  0.359E-04 g(S)=  0.218E-05 ort = 0.309E-05 (trialstep = 0.356E+00)
 search vector abs. value=  0.476E-04
 bond charge predicted
       N       E                     dE             d eps       ncg     rms          rms(c)
DAV:   1    -0.649750599248E+03    0.13243E-03   -0.49906E-04  1304   0.592E-02    0.717E-03
RMM:   2    -0.649750599825E+03   -0.57724E-06   -0.13417E-05  1260   0.918E-03    0.416E-03
RMM:   3    -0.649750599780E+03    0.45282E-07   -0.76908E-07  1221   0.222E-03
 226 F= -.65710359E+03 E0= -.65710359E+03  d E =-.903417E-05
 trial-energy change:   -0.000009  1 .order   -0.000009   -0.000014   -0.000005
 step:   0.5371(harm=  0.5371)  dis= 0.00010  next Energy=  -657.103589 (dE=-0.104E-04)
 bond charge predicted
       N       E                     dE             d eps       ncg     rms          rms(c)
DAV:   1    -0.649750528991E+03    0.70834E-04   -0.12551E-04  1384   0.304E-02    0.394E-03
RMM:   2    -0.649750529194E+03   -0.20318E-06   -0.34092E-06  1260   0.470E-03    0.242E-03
RMM:   3    -0.649750529240E+03   -0.45780E-07   -0.17446E-07   790   0.116E-03
 227 F= -.65710359E+03 E0= -.65710359E+03  d E =-.101400E-04
 curvature:  -0.33 expect dE=-0.771E-05 dE for cont linesearch -0.216E-08
 trial: gam= 0.65765 g(F)=  0.231E-04 g(S)=  0.337E-06 ort =-0.558E-06 (trialstep = 0.392E+00)
 search vector abs. value=  0.432E-04
 bond charge predicted
       N       E                     dE             d eps       ncg     rms          rms(c)
DAV:   1    -0.649750457398E+03    0.71796E-04   -0.46383E-04  1268   0.544E-02    0.570E-03
RMM:   2    -0.649750457873E+03   -0.47526E-06   -0.10330E-05  1260   0.758E-03    0.333E-03
RMM:   3    -0.649750457808E+03    0.65234E-07   -0.49591E-07   992   0.194E-03
 228 F= -.65710360E+03 E0= -.65710360E+03  d E =-.608181E-05
 trial-energy change:   -0.000006  1 .order   -0.000006   -0.000009   -0.000004
 step:   0.6798(harm=  0.6798)  dis= 0.00017  next Energy=  -657.103597 (dE=-0.783E-05)
 bond charge predicted
       N       E                     dE             d eps       ncg     rms          rms(c)
DAV:   1    -0.649750401804E+03    0.56069E-04   -0.24486E-04  1336   0.398E-02    0.438E-03
RMM:   2    -0.649750402037E+03   -0.23334E-06   -0.53797E-06  1260   0.552E-03    0.261E-03
RMM:   3    -0.649750402026E+03    0.11769E-07   -0.25350E-07   848   0.142E-03
 229 F= -.65710360E+03 E0= -.65710360E+03  d E =-.715042E-05
 curvature:  -0.64 expect dE=-0.175E-04 dE for cont linesearch -0.358E-08
 trial: gam= 1.14312 g(F)=  0.265E-04 g(S)=  0.919E-06 ort =-0.492E-06 (trialstep = 0.235E+00)
 search vector abs. value=  0.829E-04
 bond charge predicted
       N       E                     dE             d eps       ncg     rms          rms(c)
DAV:   1    -0.649750368939E+03    0.33099E-04   -0.29954E-04  1268   0.429E-02    0.410E-03
RMM:   2    -0.649750369350E+03   -0.41133E-06   -0.62290E-06  1260   0.592E-03    0.257E-03
RMM:   3    -0.649750369288E+03    0.61969E-07   -0.26252E-07   850   0.146E-03
 230 F= -.65710360E+03 E0= -.65710360E+03  d E =-.514668E-05
 trial-energy change:   -0.000005  1 .order   -0.000005   -0.000006   -0.000004
 step:   0.6213(harm=  0.6213)  dis= 0.00024  next Energy=  -657.103605 (dE=-0.836E-05)
 bond charge predicted
       N       E                     dE             d eps       ncg     rms          rms(c)
DAV:   1    -0.649750308798E+03    0.60552E-04   -0.80701E-04  1264   0.701E-02    0.664E-03
RMM:   2    -0.649750309888E+03   -0.10900E-05   -0.16400E-05  1260   0.952E-03    0.424E-03
RMM:   3    -0.649750309719E+03    0.16893E-06   -0.79103E-07  1190   0.238E-03    0.243E-03
RMM:   4    -0.649750309693E+03    0.25668E-07   -0.23567E-07   798   0.115E-03
 231 F= -.65710360E+03 E0= -.65710360E+03  d E =-.782143E-05
 curvature:  -0.96 expect dE=-0.253E-04 dE for cont linesearch -0.156E-07
 trial: gam= 0.97717 g(F)=  0.261E-04 g(S)=  0.399E-06 ort =-0.116E-05 (trialstep = 0.250E+00)
 search vector abs. value=  0.103E-03
 bond charge predicted
       N       E                     dE             d eps       ncg     rms          rms(c)
DAV:   1    -0.649750265009E+03    0.44709E-04   -0.45174E-04  1336   0.518E-02    0.454E-03
RMM:   2    -0.649750265613E+03   -0.60328E-06   -0.90808E-06  1260   0.687E-03    0.293E-03
RMM:   3    -0.649750265484E+03    0.12895E-06   -0.34818E-07   889   0.166E-03    0.171E-03
RMM:   4    -0.649750265441E+03    0.42892E-07   -0.17628E-07   785   0.105E-03
 232 F= -.65710361E+03 E0= -.65710361E+03  d E =-.499733E-05
 trial-energy change:   -0.000005  1 .order   -0.000005   -0.000006   -0.000003
 step:   0.5567(harm=  0.5567)  dis= 0.00023  next Energy=  -657.103611 (dE=-0.705E-05)
 bond charge predicted
       N       E                     dE             d eps       ncg     rms          rms(c)
DAV:   1    -0.649750206108E+03    0.59376E-04   -0.67671E-04  1264   0.635E-02    0.554E-03
RMM:   2    -0.649750207056E+03   -0.94775E-06   -0.13730E-05  1260   0.847E-03    0.358E-03
RMM:   3    -0.649750206880E+03    0.17531E-06   -0.54487E-07  1003   0.207E-03    0.209E-03
RMM:   4    -0.649750206821E+03    0.59223E-07   -0.24366E-07   806   0.121E-03
 233 F= -.65710361E+03 E0= -.65710361E+03  d E =-.670534E-05
 curvature:  -1.14 expect dE=-0.231E-04 dE for cont linesearch -0.903E-09
 trial: gam= 0.71596 g(F)=  0.196E-04 g(S)=  0.658E-06 ort =-0.287E-06 (trialstep = 0.312E+00)
 search vector abs. value=  0.728E-04
 bond charge predicted
       N       E                     dE             d eps       ncg     rms          rms(c)
DAV:   1    -0.649750141477E+03    0.65403E-04   -0.52229E-04  1268   0.561E-02    0.536E-03
RMM:   2    -0.649750142256E+03   -0.77915E-06   -0.11245E-05  1260   0.767E-03    0.343E-03
RMM:   3    -0.649750142146E+03    0.11047E-06   -0.49109E-07   987   0.192E-03    0.192E-03
RMM:   4    -0.649750142144E+03    0.20991E-08   -0.19765E-07   787   0.112E-03
 234 F= -.65710362E+03 E0= -.65710362E+03  d E =-.548296E-05
 trial-energy change:   -0.000005  1 .order   -0.000005   -0.000006   -0.000003
 step:   0.3979(harm=  0.5765)  dis= 0.00013  next Energy=  -657.103617 (dE=-0.590E-05)
 bond charge predicted
       N       E                     dE             d eps       ncg     rms          rms(c)
DAV:   1    -0.649750123228E+03    0.18918E-04   -0.39802E-05  1368   0.155E-02    0.151E-03
RMM:   2    -0.649750123298E+03   -0.70002E-07   -0.89393E-07  1207   0.215E-03    0.992E-04
RMM:   3    -0.649750123293E+03    0.51896E-08   -0.34686E-08   736   0.559E-04
 235 F= -.65710362E+03 E0= -.65710362E+03  d E =-.607869E-05
 curvature:  -0.57 expect dE=-0.455E-05 dE for cont linesearch -0.291E-06
 trial: gam= 0.08438 g(F)=  0.756E-05 g(S)=  0.419E-06 ort = 0.609E-05 (trialstep = 0.329E+00)
 search vector abs. value=  0.952E-05
 bond charge predicted
       N       E                     dE             d eps       ncg     rms          rms(c)
DAV:   1    -0.649750097743E+03    0.25556E-04   -0.10026E-04  1272   0.249E-02    0.232E-03
RMM:   2    -0.649750097918E+03   -0.17504E-06   -0.20569E-06  1260   0.340E-03    0.146E-03
RMM:   3    -0.649750097920E+03   -0.22337E-08   -0.81074E-08   760   0.813E-04
 236 F= -.65710362E+03 E0= -.65710362E+03  d E =-.223917E-05
 trial-energy change:   -0.000002  1 .order   -0.000002   -0.000003   -0.000002
 step:   1.0886(harm=  1.0886)  dis= 0.00013  next Energy=  -657.103621 (dE=-0.462E-05)
 bond charge predicted
       N       E                     dE             d eps       ncg     rms          rms(c)
DAV:   1    -0.649750035860E+03    0.62057E-04   -0.53464E-04  1264   0.577E-02    0.545E-03
RMM:   2    -0.649750036655E+03   -0.79487E-06   -0.11030E-05  1260   0.791E-03    0.340E-03
RMM:   3    -0.649750036593E+03    0.62319E-07   -0.49050E-07  1008   0.187E-03
 237 F= -.65710362E+03 E0= -.65710362E+03  d E =-.470231E-05
 curvature:  -0.61 expect dE=-0.104E-04 dE for cont linesearch -0.183E-09
 trial: gam= 2.23065 g(F)=  0.167E-04 g(S)=  0.371E-06 ort =-0.534E-07 (trialstep = 0.713E-01)
 search vector abs. value=  0.642E-04
 bond charge predicted
       N       E                     dE             d eps       ncg     rms          rms(c)
DAV:   1    -0.649750034520E+03    0.21354E-05   -0.31540E-05  1384   0.140E-02    0.141E-03
RMM:   2    -0.649750034579E+03   -0.59015E-07   -0.65441E-07  1094   0.197E-03    0.882E-04
RMM:   3    -0.649750034591E+03   -0.11998E-07   -0.33429E-08   724   0.524E-04
 238 F= -.65710362E+03 E0= -.65710362E+03  d E =-.210187E-05
 ZBRENT: can't locate minimum, use default step
 trial-energy change:   -0.000002  1 .order   -0.000001   -0.000001   -0.000001
 step:   0.2851(harm=  0.4593)  dis= 0.00010  next Energy=  -657.103625 (dE=-0.390E-05)
 bond charge predicted
       N       E                     dE             d eps       ncg     rms          rms(c)
DAV:   1    -0.649750024113E+03    0.10466E-04   -0.29218E-04  1264   0.413E-02    0.345E-03
RMM:   2    -0.649750024603E+03   -0.49021E-06   -0.57514E-06  1260   0.542E-03    0.229E-03
RMM:   3    -0.649750024574E+03    0.28936E-07   -0.20006E-07   830   0.127E-03
 239 F= -.65710363E+03 E0= -.65710363E+03  d E =-.436125E-05
 curvature:  -0.69 expect dE=-0.626E-05 dE for cont linesearch -0.587E-06
 trial: gam= 0.01403 g(F)=  0.832E-05 g(S)=  0.694E-06 ort = 0.737E-05 (trialstep = 0.114E+00)
 search vector abs. value=  0.924E-05
 bond charge predicted
       N       E                     dE             d eps       ncg     rms          rms(c)
DAV:   1    -0.649750042798E+03   -0.18195E-04   -0.12317E-05  1376   0.859E-03    0.105E-03
RMM:   2    -0.649750042783E+03    0.15059E-07   -0.27918E-07   830   0.127E-03    0.639E-04
RMM:   3    -0.649750042763E+03    0.19487E-07   -0.31469E-08   678   0.496E-04
 240 F= -.65710363E+03 E0= -.65710363E+03  d E =-.962865E-06
 ZBRENT: can't locate minimum, use default step
 trial-energy change:   -0.000001  1 .order   -0.000001   -0.000001   -0.000001
 step:   0.4562(harm=  0.5170)  dis= 0.00005  next Energy=  -657.103628 (dE=-0.236E-05)
 bond charge predicted
       N       E                     dE             d eps       ncg     rms          rms(c)
DAV:   1    -0.649750095881E+03   -0.53099E-04   -0.11312E-04  1264   0.269E-02    0.302E-03
RMM:   2    -0.649750095962E+03   -0.80954E-07   -0.29879E-06  1260   0.414E-03    0.182E-03
RMM:   3    -0.649750095879E+03    0.83066E-07   -0.13232E-07   780   0.103E-03
 241 F= -.65710363E+03 E0= -.65710363E+03  d E =-.243459E-05
 curvature:  -0.26 expect dE=-0.105E-05 dE for cont linesearch -0.559E-07
 trial: gam= 0.30904 g(F)=  0.409E-05 g(S)=  0.203E-07 ort = 0.142E-05 (trialstep = 0.182E+00)
 search vector abs. value=  0.587E-05
 bond charge predicted
       N       E                     dE             d eps       ncg     rms          rms(c)
DAV:   1    -0.649750108446E+03   -0.12483E-04   -0.20035E-05  1336   0.114E-02    0.112E-03
RMM:   2    -0.649750108461E+03   -0.15891E-07   -0.49022E-07   974   0.174E-03    0.704E-04
RMM:   3    -0.649750108440E+03    0.21904E-07   -0.28627E-08   692   0.518E-04
 242 F= -.65710363E+03 E0= -.65710363E+03  d E =-.667593E-06
 ZBRENT: can't locate minimum, use default step
 trial-energy change:   -0.000001  1 .order   -0.000001   -0.000001   -0.000001
 step:   0.7298(harm=  0.9205)  dis= 0.00008  next Energy=  -657.103630 (dE=-0.209E-05)
 bond charge predicted
       N       E                     dE             d eps       ncg     rms          rms(c)
DAV:   1    -0.649750145461E+03   -0.37000E-04   -0.18051E-04  1264   0.328E-02    0.291E-03
RMM:   2    -0.649750145724E+03   -0.26280E-06   -0.40832E-06  1260   0.463E-03    0.192E-03
RMM:   3    -0.649750145640E+03    0.84230E-07   -0.13670E-07   798   0.106E-03
 243 F= -.65710363E+03 E0= -.65710363E+03  d E =-.205808E-05
 curvature:  -0.55 expect dE=-0.313E-05 dE for cont linesearch -0.784E-07
 trial: gam= 0.00000 g(F)=  0.559E-05 g(S)=  0.563E-07 ort = 0.911E-06 (trialstep = 0.292E+00)
 search vector abs. value=  0.564E-05
 bond charge predicted
       N       E                     dE             d eps       ncg     rms          rms(c)
DAV:   1    -0.649750142826E+03    0.28976E-05   -0.63657E-05  1264   0.200E-02    0.195E-03
RMM:   2    -0.649750143041E+03   -0.21499E-06   -0.22747E-06  1260   0.339E-03    0.146E-03
RMM:   3    -0.649750143030E+03    0.11019E-07   -0.73164E-08   711   0.832E-04
 244 F= -.65710363E+03 E0= -.65710363E+03  d E =-.913281E-06
 trial-energy change:   -0.000001  1 .order   -0.000001   -0.000002   -0.000000
 step:   0.3638(harm=  0.3638)  dis= 0.00003  next Energy=  -657.103631 (dE=-0.103E-05)
 bond charge predicted
       N       E                     dE             d eps       ncg     rms          rms(c)
DAV:   1    -0.649750142178E+03    0.86309E-06   -0.34394E-06  1424   0.466E-03    0.615E-04
RMM:   2    -0.649750142198E+03   -0.19543E-07   -0.93513E-08   672   0.707E-04    0.429E-04
RMM:   3    -0.649750142205E+03   -0.67739E-08   -0.10113E-08   622   0.271E-04
 245 F= -.65710363E+03 E0= -.65710363E+03  d E =-.953437E-06
 curvature:  -0.18 expect dE=-0.848E-06 dE for cont linesearch -0.343E-08
 trial: gam= 0.88408 g(F)=  0.464E-05 g(S)=  0.197E-07 ort =-0.326E-06 (trialstep = 0.203E+00)
 search vector abs. value=  0.850E-05
 reached required accuracy - stopping structural energy minimisation
Note: The following floating-point exceptions are signalling: IEEE_INVALID_FLAG IEEE_UNDERFLOW_FLAG IEEE_DENORMAL
Note: The following floating-point exceptions are signalling: IEEE_UNDERFLOW_FLAG IEEE_DENORMAL
Note: The following floating-point exceptions are signalling: IEEE_UNDERFLOW_FLAG IEEE_DENORMAL
Note: The following floating-point exceptions are signalling: IEEE_UNDERFLOW_FLAG IEEE_DENORMAL
Note: The following floating-point exceptions are signalling: IEEE_INVALID_FLAG IEEE_UNDERFLOW_FLAG IEEE_DENORMAL
Note: The following floating-point exceptions are signalling: IEEE_UNDERFLOW_FLAG IEEE_DENORMAL
Note: The following floating-point exceptions are signalling: IEEE_INVALID_FLAG IEEE_UNDERFLOW_FLAG IEEE_DENORMAL
Note: The following floating-point exceptions are signalling: IEEE_DENORMAL
Note: The following floating-point exceptions are signalling: IEEE_UNDERFLOW_FLAG IEEE_DENORMAL
Note: The following floating-point exceptions are signalling: IEEE_DENORMAL
Note: The following floating-point exceptions are signalling: IEEE_INVALID_FLAG IEEE_DENORMAL
Note: The following floating-point exceptions are signalling: IEEE_DENORMAL
Note: The following floating-point exceptions are signalling: IEEE_INVALID_FLAG IEEE_UNDERFLOW_FLAG IEEE_DENORMAL
Note: The following floating-point exceptions are signalling: IEEE_UNDERFLOW_FLAG IEEE_DENORMAL
Note: The following floating-point exceptions are signalling: IEEE_DENORMAL
Note: The following floating-point exceptions are signalling: IEEE_UNDERFLOW_FLAG IEEE_DENORMAL
Note: The following floating-point exceptions are signalling: IEEE_INVALID_FLAG IEEE_UNDERFLOW_FLAG IEEE_DENORMAL
Note: The following floating-point exceptions are signalling: IEEE_UNDERFLOW_FLAG IEEE_DENORMAL
Note: The following floating-point exceptions are signalling: IEEE_UNDERFLOW_FLAG IEEE_DENORMAL
Note: The following floating-point exceptions are signalling: IEEE_UNDERFLOW_FLAG IEEE_DENORMAL
Note: The following floating-point exceptions are signalling: IEEE_UNDERFLOW_FLAG IEEE_DENORMAL
Note: The following floating-point exceptions are signalling: IEEE_DENORMAL
Note: The following floating-point exceptions are signalling: IEEE_INVALID_FLAG IEEE_UNDERFLOW_FLAG IEEE_DENORMAL
Note: The following floating-point exceptions are signalling: IEEE_UNDERFLOW_FLAG IEEE_DENORMAL
Note: The following floating-point exceptions are signalling: IEEE_DENORMAL
Note: The following floating-point exceptions are signalling: IEEE_DENORMAL
Note: The following floating-point exceptions are signalling: IEEE_DENORMAL
Note: The following floating-point exceptions are signalling: IEEE_UNDERFLOW_FLAG IEEE_DENORMAL
Note: The following floating-point exceptions are signalling: IEEE_UNDERFLOW_FLAG IEEE_DENORMAL
Note: The following floating-point exceptions are signalling: IEEE_UNDERFLOW_FLAG IEEE_DENORMAL
Note: The following floating-point exceptions are signalling: IEEE_DENORMAL
Note: The following floating-point exceptions are signalling: IEEE_DENORMAL
Note: The following floating-point exceptions are signalling: IEEE_INVALID_FLAG IEEE_UNDERFLOW_FLAG IEEE_DENORMAL
Note: The following floating-point exceptions are signalling: IEEE_UNDERFLOW_FLAG IEEE_DENORMAL
Note: The following floating-point exceptions are signalling: IEEE_INVALID_FLAG IEEE_UNDERFLOW_FLAG IEEE_DENORMAL
Note: The following floating-point exceptions are signalling: IEEE_DENORMAL
Note: The following floating-point exceptions are signalling: IEEE_UNDERFLOW_FLAG IEEE_DENORMAL
Note: The following floating-point exceptions are signalling: IEEE_INVALID_FLAG IEEE_UNDERFLOW_FLAG IEEE_DENORMAL
Note: The following floating-point exceptions are signalling: IEEE_UNDERFLOW_FLAG IEEE_DENORMAL
Note: The following floating-point exceptions are signalling: IEEE_DENORMAL
Note: The following floating-point exceptions are signalling: IEEE_DENORMAL
Note: The following floating-point exceptions are signalling: IEEE_UNDERFLOW_FLAG IEEE_DENORMAL
Note: The following floating-point exceptions are signalling: IEEE_INVALID_FLAG IEEE_DENORMAL
Note: The following floating-point exceptions are signalling: IEEE_INVALID_FLAG IEEE_DENORMAL
Note: The following floating-point exceptions are signalling: IEEE_INVALID_FLAG IEEE_DENORMAL
Note: The following floating-point exceptions are signalling: IEEE_UNDERFLOW_FLAG IEEE_DENORMAL
Note: The following floating-point exceptions are signalling: IEEE_DENORMAL
Note: The following floating-point exceptions are signalling: IEEE_DENORMAL
Note: The following floating-point exceptions are signalling: IEEE_INVALID_FLAG IEEE_UNDERFLOW_FLAG IEEE_DENORMAL
Note: The following floating-point exceptions are signalling: IEEE_DENORMAL
Note: The following floating-point exceptions are signalling: IEEE_UNDERFLOW_FLAG IEEE_DENORMAL
Note: The following floating-point exceptions are signalling: IEEE_UNDERFLOW_FLAG IEEE_DENORMAL
Note: The following floating-point exceptions are signalling: IEEE_DENORMAL
Note: The following floating-point exceptions are signalling: IEEE_UNDERFLOW_FLAG IEEE_DENORMAL
Note: The following floating-point exceptions are signalling: IEEE_UNDERFLOW_FLAG IEEE_DENORMAL
Note: The following floating-point exceptions are signalling: IEEE_UNDERFLOW_FLAG IEEE_DENORMAL
Note: The following floating-point exceptions are signalling: IEEE_UNDERFLOW_FLAG IEEE_DENORMAL
Note: The following floating-point exceptions are signalling: IEEE_UNDERFLOW_FLAG IEEE_DENORMAL
Note: The following floating-point exceptions are signalling: IEEE_UNDERFLOW_FLAG IEEE_DENORMAL
Note: The following floating-point exceptions are signalling: IEEE_UNDERFLOW_FLAG IEEE_DENORMAL
Note: The following floating-point exceptions are signalling: IEEE_UNDERFLOW_FLAG IEEE_DENORMAL
Note: The following floating-point exceptions are signalling: IEEE_INVALID_FLAG IEEE_UNDERFLOW_FLAG IEEE_DENORMAL
Note: The following floating-point exceptions are signalling: IEEE_INVALID_FLAG IEEE_UNDERFLOW_FLAG IEEE_DENORMAL
Note: The following floating-point exceptions are signalling: IEEE_UNDERFLOW_FLAG IEEE_DENORMAL
Note: The following floating-point exceptions are signalling: IEEE_UNDERFLOW_FLAG IEEE_DENORMAL
Note: The following floating-point exceptions are signalling: IEEE_UNDERFLOW_FLAG IEEE_DENORMAL
Note: The following floating-point exceptions are signalling: IEEE_UNDERFLOW_FLAG IEEE_DENORMAL
Note: The following floating-point exceptions are signalling: IEEE_INVALID_FLAG IEEE_UNDERFLOW_FLAG IEEE_DENORMAL
Note: The following floating-point exceptions are signalling: IEEE_INVALID_FLAG IEEE_UNDERFLOW_FLAG IEEE_DENORMAL
Note: The following floating-point exceptions are signalling: IEEE_DENORMAL
Note: The following floating-point exceptions are signalling: IEEE_DENORMAL
Note: The following floating-point exceptions are signalling: IEEE_INVALID_FLAG IEEE_DENORMAL
Note: The following floating-point exceptions are signalling: IEEE_DENORMAL
Note: The following floating-point exceptions are signalling: IEEE_INVALID_FLAG IEEE_DENORMAL
Note: The following floating-point exceptions are signalling: IEEE_DENORMAL
Note: The following floating-point exceptions are signalling: IEEE_INVALID_FLAG IEEE_DENORMAL
Note: The following floating-point exceptions are signalling: IEEE_DENORMAL
Note: The following floating-point exceptions are signalling: IEEE_DENORMAL
Note: The following floating-point exceptions are signalling: IEEE_DENORMAL
Note: The following floating-point exceptions are signalling: IEEE_UNDERFLOW_FLAG IEEE_DENORMAL
Note: The following floating-point exceptions are signalling: IEEE_UNDERFLOW_FLAG IEEE_DENORMAL
Note: The following floating-point exceptions are signalling: IEEE_UNDERFLOW_FLAG IEEE_DENORMAL
Note: The following floating-point exceptions are signalling: IEEE_INVALID_FLAG IEEE_UNDERFLOW_FLAG IEEE_DENORMAL
Note: The following floating-point exceptions are signalling: IEEE_UNDERFLOW_FLAG IEEE_DENORMAL
Note: The following floating-point exceptions are signalling: IEEE_UNDERFLOW_FLAG IEEE_DENORMAL
Note: The following floating-point exceptions are signalling: IEEE_UNDERFLOW_FLAG IEEE_DENORMAL
Note: The following floating-point exceptions are signalling: IEEE_UNDERFLOW_FLAG IEEE_DENORMAL
Note: The following floating-point exceptions are signalling: IEEE_UNDERFLOW_FLAG IEEE_DENORMAL
Note: The following floating-point exceptions are signalling: IEEE_UNDERFLOW_FLAG IEEE_DENORMAL
Note: The following floating-point exceptions are signalling: IEEE_UNDERFLOW_FLAG IEEE_DENORMAL
Note: The following floating-point exceptions are signalling: IEEE_UNDERFLOW_FLAG IEEE_DENORMAL
Note: The following floating-point exceptions are signalling: IEEE_UNDERFLOW_FLAG IEEE_DENORMAL
Note: The following floating-point exceptions are signalling: IEEE_UNDERFLOW_FLAG IEEE_DENORMAL
Note: The following floating-point exceptions are signalling: IEEE_UNDERFLOW_FLAG IEEE_DENORMAL
Note: The following floating-point exceptions are signalling: IEEE_UNDERFLOW_FLAG IEEE_DENORMAL
Note: The following floating-point exceptions are signalling: IEEE_UNDERFLOW_FLAG IEEE_DENORMAL
Note: The following floating-point exceptions are signalling: IEEE_UNDERFLOW_FLAG IEEE_DENORMAL
Note: The following floating-point exceptions are signalling: IEEE_UNDERFLOW_FLAG IEEE_DENORMAL
Note: The following floating-point exceptions are signalling: IEEE_UNDERFLOW_FLAG IEEE_DENORMAL
Note: The following floating-point exceptions are signalling: IEEE_UNDERFLOW_FLAG IEEE_DENORMAL
Note: The following floating-point exceptions are signalling: IEEE_UNDERFLOW_FLAG IEEE_DENORMAL
Note: The following floating-point exceptions are signalling: IEEE_UNDERFLOW_FLAG IEEE_DENORMAL
Note: The following floating-point exceptions are signalling: IEEE_INVALID_FLAG IEEE_UNDERFLOW_FLAG IEEE_DENORMAL
Note: The following floating-point exceptions are signalling: IEEE_UNDERFLOW_FLAG IEEE_DENORMAL
Note: The following floating-point exceptions are signalling: IEEE_UNDERFLOW_FLAG IEEE_DENORMAL
Note: The following floating-point exceptions are signalling: IEEE_UNDERFLOW_FLAG IEEE_DENORMAL
Note: The following floating-point exceptions are signalling: IEEE_UNDERFLOW_FLAG IEEE_DENORMAL
Note: The following floating-point exceptions are signalling: IEEE_UNDERFLOW_FLAG IEEE_DENORMAL
Note: The following floating-point exceptions are signalling: IEEE_UNDERFLOW_FLAG IEEE_DENORMAL
Note: The following floating-point exceptions are signalling: IEEE_UNDERFLOW_FLAG IEEE_DENORMAL
Note: The following floating-point exceptions are signalling: IEEE_UNDERFLOW_FLAG IEEE_DENORMAL
Note: The following floating-point exceptions are signalling: IEEE_UNDERFLOW_FLAG IEEE_DENORMAL
Note: The following floating-point exceptions are signalling: IEEE_UNDERFLOW_FLAG IEEE_DENORMAL
Note: The following floating-point exceptions are signalling: IEEE_UNDERFLOW_FLAG IEEE_DENORMAL
Note: The following floating-point exceptions are signalling: IEEE_UNDERFLOW_FLAG IEEE_DENORMAL
Note: The following floating-point exceptions are signalling: IEEE_UNDERFLOW_FLAG IEEE_DENORMAL
Note: The following floating-point exceptions are signalling: IEEE_INVALID_FLAG IEEE_UNDERFLOW_FLAG IEEE_DENORMAL
Note: The following floating-point exceptions are signalling: IEEE_UNDERFLOW_FLAG IEEE_DENORMAL
Note: The following floating-point exceptions are signalling: IEEE_UNDERFLOW_FLAG IEEE_DENORMAL
Note: The following floating-point exceptions are signalling: IEEE_UNDERFLOW_FLAG IEEE_DENORMAL
Note: The following floating-point exceptions are signalling: IEEE_UNDERFLOW_FLAG IEEE_DENORMAL
Note: The following floating-point exceptions are signalling: IEEE_INVALID_FLAG IEEE_UNDERFLOW_FLAG IEEE_DENORMAL
Note: The following floating-point exceptions are signalling: IEEE_UNDERFLOW_FLAG IEEE_DENORMAL
Note: The following floating-point exceptions are signalling: IEEE_UNDERFLOW_FLAG IEEE_DENORMAL
Note: The following floating-point exceptions are signalling: IEEE_UNDERFLOW_FLAG IEEE_DENORMAL
Note: The following floating-point exceptions are signalling: IEEE_INVALID_FLAG IEEE_UNDERFLOW_FLAG IEEE_DENORMAL
Note: The following floating-point exceptions are signalling: IEEE_INVALID_FLAG IEEE_UNDERFLOW_FLAG IEEE_DENORMAL
Note: The following floating-point exceptions are signalling: IEEE_INVALID_FLAG IEEE_UNDERFLOW_FLAG IEEE_DENORMAL

JOB STATISTICS
==============
Job ID: 409850
Cluster: snellius
User/Group: srinidhi/srinidhi
State: COMPLETED (exit code 0)
Nodes: 1
Cores per node: 128
CPU Utilized: 4-17:52:26
CPU Efficiency: 97.790f 4-20:26:40 core-walltime
Job Wall-clock time: 00:54:35
Memory Utilized: 86.60 GB (estimated maximum)
Memory Efficiency: 36.950f 234.38 GB (1.83 GB/core)
