Zn6 P4 H56 C20 N8 O16                   
   1.0000000000000000     
    -0.0000000045703510   -4.9926932600274121    0.0000000150362290
   -12.3887456210322338    2.4963461051317419    4.1562725779120386
     0.9633596332778026    0.0000000395599016  -17.4124863119005830
   C    H    N    O    P    Zn
    20    56     8    16     4     6
Direct
  0.9583336073546831  0.3615990286536228  0.3421162231302586
  0.5967345788073324  0.6384009715417599  0.6578837767348968
  0.1554077816259909  0.4678401636312982  0.3937602538235963
  0.6875676180972741  0.5321598365418393  0.6062397460456865
  0.0373874367274410  0.5680433870447197  0.3996300001392459
  0.4693450497624579  0.4319566130684292  0.6003699997720412
  0.2080677039078837  0.6797572482601053  0.4537409680986366
  0.5283104556795680  0.3202427517623531  0.5462590318765529
  0.0502586810304870  0.7705691114264547  0.4620097127546401
  0.2796895696048520  0.2294308885273933  0.5379902872767264
  0.9269955713572813  0.2294157192431099  0.0380774489868686
  0.6975808521007868  0.7705842808055540  0.9619235509771425
  0.7693590939382267  0.3202408218466116  0.0463270496526560
  0.4491182720552809  0.6797591781332074  0.9536729503661664
  0.9401589733830402  0.4319607540465297  0.1003760524637032
  0.5081982192535540  0.5680392458434326  0.8996239476166740
  0.8219417941840476  0.5320843007671752  0.1061827266685848
  0.2898574933038680  0.4679156990628365  0.8938172734575014
  0.0188546908846897  0.6383774127245974  0.1577824236713065
  0.3804772780437916  0.3616225870799494  0.8422175764658982
  0.0637846988625053  0.2606285576156455  0.3986943967874137
  0.8031561414449276  0.7393714426843918  0.6013056030080951
  0.2077364721951959  0.2429587315584414  0.3094872049861963
  0.9647777407415338  0.7570412686015626  0.6905127949135819
  0.7533086837415275  0.3639433100357519  0.3652506566833480
  0.3893663738542114  0.6360566902150401  0.6347493431357606
  0.9353214224531747  0.3557784472381210  0.2777895169355163
  0.5795429752461434  0.6442215528783583  0.7222104829977992
  0.3553479754907513  0.4713613635708446  0.3669492002528587
  0.8839866119939863  0.5286386366059455  0.6330507996196507
  0.1916579459460518  0.4680886491858092  0.4562854435016169
  0.7235692968764600  0.5319113509784816  0.5437145563651310
  0.0029502393218038  0.5677810370186842  0.3370135423326380
  0.4351692023762684  0.4322189631246849  0.6629864575693455
  0.8320978282707499  0.5587649632674279  0.4230465957759946
  0.2733328650970202  0.4412350368263099  0.5769534041405686
  0.4023592394420712  0.6969602392061660  0.4265694213767821
  0.7053990002666153  0.3030397608812498  0.5734305785691217
  0.2603250317573203  0.6797991388010101  0.5153000894375186
  0.5805248929403641  0.3202008611238475  0.4846999105881902
  0.9791582332253419  0.7636664353382145  0.4002391247356893
  0.2154917979066462  0.2363335646921680  0.5997608752645315
  0.8620015055672576  0.7587268328089840  0.4934808986261757
  0.1032746727447082  0.2412731670830557  0.5065191014265764
  0.3769891992029162  0.8953869845422476  0.4729787377613501
  0.4816022146543930  0.1046130153918689  0.5270212622999046
  0.2743939374145751  0.9001545113382495  0.5639979068275143
  0.3742394260316567  0.0998454884873148  0.4360020932691934
  0.7029635221343571  0.0999053228818733  0.9360289194895913
  0.6030581992948283  0.9000946773159353  0.0639710803843878
  0.6001842704210096  0.1045949216966939  0.0270467110759783
  0.4955893487103575  0.8954050783492846  0.9729532888839026
  0.1153999471714542  0.2412459036840570  0.0066733427402927
  0.8741550434935436  0.7587540964419857 -0.0066733428130722
 -0.0021293027050507  0.2362562700138911  0.0998549178882306
  0.7616134272363393  0.7637437299409958  0.9001450821224333
  0.7170310420457238  0.3201169792896583  0.9847503907573169
  0.3969150627675825  0.6798830207770675  0.0152496092249101
  0.5750938026782118  0.3031128407134898  0.0735199080112453
  0.2719809619389898  0.6968871592103273  0.9264800920260005
 -0.0252290418052739  0.4322579958448061  0.1629999693234310
  0.5425129622594070  0.5677420039950665  0.8370000307775586
  0.1453326454557600  0.4412051185068309  0.0768831456351149
  0.7041275268547955  0.5587948814212382  0.9231168544287972
  0.6219567696638540  0.5284940301793468  0.1329905226281146
  0.0934627393777995  0.4715059696493843  0.8670094774947029
  0.7855426313953731  0.5317306631484771  0.0436153766589173
  0.2538129681027154  0.4682693366860258  0.9563846234702226
  0.0418838471542072  0.6442586085641365  0.2221183056317033
  0.3976252385397174  0.3557413913146561  0.7778816944491751
  0.2238816331073206  0.6360722670748146  0.1346448023324672
  0.5878093658739381  0.3639277326749883  0.8653551978466939
  0.7691167726111737  0.7569260571247584  0.1903198564351286
  0.0121907153934534  0.2430739427038131  0.8096801436823075
  0.9132728848349444  0.7392683463297338  0.1011547596969491
  0.1740045383477213  0.2607316533987379  0.8988452404844455
  0.0325152276225951  0.2589119354338976  0.3402768718310439
  0.7736032923179391  0.7410880647830120  0.6597231280268020
  0.2033866258242277  0.8835996822870499  0.5042420430381340
  0.3197879435067279  0.1164003176013487  0.4957579570431435
  0.7738545953681867  0.1163932118519164  0.9957897213974634
  0.6574623835322265  0.8836067882577008  0.0042102785218679
  0.9444119563884893  0.7409710252895957  0.1595711794480828
  0.2034409309693873  0.2590289744966960  0.8404288206959987
  0.6304200821536491  0.0414535972436038  0.3448845108450993
  0.5889664848467643  0.9585464025965554  0.6551154892535701
  0.5472435694966438  0.8342571504517922  0.2633032396708880
  0.7129864189983509  0.1657428494092311  0.7366967604192610
  0.6784054797339957  0.9126989815383239  0.4184900193886955
  0.7657064981042553  0.0873010183478444  0.5815099806801634
  0.0304118978937147  0.9430478699002556  0.3235455096336826
  0.0873640278634039  0.0569521299650096  0.6764544904500620
  0.2988129292062391  0.0873000026857111  0.0814882469703835
  0.2115129266430230  0.9126999974178454  0.9185117529678190
  0.4296571624366103  0.1656829415968111  0.2366661459107321
  0.2639742208766351  0.8343170585337123  0.7633338540106132
  0.3465990089673667  0.9585408916819507  0.1550830349279063
  0.3880571173288480  0.0414591084733426  0.8449169649846603
  0.9465770273540526  0.0569231544311682  0.1763572308778353
  0.8896548730570263  0.9430768456988260  0.8236427690475627
  0.7220592814626923  0.9321960102428697  0.3365264505900484
  0.7898632711375190  0.0678039896184747  0.6634735494974050
  0.2549499135909170  0.0677764467603386  0.1634286642238454
  0.1871734669142130  0.9322235533732072  0.8365713356974365
  0.9804245407823182  0.0000000000462835  0.9999999999690981
  0.9966870599426157  0.9999999999469146  0.5000000000388480
  0.7483604758073468  0.1188365060041453  0.2715373229679298
  0.6295239698781341  0.8811634940923818  0.7284626769717174
  0.2285009163725226  0.8810823612008905  0.2283621270941290
  0.3474185550983523  0.1189176386983392  0.7716378729742578

  0.00000000E+00  0.00000000E+00  0.00000000E+00
  0.00000000E+00  0.00000000E+00  0.00000000E+00
  0.00000000E+00  0.00000000E+00  0.00000000E+00
  0.00000000E+00  0.00000000E+00  0.00000000E+00
  0.00000000E+00  0.00000000E+00  0.00000000E+00
  0.00000000E+00  0.00000000E+00  0.00000000E+00
  0.00000000E+00  0.00000000E+00  0.00000000E+00
  0.00000000E+00  0.00000000E+00  0.00000000E+00
  0.00000000E+00  0.00000000E+00  0.00000000E+00
  0.00000000E+00  0.00000000E+00  0.00000000E+00
  0.00000000E+00  0.00000000E+00  0.00000000E+00
  0.00000000E+00  0.00000000E+00  0.00000000E+00
  0.00000000E+00  0.00000000E+00  0.00000000E+00
  0.00000000E+00  0.00000000E+00  0.00000000E+00
  0.00000000E+00  0.00000000E+00  0.00000000E+00
  0.00000000E+00  0.00000000E+00  0.00000000E+00
  0.00000000E+00  0.00000000E+00  0.00000000E+00
  0.00000000E+00  0.00000000E+00  0.00000000E+00
  0.00000000E+00  0.00000000E+00  0.00000000E+00
  0.00000000E+00  0.00000000E+00  0.00000000E+00
  0.00000000E+00  0.00000000E+00  0.00000000E+00
  0.00000000E+00  0.00000000E+00  0.00000000E+00
  0.00000000E+00  0.00000000E+00  0.00000000E+00
  0.00000000E+00  0.00000000E+00  0.00000000E+00
  0.00000000E+00  0.00000000E+00  0.00000000E+00
  0.00000000E+00  0.00000000E+00  0.00000000E+00
  0.00000000E+00  0.00000000E+00  0.00000000E+00
  0.00000000E+00  0.00000000E+00  0.00000000E+00
  0.00000000E+00  0.00000000E+00  0.00000000E+00
  0.00000000E+00  0.00000000E+00  0.00000000E+00
  0.00000000E+00  0.00000000E+00  0.00000000E+00
  0.00000000E+00  0.00000000E+00  0.00000000E+00
  0.00000000E+00  0.00000000E+00  0.00000000E+00
  0.00000000E+00  0.00000000E+00  0.00000000E+00
  0.00000000E+00  0.00000000E+00  0.00000000E+00
  0.00000000E+00  0.00000000E+00  0.00000000E+00
  0.00000000E+00  0.00000000E+00  0.00000000E+00
  0.00000000E+00  0.00000000E+00  0.00000000E+00
  0.00000000E+00  0.00000000E+00  0.00000000E+00
  0.00000000E+00  0.00000000E+00  0.00000000E+00
  0.00000000E+00  0.00000000E+00  0.00000000E+00
  0.00000000E+00  0.00000000E+00  0.00000000E+00
  0.00000000E+00  0.00000000E+00  0.00000000E+00
  0.00000000E+00  0.00000000E+00  0.00000000E+00
  0.00000000E+00  0.00000000E+00  0.00000000E+00
  0.00000000E+00  0.00000000E+00  0.00000000E+00
  0.00000000E+00  0.00000000E+00  0.00000000E+00
  0.00000000E+00  0.00000000E+00  0.00000000E+00
  0.00000000E+00  0.00000000E+00  0.00000000E+00
  0.00000000E+00  0.00000000E+00  0.00000000E+00
  0.00000000E+00  0.00000000E+00  0.00000000E+00
  0.00000000E+00  0.00000000E+00  0.00000000E+00
  0.00000000E+00  0.00000000E+00  0.00000000E+00
  0.00000000E+00  0.00000000E+00  0.00000000E+00
  0.00000000E+00  0.00000000E+00  0.00000000E+00
  0.00000000E+00  0.00000000E+00  0.00000000E+00
  0.00000000E+00  0.00000000E+00  0.00000000E+00
  0.00000000E+00  0.00000000E+00  0.00000000E+00
  0.00000000E+00  0.00000000E+00  0.00000000E+00
  0.00000000E+00  0.00000000E+00  0.00000000E+00
  0.00000000E+00  0.00000000E+00  0.00000000E+00
  0.00000000E+00  0.00000000E+00  0.00000000E+00
  0.00000000E+00  0.00000000E+00  0.00000000E+00
  0.00000000E+00  0.00000000E+00  0.00000000E+00
  0.00000000E+00  0.00000000E+00  0.00000000E+00
  0.00000000E+00  0.00000000E+00  0.00000000E+00
  0.00000000E+00  0.00000000E+00  0.00000000E+00
  0.00000000E+00  0.00000000E+00  0.00000000E+00
  0.00000000E+00  0.00000000E+00  0.00000000E+00
  0.00000000E+00  0.00000000E+00  0.00000000E+00
  0.00000000E+00  0.00000000E+00  0.00000000E+00
  0.00000000E+00  0.00000000E+00  0.00000000E+00
  0.00000000E+00  0.00000000E+00  0.00000000E+00
  0.00000000E+00  0.00000000E+00  0.00000000E+00
  0.00000000E+00  0.00000000E+00  0.00000000E+00
  0.00000000E+00  0.00000000E+00  0.00000000E+00
  0.00000000E+00  0.00000000E+00  0.00000000E+00
  0.00000000E+00  0.00000000E+00  0.00000000E+00
  0.00000000E+00  0.00000000E+00  0.00000000E+00
  0.00000000E+00  0.00000000E+00  0.00000000E+00
  0.00000000E+00  0.00000000E+00  0.00000000E+00
  0.00000000E+00  0.00000000E+00  0.00000000E+00
  0.00000000E+00  0.00000000E+00  0.00000000E+00
  0.00000000E+00  0.00000000E+00  0.00000000E+00
  0.00000000E+00  0.00000000E+00  0.00000000E+00
  0.00000000E+00  0.00000000E+00  0.00000000E+00
  0.00000000E+00  0.00000000E+00  0.00000000E+00
  0.00000000E+00  0.00000000E+00  0.00000000E+00
  0.00000000E+00  0.00000000E+00  0.00000000E+00
  0.00000000E+00  0.00000000E+00  0.00000000E+00
  0.00000000E+00  0.00000000E+00  0.00000000E+00
  0.00000000E+00  0.00000000E+00  0.00000000E+00
  0.00000000E+00  0.00000000E+00  0.00000000E+00
  0.00000000E+00  0.00000000E+00  0.00000000E+00
  0.00000000E+00  0.00000000E+00  0.00000000E+00
  0.00000000E+00  0.00000000E+00  0.00000000E+00
  0.00000000E+00  0.00000000E+00  0.00000000E+00
  0.00000000E+00  0.00000000E+00  0.00000000E+00
  0.00000000E+00  0.00000000E+00  0.00000000E+00
  0.00000000E+00  0.00000000E+00  0.00000000E+00
  0.00000000E+00  0.00000000E+00  0.00000000E+00
  0.00000000E+00  0.00000000E+00  0.00000000E+00
  0.00000000E+00  0.00000000E+00  0.00000000E+00
  0.00000000E+00  0.00000000E+00  0.00000000E+00
  0.00000000E+00  0.00000000E+00  0.00000000E+00
  0.00000000E+00  0.00000000E+00  0.00000000E+00
  0.00000000E+00  0.00000000E+00  0.00000000E+00
  0.00000000E+00  0.00000000E+00  0.00000000E+00
  0.00000000E+00  0.00000000E+00  0.00000000E+00
  0.00000000E+00  0.00000000E+00  0.00000000E+00
