       N       E                     dE             d eps       ncg     rms          rms(c)
DAV:   1     0.319730441931E+04    0.31973E+04   -0.16365E+05  1428   0.149E+03
DAV:   2    -0.146827556206E+03   -0.33441E+04   -0.31165E+04  1652   0.374E+02
DAV:   3    -0.656885107131E+03   -0.51006E+03   -0.50388E+03  1590   0.166E+02
DAV:   4    -0.681640862647E+03   -0.24756E+02   -0.24597E+02  1736   0.417E+01
DAV:   5    -0.682415083835E+03   -0.77422E+00   -0.77298E+00  1952   0.715E+00    0.594E+01
RMM:   6    -0.622609591461E+03    0.59805E+02   -0.17636E+02  1428   0.223E+01    0.295E+01
RMM:   7    -0.616866617132E+03    0.57430E+01   -0.22692E+01  1438   0.857E+00    0.142E+01
RMM:   8    -0.615942831877E+03    0.92379E+00   -0.34729E+00  1462   0.440E+00    0.227E+00
RMM:   9    -0.615919482704E+03    0.23349E-01   -0.34768E-01  1453   0.138E+00    0.984E-01
RMM:  10    -0.615925084943E+03   -0.56022E-02   -0.47418E-02  1471   0.403E-01    0.605E-01
RMM:  11    -0.615924974618E+03    0.11033E-03   -0.41427E-02  1428   0.412E-01    0.230E-01
RMM:  12    -0.615921844751E+03    0.31299E-02   -0.12277E-02  1428   0.217E-01    0.107E-01
RMM:  13    -0.615920398742E+03    0.14460E-02   -0.53190E-03  1428   0.117E-01    0.543E-02
RMM:  14    -0.615920129500E+03    0.26924E-03   -0.12674E-03  1462   0.539E-02    0.478E-02
RMM:  15    -0.615920137130E+03   -0.76303E-05   -0.31734E-04  1451   0.352E-02    0.154E-02
RMM:  16    -0.615920138858E+03   -0.17279E-05   -0.48124E-05  1465   0.124E-02    0.940E-03
RMM:  17    -0.615920139683E+03   -0.82482E-06   -0.92318E-06  1439   0.606E-03    0.385E-03
RMM:  18    -0.615920140376E+03   -0.69348E-06   -0.34294E-06  1429   0.402E-03    0.181E-03
RMM:  19    -0.615920140248E+03    0.12812E-06   -0.16335E-07   883   0.106E-03    0.114E-03
RMM:  20    -0.615920140114E+03    0.13379E-06   -0.15363E-07   911   0.749E-04    0.399E-04
RMM:  21    -0.615920140068E+03    0.46806E-07   -0.99434E-08   882   0.683E-04
   1 F= -.62414629E+03 E0= -.62414629E+03  d E =-.624146E+03
       N       E                     dE             d eps       ncg     rms          rms(c)
DAV:   1    -0.615923451534E+03   -0.33114E-02   -0.36107E-01  1584   0.151E+00    0.264E-01
RMM:   2    -0.615924001238E+03   -0.54970E-03   -0.12429E-02  1428   0.265E-01    0.116E-01
RMM:   3    -0.615923823539E+03    0.17770E-03   -0.71422E-04  1437   0.723E-02    0.599E-02
RMM:   4    -0.615923786630E+03    0.36909E-04   -0.24245E-04  1482   0.314E-02    0.192E-02
RMM:   5    -0.615923782342E+03    0.42878E-05   -0.20176E-05  1432   0.971E-03    0.774E-03
RMM:   6    -0.615923781761E+03    0.58138E-06   -0.40530E-06  1434   0.366E-03    0.323E-03
RMM:   7    -0.615923781613E+03    0.14823E-06   -0.60917E-07  1251   0.179E-03    0.151E-03
RMM:   8    -0.615923781582E+03    0.30250E-07   -0.17347E-07   901   0.854E-04
   2 F= -.62414626E+03 E0= -.62414626E+03  d E =0.334565E-04
       N       E                     dE             d eps       ncg     rms          rms(c)
DAV:   1    -0.615922658884E+03    0.11227E-02   -0.92302E-02  1560   0.760E-01    0.135E-01
RMM:   2    -0.615922795363E+03   -0.13648E-03   -0.31217E-03  1428   0.134E-01    0.584E-02
RMM:   3    -0.615922752493E+03    0.42870E-04   -0.17761E-04  1436   0.360E-02    0.301E-02
RMM:   4    -0.615922745239E+03    0.72540E-05   -0.59894E-05  1483   0.156E-02    0.968E-03
RMM:   5    -0.615922744437E+03    0.80199E-06   -0.49492E-06  1431   0.482E-03    0.394E-03
RMM:   6    -0.615922744375E+03    0.62151E-07   -0.97933E-07  1369   0.182E-03
   3 F= -.62414708E+03 E0= -.62414708E+03  d E =-.786362E-03
       N       E                     dE             d eps       ncg     rms          rms(c)
DAV:   1    -0.615926162437E+03   -0.34180E-02   -0.21216E-01  1512   0.115E+00    0.221E-01
RMM:   2    -0.615926403453E+03   -0.24102E-03   -0.73782E-03  1428   0.206E-01    0.821E-02
RMM:   3    -0.615926318412E+03    0.85042E-04   -0.37807E-04  1434   0.521E-02    0.461E-02
RMM:   4    -0.615926293427E+03    0.24984E-04   -0.13006E-04  1473   0.233E-02    0.126E-02
RMM:   5    -0.615926291458E+03    0.19692E-05   -0.62415E-06  1447   0.587E-03    0.637E-03
RMM:   6    -0.615926290765E+03    0.69311E-06   -0.32379E-06  1432   0.346E-03    0.209E-03
RMM:   7    -0.615926290610E+03    0.15531E-06   -0.28844E-07  1009   0.130E-03    0.931E-04
RMM:   8    -0.615926290576E+03    0.33622E-07   -0.95862E-08   882   0.661E-04
   4 F= -.62414763E+03 E0= -.62414763E+03  d E =-.557933E-03
       N       E                     dE             d eps       ncg     rms          rms(c)
DAV:   1    -0.615925708847E+03    0.58176E-03   -0.89536E-03  1528   0.236E-01    0.455E-02
RMM:   2    -0.615925719076E+03   -0.10229E-04   -0.31251E-04  1428   0.424E-02    0.168E-02
RMM:   3    -0.615925715953E+03    0.31226E-05   -0.15998E-05  1434   0.107E-02    0.948E-03
RMM:   4    -0.615925715423E+03    0.53039E-06   -0.54807E-06  1473   0.479E-03    0.259E-03
RMM:   5    -0.615925715428E+03   -0.51077E-08   -0.21908E-07   921   0.120E-03
   5 F= -.62414767E+03 E0= -.62414767E+03  d E =-.596478E-03
       N       E                     dE             d eps       ncg     rms          rms(c)
DAV:   1    -0.615927975821E+03   -0.22604E-02   -0.10746E-01  1496   0.794E-01    0.121E-01
RMM:   2    -0.615928052556E+03   -0.76735E-04   -0.30108E-03  1428   0.127E-01    0.541E-02
RMM:   3    -0.615928013757E+03    0.38799E-04   -0.16877E-04  1434   0.361E-02    0.299E-02
RMM:   4    -0.615928005509E+03    0.82478E-05   -0.56896E-05  1488   0.154E-02    0.953E-03
RMM:   5    -0.615928004433E+03    0.10756E-05   -0.34010E-06  1433   0.423E-03    0.394E-03
RMM:   6    -0.615928004077E+03    0.35673E-06   -0.94263E-07  1360   0.181E-03    0.128E-03
RMM:   7    -0.615928004008E+03    0.68700E-07   -0.10459E-07   882   0.906E-04
   6 F= -.62414827E+03 E0= -.62414827E+03  d E =-.595130E-03
       N       E                     dE             d eps       ncg     rms          rms(c)
DAV:   1    -0.615928645584E+03   -0.64151E-03   -0.13250E-02  1544   0.278E-01    0.423E-02
RMM:   2    -0.615928655459E+03   -0.98753E-05   -0.37086E-04  1428   0.444E-02    0.190E-02
RMM:   3    -0.615928650569E+03    0.48901E-05   -0.20866E-05  1434   0.127E-02    0.105E-02
RMM:   4    -0.615928649289E+03    0.12801E-05   -0.70836E-06  1488   0.543E-03    0.338E-03
RMM:   5    -0.615928649041E+03    0.24727E-06   -0.38837E-07  1069   0.149E-03    0.138E-03
RMM:   6    -0.615928648934E+03    0.10700E-06   -0.12718E-07   882   0.794E-04    0.518E-04
RMM:   7    -0.615928648906E+03    0.28500E-07   -0.40884E-08   868   0.655E-04
   7 F= -.62414832E+03 E0= -.62414832E+03  d E =-.645835E-03
       N       E                     dE             d eps       ncg     rms          rms(c)
DAV:   1    -0.615930705497E+03   -0.20566E-02   -0.69584E-02  1464   0.642E-01    0.996E-02
RMM:   2    -0.615930736420E+03   -0.30923E-04   -0.18564E-03  1428   0.102E-01    0.431E-02
RMM:   3    -0.615930712541E+03    0.23879E-04   -0.11330E-04  1428   0.282E-02    0.224E-02
RMM:   4    -0.615930707192E+03    0.53490E-05   -0.29231E-05  1488   0.115E-02    0.657E-03
RMM:   5    -0.615930706601E+03    0.59134E-06   -0.17709E-06  1430   0.316E-03    0.284E-03
RMM:   6    -0.615930706405E+03    0.19612E-06   -0.60088E-07  1334   0.149E-03    0.923E-04
RMM:   7    -0.615930706368E+03    0.36351E-07   -0.56706E-08   882   0.684E-04
   8 F= -.62414889E+03 E0= -.62414889E+03  d E =-.565989E-03
       N       E                     dE             d eps       ncg     rms          rms(c)
DAV:   1    -0.615933045511E+03   -0.23391E-02   -0.12317E-01  1464   0.854E-01    0.133E-01
RMM:   2    -0.615933100206E+03   -0.54695E-04   -0.32844E-03  1428   0.136E-01    0.574E-02
RMM:   3    -0.615933058022E+03    0.42183E-04   -0.20033E-04  1428   0.375E-02    0.297E-02
RMM:   4    -0.615933048873E+03    0.91494E-05   -0.51770E-05  1488   0.153E-02    0.873E-03
RMM:   5    -0.615933047941E+03    0.93135E-06   -0.31429E-06  1434   0.420E-03    0.378E-03
RMM:   6    -0.615933047656E+03    0.28496E-06   -0.10699E-06  1361   0.198E-03    0.123E-03
RMM:   7    -0.615933047603E+03    0.53376E-07   -0.96584E-08   882   0.882E-04
   9 F= -.62414924E+03 E0= -.62414924E+03  d E =-.924132E-03
       N       E                     dE             d eps       ncg     rms          rms(c)
DAV:   1    -0.615934869172E+03   -0.18215E-02   -0.61324E-02  1464   0.598E-01    0.830E-02
RMM:   2    -0.615934902797E+03   -0.33625E-04   -0.14710E-03  1428   0.910E-02    0.380E-02
RMM:   3    -0.615934885510E+03    0.17287E-04   -0.83691E-05  1428   0.247E-02    0.195E-02
RMM:   4    -0.615934881535E+03    0.39746E-05   -0.21385E-05  1488   0.102E-02    0.565E-03
RMM:   5    -0.615934881197E+03    0.33783E-06   -0.15726E-06  1435   0.279E-03    0.229E-03
RMM:   6    -0.615934881107E+03    0.90753E-07   -0.32087E-07  1011   0.113E-03
  10 F= -.62414981E+03 E0= -.62414981E+03  d E =-.565006E-03
       N       E                     dE             d eps       ncg     rms          rms(c)
DAV:   1    -0.615937967047E+03   -0.30859E-02   -0.23409E-01  1452   0.117E+00    0.162E-01
RMM:   2    -0.615938094656E+03   -0.12761E-03   -0.56257E-03  1428   0.178E-01    0.742E-02
RMM:   3    -0.615938029017E+03    0.65640E-04   -0.32012E-04  1428   0.482E-02    0.381E-02
RMM:   4    -0.615938014629E+03    0.14388E-04   -0.81457E-05  1488   0.198E-02    0.110E-02
RMM:   5    -0.615938013536E+03    0.10926E-05   -0.60174E-06  1437   0.546E-03    0.444E-03
RMM:   6    -0.615938013306E+03    0.23027E-06   -0.13450E-06  1379   0.219E-03    0.173E-03
RMM:   7    -0.615938013232E+03    0.73662E-07   -0.19450E-07   889   0.118E-03
  11 F= -.62415046E+03 E0= -.62415046E+03  d E =-.122098E-02
       N       E                     dE             d eps       ncg     rms          rms(c)
DAV:   1    -0.615942303635E+03   -0.42903E-02   -0.93631E-01  1428   0.234E+00    0.324E-01
RMM:   2    -0.615942817822E+03   -0.51419E-03   -0.22417E-02  1428   0.356E-01    0.149E-01
RMM:   3    -0.615942554877E+03    0.26295E-03   -0.12762E-03  1428   0.961E-02    0.761E-02
RMM:   4    -0.615942499069E+03    0.55808E-04   -0.32470E-04  1488   0.394E-02    0.220E-02
RMM:   5    -0.615942495107E+03    0.39621E-05   -0.24046E-05  1436   0.109E-02    0.879E-03
RMM:   6    -0.615942494412E+03    0.69558E-06   -0.52729E-06  1439   0.432E-03    0.350E-03
RMM:   7    -0.615942494216E+03    0.19516E-06   -0.89243E-07  1326   0.231E-03    0.132E-03
RMM:   8    -0.615942494214E+03    0.20736E-08   -0.16769E-07   887   0.872E-04
  12 F= -.62415000E+03 E0= -.62415000E+03  d E =-.756772E-03
       N       E                     dE             d eps       ncg     rms          rms(c)
DAV:   1    -0.615939491252E+03    0.30030E-02   -0.46498E-01  1440   0.164E+00    0.229E-01
RMM:   2    -0.615939740426E+03   -0.24917E-03   -0.11201E-02  1428   0.251E-01    0.104E-01
RMM:   3    -0.615939612556E+03    0.12787E-03   -0.63465E-04  1428   0.681E-02    0.537E-02
RMM:   4    -0.615939586627E+03    0.25929E-04   -0.16248E-04  1488   0.281E-02    0.156E-02
RMM:   5    -0.615939585183E+03    0.14442E-05   -0.11860E-05  1437   0.767E-03    0.639E-03
RMM:   6    -0.615939585071E+03    0.11222E-06   -0.27701E-06  1431   0.315E-03    0.246E-03
RMM:   7    -0.615939585075E+03   -0.46239E-08   -0.42693E-07  1127   0.166E-03
  13 F= -.62415058E+03 E0= -.62415058E+03  d E =-.133236E-02
       N       E                     dE             d eps       ncg     rms          rms(c)
DAV:   1    -0.615941152314E+03   -0.15672E-02   -0.54311E-02  1464   0.564E-01    0.799E-02
RMM:   2    -0.615941180360E+03   -0.28046E-04   -0.13142E-03  1428   0.863E-02    0.366E-02
RMM:   3    -0.615941164794E+03    0.15566E-04   -0.77079E-05  1428   0.233E-02    0.186E-02
RMM:   4    -0.615941161071E+03    0.37229E-05   -0.17885E-05  1488   0.921E-03    0.526E-03
RMM:   5    -0.615941160705E+03    0.36678E-06   -0.13106E-06  1424   0.259E-03    0.194E-03
RMM:   6    -0.615941160601E+03    0.10403E-06   -0.21130E-07   887   0.975E-04    0.781E-04
RMM:   7    -0.615941160560E+03    0.40356E-07   -0.70910E-08   882   0.793E-04
  14 F= -.62415097E+03 E0= -.62415097E+03  d E =-.390469E-03
       N       E                     dE             d eps       ncg     rms          rms(c)
DAV:   1    -0.615943969965E+03   -0.28094E-02   -0.21676E-01  1452   0.112E+00    0.159E-01
RMM:   2    -0.615944080926E+03   -0.11096E-03   -0.52227E-03  1428   0.172E-01    0.731E-02
RMM:   3    -0.615944018871E+03    0.62055E-04   -0.30705E-04  1428   0.465E-02    0.372E-02
RMM:   4    -0.615944004957E+03    0.13914E-04   -0.71802E-05  1488   0.185E-02    0.105E-02
RMM:   5    -0.615944003812E+03    0.11449E-05   -0.52892E-06  1434   0.519E-03    0.393E-03
RMM:   6    -0.615944003545E+03    0.26633E-06   -0.10239E-06  1375   0.194E-03    0.153E-03
RMM:   7    -0.615944003453E+03    0.92743E-07   -0.15526E-07   883   0.102E-03
  15 F= -.62415144E+03 E0= -.62415144E+03  d E =-.868123E-03
       N       E                     dE             d eps       ncg     rms          rms(c)
DAV:   1    -0.615948336597E+03   -0.43331E-02   -0.86705E-01  1428   0.225E+00    0.318E-01
RMM:   2    -0.615948782824E+03   -0.44623E-03   -0.20862E-02  1428   0.344E-01    0.146E-01
RMM:   3    -0.615948534853E+03    0.24797E-03   -0.12256E-03  1428   0.928E-02    0.744E-02
RMM:   4    -0.615948481074E+03    0.53779E-04   -0.28620E-04  1488   0.368E-02    0.211E-02
RMM:   5    -0.615948477196E+03    0.38781E-05   -0.21146E-05  1434   0.104E-02    0.781E-03
RMM:   6    -0.615948476459E+03    0.73710E-06   -0.40533E-06  1445   0.384E-03    0.308E-03
RMM:   7    -0.615948476212E+03    0.24706E-06   -0.71279E-07  1312   0.198E-03    0.106E-03
RMM:   8    -0.615948476176E+03    0.35987E-07   -0.12180E-07   883   0.698E-04
  16 F= -.62415119E+03 E0= -.62415119E+03  d E =-.618126E-03
       N       E                     dE             d eps       ncg     rms          rms(c)
DAV:   1    -0.615945603014E+03    0.28732E-02   -0.38734E-01  1428   0.150E+00    0.213E-01
RMM:   2    -0.615945796369E+03   -0.19336E-03   -0.93703E-03  1428   0.229E-01    0.975E-02
RMM:   3    -0.615945687683E+03    0.10869E-03   -0.54830E-04  1428   0.624E-02    0.497E-02
RMM:   4    -0.615945665737E+03    0.21946E-04   -0.12878E-04  1488   0.248E-02    0.142E-02
RMM:   5    -0.615945664840E+03    0.89638E-06   -0.93748E-06  1435   0.691E-03    0.539E-03
RMM:   6    -0.615945664871E+03   -0.30686E-07   -0.18912E-06  1419   0.265E-03    0.206E-03
RMM:   7    -0.615945664894E+03   -0.23487E-07   -0.28273E-07   956   0.137E-03
  17 F= -.62415154E+03 E0= -.62415154E+03  d E =-.962948E-03
       N       E                     dE             d eps       ncg     rms          rms(c)
DAV:   1    -0.615947299679E+03   -0.16348E-02   -0.11855E-01  1452   0.815E-01    0.104E-01
RMM:   2    -0.615947433857E+03   -0.13418E-03   -0.27906E-03  1428   0.120E-01    0.503E-02
RMM:   3    -0.615947400527E+03    0.33330E-04   -0.13881E-04  1428   0.333E-02    0.271E-02
RMM:   4    -0.615947392640E+03    0.78867E-05   -0.48584E-05  1488   0.146E-02    0.747E-03
RMM:   5    -0.615947391982E+03    0.65877E-06   -0.26210E-06  1438   0.371E-03    0.331E-03
RMM:   6    -0.615947391682E+03    0.29988E-06   -0.82969E-07  1355   0.175E-03    0.115E-03
RMM:   7    -0.615947391595E+03    0.86504E-07   -0.94146E-08   882   0.840E-04
  18 F= -.62415215E+03 E0= -.62415215E+03  d E =-.610057E-03
       N       E                     dE             d eps       ncg     rms          rms(c)
DAV:   1    -0.615949677472E+03   -0.22858E-02   -0.36862E-01  1428   0.144E+00    0.184E-01
RMM:   2    -0.615950093170E+03   -0.41570E-03   -0.86579E-03  1428   0.212E-01    0.886E-02
RMM:   3    -0.615949988971E+03    0.10420E-03   -0.43110E-04  1428   0.586E-02    0.478E-02
RMM:   4    -0.615949965281E+03    0.23690E-04   -0.15163E-04  1487   0.257E-02    0.132E-02
RMM:   5    -0.615949963552E+03    0.17286E-05   -0.82389E-06  1442   0.658E-03    0.583E-03
RMM:   6    -0.615949962859E+03    0.69271E-06   -0.26169E-06  1424   0.306E-03    0.204E-03
RMM:   7    -0.615949962669E+03    0.18987E-06   -0.31722E-07  1025   0.146E-03    0.799E-04
RMM:   8    -0.615949962649E+03    0.20649E-07   -0.93786E-08   882   0.745E-04
  19 F= -.62415275E+03 E0= -.62415275E+03  d E =-.121449E-02
       N       E                     dE             d eps       ncg     rms          rms(c)
DAV:   1    -0.615950917096E+03   -0.95443E-03   -0.85549E-02  1464   0.692E-01    0.885E-02
RMM:   2    -0.615951014320E+03   -0.97224E-04   -0.20130E-03  1428   0.102E-01    0.427E-02
RMM:   3    -0.615950990087E+03    0.24233E-04   -0.10016E-04  1428   0.283E-02    0.231E-02
RMM:   4    -0.615950984257E+03    0.58301E-05   -0.35421E-05  1488   0.124E-02    0.637E-03
RMM:   5    -0.615950983727E+03    0.53040E-06   -0.19186E-06  1434   0.317E-03    0.283E-03
RMM:   6    -0.615950983473E+03    0.25403E-06   -0.60724E-07  1317   0.150E-03    0.985E-04
RMM:   7    -0.615950983395E+03    0.77540E-07   -0.74172E-08   882   0.741E-04
  20 F= -.62415283E+03 E0= -.62415283E+03  d E =-.128877E-02
       N       E                     dE             d eps       ncg     rms          rms(c)
DAV:   1    -0.615952751910E+03   -0.17684E-02   -0.25500E-01  1440   0.119E+00    0.161E-01
RMM:   2    -0.615953102693E+03   -0.35078E-03   -0.59655E-03  1428   0.176E-01    0.739E-02
RMM:   3    -0.615953035611E+03    0.67083E-04   -0.27570E-04  1432   0.466E-02    0.408E-02
RMM:   4    -0.615953018390E+03    0.17220E-04   -0.10206E-04  1484   0.212E-02    0.933E-03
RMM:   5    -0.615953017471E+03    0.91975E-06   -0.50303E-06  1437   0.511E-03    0.415E-03
RMM:   6    -0.615953017327E+03    0.14350E-06   -0.13215E-06  1407   0.228E-03    0.164E-03
RMM:   7    -0.615953017279E+03    0.48341E-07   -0.19358E-07   910   0.108E-03
  21 F= -.62415358E+03 E0= -.62415358E+03  d E =-.748468E-03
       N       E                     dE             d eps       ncg     rms          rms(c)
DAV:   1    -0.615954223717E+03   -0.12064E-02   -0.21218E-01  1428   0.108E+00    0.147E-01
RMM:   2    -0.615954516032E+03   -0.29231E-03   -0.49669E-03  1428   0.161E-01    0.674E-02
RMM:   3    -0.615954460110E+03    0.55921E-04   -0.22947E-04  1431   0.425E-02    0.372E-02
RMM:   4    -0.615954445698E+03    0.14412E-04   -0.85068E-05  1485   0.193E-02    0.852E-03
RMM:   5    -0.615954444919E+03    0.77883E-06   -0.41969E-06  1436   0.465E-03    0.379E-03
RMM:   6    -0.615954444794E+03    0.12551E-06   -0.10960E-06  1386   0.208E-03    0.151E-03
RMM:   7    -0.615954444751E+03    0.42852E-07   -0.16279E-07   895   0.986E-04
  22 F= -.62415383E+03 E0= -.62415383E+03  d E =-.100516E-02
       N       E                     dE             d eps       ncg     rms          rms(c)
DAV:   1    -0.615956337988E+03   -0.18932E-02   -0.29281E-01  1428   0.127E+00    0.164E-01
RMM:   2    -0.615956650516E+03   -0.31253E-03   -0.61516E-03  1428   0.185E-01    0.865E-02
RMM:   3    -0.615956562379E+03    0.88137E-04   -0.32344E-04  1428   0.470E-02    0.440E-02
RMM:   4    -0.615956544713E+03    0.17665E-04   -0.10503E-04  1487   0.209E-02    0.971E-03
RMM:   5    -0.615956543708E+03    0.10047E-05   -0.69023E-06  1437   0.583E-03    0.378E-03
RMM:   6    -0.615956543689E+03    0.19820E-07   -0.10417E-06  1372   0.200E-03    0.173E-03
RMM:   7    -0.615956543704E+03   -0.14894E-07   -0.20565E-07   923   0.102E-03
  23 F= -.62415475E+03 E0= -.62415475E+03  d E =-.917675E-03
       N       E                     dE             d eps       ncg     rms          rms(c)
DAV:   1    -0.615958047547E+03   -0.15039E-02   -0.38587E-01  1428   0.146E+00    0.188E-01
RMM:   2    -0.615958459807E+03   -0.41226E-03   -0.81101E-03  1428   0.213E-01    0.993E-02
RMM:   3    -0.615958343473E+03    0.11633E-03   -0.42652E-04  1428   0.540E-02    0.505E-02
RMM:   4    -0.615958320346E+03    0.23127E-04   -0.13856E-04  1487   0.240E-02    0.112E-02
RMM:   5    -0.615958319014E+03    0.13314E-05   -0.91693E-06  1436   0.672E-03    0.433E-03
RMM:   6    -0.615958318983E+03    0.31432E-07   -0.13782E-06  1396   0.230E-03    0.200E-03
RMM:   7    -0.615958319000E+03   -0.16647E-07   -0.27777E-07   959   0.116E-03
  24 F= -.62415517E+03 E0= -.62415517E+03  d E =-.133985E-02
       N       E                     dE             d eps       ncg     rms          rms(c)
DAV:   1    -0.615959161325E+03   -0.84234E-03   -0.26918E-01  1440   0.120E+00    0.150E-01
RMM:   2    -0.615959475654E+03   -0.31433E-03   -0.51607E-03  1428   0.164E-01    0.797E-02
RMM:   3    -0.615959402371E+03    0.73282E-04   -0.24673E-04  1429   0.419E-02    0.417E-02
RMM:   4    -0.615959386714E+03    0.15657E-04   -0.10365E-04  1475   0.199E-02    0.824E-03
RMM:   5    -0.615959385594E+03    0.11207E-05   -0.53584E-06  1437   0.542E-03    0.381E-03
RMM:   6    -0.615959385424E+03    0.16977E-06   -0.10418E-06  1384   0.198E-03    0.162E-03
RMM:   7    -0.615959385406E+03    0.17641E-07   -0.20570E-07   935   0.101E-03
  25 F= -.62415604E+03 E0= -.62415604E+03  d E =-.863806E-03
       N       E                     dE             d eps       ncg     rms          rms(c)
DAV:   1    -0.615959770532E+03   -0.38511E-03   -0.52716E-01  1428   0.168E+00    0.210E-01
RMM:   2    -0.615960385324E+03   -0.61479E-03   -0.10098E-02  1428   0.229E-01    0.111E-01
RMM:   3    -0.615960241582E+03    0.14374E-03   -0.48294E-04  1429   0.587E-02    0.584E-02
RMM:   4    -0.615960210895E+03    0.30687E-04   -0.20282E-04  1476   0.279E-02    0.115E-02
RMM:   5    -0.615960208797E+03    0.20981E-05   -0.10396E-05  1437   0.753E-03    0.534E-03
RMM:   6    -0.615960208512E+03    0.28526E-06   -0.20758E-06  1455   0.277E-03    0.227E-03
RMM:   7    -0.615960208476E+03    0.36503E-07   -0.40871E-07  1025   0.137E-03
  26 F= -.62415658E+03 E0= -.62415658E+03  d E =-.140638E-02
       N       E                     dE             d eps       ncg     rms          rms(c)
DAV:   1    -0.615961196513E+03   -0.98800E-03   -0.27962E-01  1440   0.122E+00    0.147E-01
RMM:   2    -0.615961492811E+03   -0.29630E-03   -0.49181E-03  1428   0.162E-01    0.805E-02
RMM:   3    -0.615961425799E+03    0.67012E-04   -0.23599E-04  1432   0.410E-02    0.414E-02
RMM:   4    -0.615961412393E+03    0.13406E-04   -0.97319E-05  1470   0.197E-02    0.784E-03
RMM:   5    -0.615961411137E+03    0.12568E-05   -0.61618E-06  1438   0.557E-03    0.348E-03
RMM:   6    -0.615961410964E+03    0.17249E-06   -0.87565E-07  1371   0.190E-03    0.164E-03
RMM:   7    -0.615961410921E+03    0.43357E-07   -0.21655E-07   936   0.102E-03
  27 F= -.62415753E+03 E0= -.62415753E+03  d E =-.955051E-03
       N       E                     dE             d eps       ncg     rms          rms(c)
DAV:   1    -0.615961996682E+03   -0.58572E-03   -0.86101E-01  1428   0.215E+00    0.257E-01
RMM:   2    -0.615962907803E+03   -0.91112E-03   -0.15131E-02  1428   0.284E-01    0.141E-01
RMM:   3    -0.615962701383E+03    0.20642E-03   -0.72632E-04  1432   0.719E-02    0.727E-02
RMM:   4    -0.615962660159E+03    0.41225E-04   -0.29896E-04  1471   0.344E-02    0.137E-02
RMM:   5    -0.615962656578E+03    0.35809E-05   -0.18924E-05  1438   0.977E-03    0.609E-03
RMM:   6    -0.615962656181E+03    0.39680E-06   -0.27633E-06  1473   0.333E-03    0.289E-03
RMM:   7    -0.615962656074E+03    0.10718E-06   -0.70881E-07  1277   0.173E-03    0.114E-03
RMM:   8    -0.615962656046E+03    0.27991E-07   -0.14250E-07   884   0.795E-04
  28 F= -.62415835E+03 E0= -.62415835E+03  d E =-.177096E-02
       N       E                     dE             d eps       ncg     rms          rms(c)
DAV:   1    -0.615964344708E+03   -0.16886E-02   -0.52209E-01  1428   0.167E+00    0.192E-01
RMM:   2    -0.615964887610E+03   -0.54290E-03   -0.88515E-03  1428   0.221E-01    0.108E-01
RMM:   3    -0.615964767880E+03    0.11973E-03   -0.43297E-04  1429   0.545E-02    0.520E-02
RMM:   4    -0.615964745577E+03    0.22302E-04   -0.13994E-04  1482   0.243E-02    0.898E-03
RMM:   5    -0.615964744815E+03    0.76170E-06   -0.71498E-06  1448   0.631E-03    0.421E-03
RMM:   6    -0.615964744827E+03   -0.11354E-07   -0.14694E-06  1409   0.232E-03    0.177E-03
RMM:   7    -0.615964744812E+03    0.14770E-07   -0.19950E-07   908   0.104E-03
  29 F= -.62415958E+03 E0= -.62415958E+03  d E =-.122726E-02
       N       E                     dE             d eps       ncg     rms          rms(c)
DAV:   1    -0.615965979229E+03   -0.12344E-02   -0.11518E+00  1428   0.248E+00    0.285E-01
RMM:   2    -0.615967180867E+03   -0.12016E-02   -0.19536E-02  1428   0.329E-01    0.160E-01
RMM:   3    -0.615966917176E+03    0.26369E-03   -0.95483E-04  1429   0.809E-02    0.773E-02
RMM:   4    -0.615966868400E+03    0.48776E-04   -0.30951E-04  1481   0.361E-02    0.134E-02
RMM:   5    -0.615966866577E+03    0.18234E-05   -0.16083E-05  1449   0.947E-03    0.625E-03
RMM:   6    -0.615966866540E+03    0.37384E-07   -0.32543E-06  1461   0.343E-03    0.268E-03
RMM:   7    -0.615966866510E+03    0.29591E-07   -0.48249E-07  1139   0.152E-03
  30 F= -.62416043E+03 E0= -.62416043E+03  d E =-.207604E-02
       N       E                     dE             d eps       ncg     rms          rms(c)
DAV:   1    -0.615967635215E+03   -0.76868E-03   -0.42831E-01  1452   0.151E+00    0.175E-01
RMM:   2    -0.615968145158E+03   -0.50994E-03   -0.75993E-03  1428   0.201E-01    0.988E-02
RMM:   3    -0.615968038147E+03    0.10701E-03   -0.34785E-04  1428   0.493E-02    0.490E-02
RMM:   4    -0.615968017653E+03    0.20494E-04   -0.12694E-04  1476   0.226E-02    0.836E-03
RMM:   5    -0.615968016845E+03    0.80772E-06   -0.67831E-06  1442   0.611E-03    0.396E-03
RMM:   6    -0.615968016884E+03   -0.38606E-07   -0.11253E-06  1404   0.210E-03    0.172E-03
RMM:   7    -0.615968016881E+03    0.26339E-08   -0.17810E-07   892   0.949E-04
  31 F= -.62416146E+03 E0= -.62416146E+03  d E =-.103137E-02
       N       E                     dE             d eps       ncg     rms          rms(c)
DAV:   1    -0.615967807601E+03    0.20928E-03   -0.12102E+00  1428   0.254E+00    0.294E-01
RMM:   2    -0.615969252029E+03   -0.14444E-02   -0.21487E-02  1428   0.339E-01    0.166E-01
RMM:   3    -0.615968950197E+03    0.30183E-03   -0.98245E-04  1428   0.828E-02    0.824E-02
RMM:   4    -0.615968892357E+03    0.57840E-04   -0.35828E-04  1473   0.380E-02    0.141E-02
RMM:   5    -0.615968889931E+03    0.24260E-05   -0.19352E-05  1442   0.103E-02    0.665E-03
RMM:   6    -0.615968889976E+03   -0.44769E-07   -0.32258E-06  1482   0.353E-03    0.293E-03
RMM:   7    -0.615968889968E+03    0.76907E-08   -0.54467E-07  1202   0.154E-03
  32 F= -.62416214E+03 E0= -.62416214E+03  d E =-.171093E-02
       N       E                     dE             d eps       ncg     rms          rms(c)
DAV:   1    -0.615968257495E+03    0.63248E-03   -0.59918E-01  1428   0.179E+00    0.210E-01
RMM:   2    -0.615969060326E+03   -0.80283E-03   -0.11500E-02  1428   0.247E-01    0.117E-01
RMM:   3    -0.615968906549E+03    0.15378E-03   -0.49635E-04  1429   0.603E-02    0.600E-02
RMM:   4    -0.615968873166E+03    0.33382E-04   -0.20465E-04  1470   0.284E-02    0.102E-02
RMM:   5    -0.615968871180E+03    0.19866E-05   -0.11995E-05  1437   0.774E-03    0.458E-03
RMM:   6    -0.615968871029E+03    0.15024E-06   -0.12808E-06  1450   0.239E-03    0.228E-03
RMM:   7    -0.615968870945E+03    0.84558E-07   -0.46635E-07  1143   0.129E-03
  33 F= -.62416301E+03 E0= -.62416301E+03  d E =-.873491E-03
       N       E                     dE             d eps       ncg     rms          rms(c)
DAV:   1    -0.615967114805E+03    0.17562E-02   -0.10260E+00  1428   0.234E+00    0.275E-01
RMM:   2    -0.615968489609E+03   -0.13748E-02   -0.19695E-02  1428   0.323E-01    0.153E-01
RMM:   3    -0.615968225819E+03    0.26379E-03   -0.84980E-04  1429   0.789E-02    0.785E-02
RMM:   4    -0.615968168496E+03    0.57323E-04   -0.35047E-04  1471   0.372E-02    0.134E-02
RMM:   5    -0.615968165176E+03    0.33204E-05   -0.20584E-05  1436   0.101E-02    0.599E-03
RMM:   6    -0.615968164957E+03    0.21824E-06   -0.21989E-06  1493   0.312E-03    0.299E-03
RMM:   7    -0.615968164842E+03    0.11489E-06   -0.80563E-07  1311   0.165E-03    0.991E-04
RMM:   8    -0.615968164821E+03    0.21391E-07   -0.15430E-07   912   0.839E-04
  34 F= -.62416348E+03 E0= -.62416348E+03  d E =-.134108E-02
       N       E                     dE             d eps       ncg     rms          rms(c)
DAV:   1    -0.615967870897E+03    0.29395E-03   -0.66501E-01  1428   0.188E+00    0.233E-01
RMM:   2    -0.615968791848E+03   -0.92095E-03   -0.13726E-02  1428   0.272E-01    0.131E-01
RMM:   3    -0.615968591540E+03    0.20031E-03   -0.63212E-04  1428   0.670E-02    0.669E-02
RMM:   4    -0.615968548795E+03    0.42746E-04   -0.24980E-04  1479   0.313E-02    0.130E-02
RMM:   5    -0.615968546248E+03    0.25464E-05   -0.19122E-05  1428   0.928E-03    0.537E-03
RMM:   6    -0.615968546148E+03    0.10068E-06   -0.17159E-06  1483   0.281E-03    0.274E-03
RMM:   7    -0.615968546119E+03    0.29071E-07   -0.67608E-07  1278   0.157E-03
  35 F= -.62416453E+03 E0= -.62416453E+03  d E =-.105241E-02
       N       E                     dE             d eps       ncg     rms          rms(c)
DAV:   1    -0.615968007898E+03    0.53825E-03   -0.29267E-01  1464   0.125E+00    0.154E-01
RMM:   2    -0.615968414286E+03   -0.40639E-03   -0.60549E-03  1428   0.180E-01    0.869E-02
RMM:   3    -0.615968325648E+03    0.88638E-04   -0.27960E-04  1428   0.446E-02    0.444E-02
RMM:   4    -0.615968306822E+03    0.18826E-04   -0.11080E-04  1479   0.209E-02    0.872E-03
RMM:   5    -0.615968305651E+03    0.11705E-05   -0.86240E-06  1428   0.622E-03    0.359E-03
RMM:   6    -0.615968305598E+03    0.53820E-07   -0.73606E-07  1273   0.188E-03
  36 F= -.62416474E+03 E0= -.62416474E+03  d E =-.125962E-02
       N       E                     dE             d eps       ncg     rms          rms(c)
DAV:   1    -0.615968123344E+03    0.18231E-03   -0.83753E-01  1428   0.212E+00    0.258E-01
RMM:   2    -0.615969302057E+03   -0.11787E-02   -0.17679E-02  1428   0.303E-01    0.147E-01
RMM:   3    -0.615969046018E+03    0.25604E-03   -0.81203E-04  1428   0.758E-02    0.770E-02
RMM:   4    -0.615968990396E+03    0.55621E-04   -0.32760E-04  1479   0.359E-02    0.160E-02
RMM:   5    -0.615968987007E+03    0.33890E-05   -0.26470E-05  1428   0.107E-02    0.634E-03
RMM:   6    -0.615968987036E+03   -0.28856E-07   -0.22802E-06  1479   0.335E-03    0.328E-03
RMM:   7    -0.615968987091E+03   -0.55203E-07   -0.97256E-07  1347   0.178E-03
  37 F= -.62416576E+03 E0= -.62416576E+03  d E =-.102368E-02
       N       E                     dE             d eps       ncg     rms          rms(c)
DAV:   1    -0.615968520818E+03    0.46622E-03   -0.42060E-01  1440   0.150E+00    0.183E-01
RMM:   2    -0.615969112751E+03   -0.59193E-03   -0.88811E-03  1428   0.215E-01    0.104E-01
RMM:   3    -0.615968983212E+03    0.12954E-03   -0.40882E-04  1428   0.538E-02    0.546E-02
RMM:   4    -0.615968955257E+03    0.27955E-04   -0.16494E-04  1480   0.254E-02    0.114E-02
RMM:   5    -0.615968953586E+03    0.16713E-05   -0.13577E-05  1428   0.765E-03    0.451E-03
RMM:   6    -0.615968953622E+03   -0.36125E-07   -0.11333E-06  1440   0.238E-03    0.233E-03
RMM:   7    -0.615968953664E+03   -0.42099E-07   -0.49385E-07  1146   0.130E-03
  38 F= -.62416597E+03 E0= -.62416597E+03  d E =-.123637E-02
       N       E                     dE             d eps       ncg     rms          rms(c)
DAV:   1    -0.615968608997E+03    0.34462E-03   -0.10548E+00  1428   0.238E+00    0.271E-01
RMM:   2    -0.615970065071E+03   -0.14561E-02   -0.21217E-02  1428   0.330E-01    0.154E-01
RMM:   3    -0.615969780431E+03    0.28464E-03   -0.90502E-04  1430   0.811E-02    0.819E-02
RMM:   4    -0.615969716443E+03    0.63988E-04   -0.39042E-04  1474   0.391E-02    0.159E-02
RMM:   5    -0.615969712443E+03    0.40005E-05   -0.29066E-05  1431   0.113E-02    0.640E-03
RMM:   6    -0.615969712427E+03    0.15869E-07   -0.24526E-06  1488   0.349E-03    0.357E-03
RMM:   7    -0.615969712454E+03   -0.27117E-07   -0.13283E-06  1373   0.198E-03    0.133E-03
RMM:   8    -0.615969712435E+03    0.19420E-07   -0.28065E-07   995   0.105E-03
  39 F= -.62416702E+03 E0= -.62416702E+03  d E =-.104542E-02
       N       E                     dE             d eps       ncg     rms          rms(c)
DAV:   1    -0.615969364899E+03    0.34756E-03   -0.32884E-01  1452   0.133E+00    0.151E-01
RMM:   2    -0.615969818032E+03   -0.45313E-03   -0.66015E-03  1428   0.184E-01    0.861E-02
RMM:   3    -0.615969729751E+03    0.88281E-04   -0.28128E-04  1430   0.452E-02    0.456E-02
RMM:   4    -0.615969709818E+03    0.19933E-04   -0.12081E-04  1473   0.218E-02    0.877E-03
RMM:   5    -0.615969708658E+03    0.11599E-05   -0.88916E-06  1431   0.628E-03    0.356E-03
RMM:   6    -0.615969708670E+03   -0.11572E-07   -0.73843E-07  1287   0.194E-03
  40 F= -.62416718E+03 E0= -.62416718E+03  d E =-.120468E-02
       N       E                     dE             d eps       ncg     rms          rms(c)
DAV:   1    -0.615968807050E+03    0.90161E-03   -0.12803E+00  1428   0.261E+00    0.290E-01
RMM:   2    -0.615970458157E+03   -0.16511E-02   -0.24002E-02  1428   0.349E-01    0.168E-01
RMM:   3    -0.615970126352E+03    0.33181E-03   -0.10478E-03  1429   0.858E-02    0.869E-02
RMM:   4    -0.615970057348E+03    0.69004E-04   -0.40864E-04  1481   0.398E-02    0.166E-02
RMM:   5    -0.615970053080E+03    0.42681E-05   -0.27573E-05  1429   0.114E-02    0.716E-03
RMM:   6    -0.615970052766E+03    0.31430E-06   -0.29642E-06  1487   0.356E-03    0.355E-03
RMM:   7    -0.615970052583E+03    0.18246E-06   -0.11153E-06  1380   0.196E-03    0.125E-03
RMM:   8    -0.615970052532E+03    0.51215E-07   -0.26908E-07   986   0.102E-03
  41 F= -.62416829E+03 E0= -.62416829E+03  d E =-.111121E-02
       N       E                     dE             d eps       ncg     rms          rms(c)
DAV:   1    -0.615969548709E+03    0.50387E-03   -0.28694E-01  1452   0.124E+00    0.137E-01
RMM:   2    -0.615969918058E+03   -0.36935E-03   -0.53652E-03  1428   0.165E-01    0.795E-02
RMM:   3    -0.615969843956E+03    0.74103E-04   -0.23414E-04  1429   0.405E-02    0.411E-02
RMM:   4    -0.615969828679E+03    0.15276E-04   -0.91010E-05  1480   0.188E-02    0.781E-03
RMM:   5    -0.615969827678E+03    0.10015E-05   -0.61606E-06  1429   0.540E-03    0.339E-03
RMM:   6    -0.615969827574E+03    0.10391E-06   -0.62640E-07  1243   0.169E-03    0.167E-03
RMM:   7    -0.615969827505E+03    0.68707E-07   -0.24795E-07   944   0.983E-04
  42 F= -.62416843E+03 E0= -.62416843E+03  d E =-.125244E-02
       N       E                     dE             d eps       ncg     rms          rms(c)
DAV:   1    -0.615969175020E+03    0.65255E-03   -0.15374E+00  1428   0.286E+00    0.311E-01
RMM:   2    -0.615971155086E+03   -0.19801E-02   -0.28038E-02  1428   0.381E-01    0.178E-01
RMM:   3    -0.615970782097E+03    0.37299E-03   -0.11984E-03  1429   0.920E-02    0.932E-02
RMM:   4    -0.615970699513E+03    0.82584E-04   -0.49233E-04  1481   0.438E-02    0.175E-02
RMM:   5    -0.615970694697E+03    0.48160E-05   -0.31529E-05  1431   0.122E-02    0.757E-03
RMM:   6    -0.615970694338E+03    0.35877E-06   -0.32306E-06  1486   0.381E-03    0.371E-03
RMM:   7    -0.615970694139E+03    0.19870E-06   -0.13038E-06  1405   0.205E-03    0.128E-03
RMM:   8    -0.615970694068E+03    0.71879E-07   -0.32050E-07  1009   0.110E-03
  43 F= -.62416962E+03 E0= -.62416962E+03  d E =-.118734E-02
       N       E                     dE             d eps       ncg     rms          rms(c)
DAV:   1    -0.615970338137E+03    0.35600E-03   -0.34718E-01  1440   0.136E+00    0.148E-01
RMM:   2    -0.615970784267E+03   -0.44613E-03   -0.63147E-03  1428   0.181E-01    0.846E-02
RMM:   3    -0.615970700757E+03    0.83510E-04   -0.26962E-04  1429   0.436E-02    0.442E-02
RMM:   4    -0.615970682387E+03    0.18370E-04   -0.11062E-04  1480   0.208E-02    0.823E-03
RMM:   5    -0.615970681286E+03    0.11014E-05   -0.69784E-06  1432   0.577E-03    0.359E-03
RMM:   6    -0.615970681190E+03    0.95555E-07   -0.70719E-07  1275   0.181E-03
  44 F= -.62416976E+03 E0= -.62416976E+03  d E =-.133025E-02
       N       E                     dE             d eps       ncg     rms          rms(c)
DAV:   1    -0.615970884875E+03   -0.20359E-03   -0.13755E+00  1428   0.271E+00    0.318E-01
RMM:   2    -0.615972687663E+03   -0.18028E-02   -0.26268E-02  1428   0.375E-01    0.171E-01
RMM:   3    -0.615972333763E+03    0.35390E-03   -0.11135E-03  1429   0.892E-02    0.906E-02
RMM:   4    -0.615972248514E+03    0.85250E-04   -0.48596E-04  1478   0.438E-02    0.169E-02
RMM:   5    -0.615972244236E+03    0.42780E-05   -0.31369E-05  1429   0.119E-02    0.715E-03
RMM:   6    -0.615972244125E+03    0.11077E-06   -0.28661E-06  1487   0.372E-03    0.377E-03
RMM:   7    -0.615972244101E+03    0.23392E-07   -0.13498E-06  1397   0.201E-03    0.125E-03
RMM:   8    -0.615972244058E+03    0.43397E-07   -0.27947E-07  1000   0.103E-03
  45 F= -.62417079E+03 E0= -.62417079E+03  d E =-.102954E-02
       N       E                     dE             d eps       ncg     rms          rms(c)
DAV:   1    -0.615972339173E+03   -0.95072E-04   -0.20394E-01  1464   0.104E+00    0.122E-01
RMM:   2    -0.615972605544E+03   -0.26637E-03   -0.38842E-03  1428   0.144E-01    0.658E-02
RMM:   3    -0.615972553300E+03    0.52244E-04   -0.16449E-04  1429   0.343E-02    0.348E-02
RMM:   4    -0.615972540712E+03    0.12588E-04   -0.71585E-05  1478   0.168E-02    0.644E-03
RMM:   5    -0.615972540116E+03    0.59593E-06   -0.45404E-06  1428   0.453E-03    0.274E-03
RMM:   6    -0.615972540105E+03    0.10736E-07   -0.36894E-07  1014   0.143E-03
  46 F= -.62417088E+03 E0= -.62417088E+03  d E =-.112242E-02
       N       E                     dE             d eps       ncg     rms          rms(c)
DAV:   1    -0.615973338332E+03   -0.79822E-03   -0.70283E-01  1440   0.194E+00    0.228E-01
RMM:   2    -0.615974164647E+03   -0.82632E-03   -0.13682E-02  1428   0.274E-01    0.134E-01
RMM:   3    -0.615973936783E+03    0.22786E-03   -0.65496E-04  1429   0.669E-02    0.670E-02
RMM:   4    -0.615973890645E+03    0.46138E-04   -0.24621E-04  1482   0.310E-02    0.140E-02
RMM:   5    -0.615973887876E+03    0.27689E-05   -0.20527E-05  1431   0.948E-03    0.586E-03
RMM:   6    -0.615973887618E+03    0.25795E-06   -0.18343E-06  1456   0.300E-03    0.296E-03
RMM:   7    -0.615973887525E+03    0.93001E-07   -0.80280E-07  1286   0.160E-03
  47 F= -.62417175E+03 E0= -.62417175E+03  d E =-.864881E-03
       N       E                     dE             d eps       ncg     rms          rms(c)
DAV:   1    -0.615974159766E+03   -0.27215E-03   -0.31315E-01  1440   0.129E+00    0.152E-01
RMM:   2    -0.615974528211E+03   -0.36844E-03   -0.61011E-03  1428   0.183E-01    0.896E-02
RMM:   3    -0.615974426061E+03    0.10215E-03   -0.29287E-04  1429   0.448E-02    0.447E-02
RMM:   4    -0.615974405423E+03    0.20639E-04   -0.11009E-04  1484   0.207E-02    0.947E-03
RMM:   5    -0.615974404116E+03    0.13071E-05   -0.93484E-06  1431   0.637E-03    0.394E-03
RMM:   6    -0.615974403976E+03    0.13979E-06   -0.80764E-07  1327   0.201E-03    0.198E-03
RMM:   7    -0.615974403918E+03    0.57349E-07   -0.37226E-07  1041   0.114E-03
  48 F= -.62417195E+03 E0= -.62417195E+03  d E =-.106204E-02
       N       E                     dE             d eps       ncg     rms          rms(c)
DAV:   1    -0.615976563174E+03   -0.21592E-02   -0.87506E-01  1428   0.218E+00    0.267E-01
RMM:   2    -0.615977442744E+03   -0.87957E-03   -0.17414E-02  1428   0.314E-01    0.151E-01
RMM:   3    -0.615977144786E+03    0.29796E-03   -0.87800E-04  1434   0.768E-02    0.750E-02
RMM:   4    -0.615977082937E+03    0.61850E-04   -0.29156E-04  1483   0.343E-02    0.154E-02
RMM:   5    -0.615977080704E+03    0.22322E-05   -0.17398E-05  1436   0.948E-03    0.694E-03
RMM:   6    -0.615977080343E+03    0.36109E-06   -0.28795E-06  1462   0.327E-03    0.294E-03
RMM:   7    -0.615977080278E+03    0.65000E-07   -0.58691E-07  1219   0.161E-03
  49 F= -.62417286E+03 E0= -.62417286E+03  d E =-.909446E-03
       N       E                     dE             d eps       ncg     rms          rms(c)
DAV:   1    -0.615977823001E+03   -0.74266E-03   -0.14981E-01  1464   0.901E-01    0.110E-01
RMM:   2    -0.615977973929E+03   -0.15093E-03   -0.29818E-03  1428   0.130E-01    0.626E-02
RMM:   3    -0.615977922702E+03    0.51227E-04   -0.15053E-04  1434   0.318E-02    0.310E-02
RMM:   4    -0.615977911892E+03    0.10810E-04   -0.50249E-05  1483   0.142E-02    0.642E-03
RMM:   5    -0.615977911376E+03    0.51567E-06   -0.30151E-06  1436   0.394E-03    0.289E-03
RMM:   6    -0.615977911250E+03    0.12638E-06   -0.46293E-07  1163   0.137E-03    0.121E-03
RMM:   7    -0.615977911220E+03    0.29082E-07   -0.10583E-07   882   0.748E-04
  50 F= -.62417296E+03 E0= -.62417296E+03  d E =-.101140E-02
       N       E                     dE             d eps       ncg     rms          rms(c)
DAV:   1    -0.615981455512E+03   -0.35443E-02   -0.85945E-01  1440   0.218E+00    0.284E-01
RMM:   2    -0.615982123817E+03   -0.66831E-03   -0.17252E-02  1428   0.318E-01    0.149E-01
RMM:   3    -0.615981835240E+03    0.28858E-03   -0.91560E-04  1429   0.771E-02    0.734E-02
RMM:   4    -0.615981770418E+03    0.64822E-04   -0.26442E-04  1487   0.332E-02    0.151E-02
RMM:   5    -0.615981768827E+03    0.15916E-05   -0.13360E-05  1452   0.868E-03    0.719E-03
RMM:   6    -0.615981768173E+03    0.65378E-06   -0.35993E-06  1425   0.347E-03    0.241E-03
RMM:   7    -0.615981768082E+03    0.91037E-07   -0.44569E-07  1098   0.150E-03
  51 F= -.62417385E+03 E0= -.62417385E+03  d E =-.894051E-03
       N       E                     dE             d eps       ncg     rms          rms(c)
DAV:   1    -0.615984137456E+03   -0.23693E-02   -0.52261E-01  1440   0.170E+00    0.221E-01
RMM:   2    -0.615984544254E+03   -0.40680E-03   -0.10486E-02  1428   0.247E-01    0.116E-01
RMM:   3    -0.615984368653E+03    0.17560E-03   -0.55581E-04  1429   0.602E-02    0.572E-02
RMM:   4    -0.615984329000E+03    0.39653E-04   -0.16130E-04  1487   0.260E-02    0.118E-02
RMM:   5    -0.615984327925E+03    0.10750E-05   -0.81435E-06  1454   0.677E-03    0.563E-03
RMM:   6    -0.615984327463E+03    0.46168E-06   -0.22164E-06  1423   0.272E-03    0.188E-03
RMM:   7    -0.615984327392E+03    0.71021E-07   -0.25593E-07   942   0.117E-03
  52 F= -.62417411E+03 E0= -.62417411E+03  d E =-.114794E-02
       N       E                     dE             d eps       ncg     rms          rms(c)
DAV:   1    -0.615988404816E+03   -0.40774E-02   -0.85581E-01  1428   0.218E+00    0.293E-01
RMM:   2    -0.615988930713E+03   -0.52590E-03   -0.16803E-02  1428   0.319E-01    0.154E-01
RMM:   3    -0.615988643368E+03    0.28734E-03   -0.98600E-04  1428   0.781E-02    0.730E-02
RMM:   4    -0.615988582387E+03    0.60981E-04   -0.22226E-04  1488   0.316E-02    0.165E-02
RMM:   5    -0.615988580823E+03    0.15640E-05   -0.15746E-05  1455   0.929E-03    0.710E-03
RMM:   6    -0.615988580391E+03    0.43204E-06   -0.29031E-06  1443   0.327E-03    0.261E-03
RMM:   7    -0.615988580284E+03    0.10645E-06   -0.48151E-07  1156   0.146E-03    0.886E-04
RMM:   8    -0.615988580257E+03    0.27325E-07   -0.11940E-07   882   0.749E-04
  53 F= -.62417495E+03 E0= -.62417495E+03  d E =-.843615E-03
       N       E                     dE             d eps       ncg     rms          rms(c)
DAV:   1    -0.615989707465E+03   -0.11272E-02   -0.86153E-02  1464   0.692E-01    0.932E-02
RMM:   2    -0.615989760053E+03   -0.52588E-04   -0.16935E-03  1428   0.101E-01    0.489E-02
RMM:   3    -0.615989730836E+03    0.29217E-04   -0.99150E-05  1428   0.248E-02    0.232E-02
RMM:   4    -0.615989724485E+03    0.63506E-05   -0.22490E-05  1488   0.100E-02    0.524E-03
RMM:   5    -0.615989724245E+03    0.23963E-06   -0.15840E-06  1447   0.295E-03    0.227E-03
RMM:   6    -0.615989724156E+03    0.89432E-07   -0.25985E-07   942   0.105E-03
  54 F= -.62417501E+03 E0= -.62417501E+03  d E =-.907514E-03
       N       E                     dE             d eps       ncg     rms          rms(c)
DAV:   1    -0.615992931511E+03   -0.32073E-02   -0.70680E-01  1428   0.197E+00    0.251E-01
RMM:   2    -0.615993495629E+03   -0.56412E-03   -0.13660E-02  1428   0.285E-01    0.132E-01
RMM:   3    -0.615993277983E+03    0.21765E-03   -0.73325E-04  1429   0.698E-02    0.635E-02
RMM:   4    -0.615993232356E+03    0.45627E-04   -0.19287E-04  1487   0.289E-02    0.134E-02
RMM:   5    -0.615993231216E+03    0.11400E-05   -0.11272E-05  1455   0.795E-03    0.605E-03
RMM:   6    -0.615993230905E+03    0.31126E-06   -0.22049E-06  1439   0.278E-03    0.222E-03
RMM:   7    -0.615993230837E+03    0.68245E-07   -0.28722E-07   968   0.121E-03
  55 F= -.62417587E+03 E0= -.62417587E+03  d E =-.860887E-03
       N       E                     dE             d eps       ncg     rms          rms(c)
DAV:   1    -0.615995696811E+03   -0.24659E-02   -0.55880E-01  1428   0.175E+00    0.223E-01
RMM:   2    -0.615996143159E+03   -0.44635E-03   -0.10795E-02  1428   0.253E-01    0.117E-01
RMM:   3    -0.615995970931E+03    0.17223E-03   -0.57838E-04  1428   0.621E-02    0.564E-02
RMM:   4    -0.615995934715E+03    0.36216E-04   -0.15312E-04  1488   0.258E-02    0.119E-02
RMM:   5    -0.615995933773E+03    0.94212E-06   -0.89160E-06  1455   0.706E-03    0.539E-03
RMM:   6    -0.615995933503E+03    0.27017E-06   -0.17487E-06  1426   0.247E-03    0.197E-03
RMM:   7    -0.615995933440E+03    0.62992E-07   -0.22309E-07   917   0.108E-03
  56 F= -.62417623E+03 E0= -.62417623E+03  d E =-.121582E-02
       N       E                     dE             d eps       ncg     rms          rms(c)
DAV:   1    -0.615996895228E+03   -0.96173E-03   -0.94995E-02  1464   0.723E-01    0.919E-02
RMM:   2    -0.615996971203E+03   -0.75975E-04   -0.18352E-03  1428   0.104E-01    0.483E-02
RMM:   3    -0.615996941780E+03    0.29424E-04   -0.98193E-05  1428   0.256E-02    0.233E-02
RMM:   4    -0.615996935430E+03    0.63501E-05   -0.26227E-05  1488   0.107E-02    0.492E-03
RMM:   5    -0.615996935189E+03    0.24042E-06   -0.15179E-06  1450   0.291E-03    0.224E-03
RMM:   6    -0.615996935099E+03    0.89854E-07   -0.26535E-07   948   0.104E-03
  57 F= -.62417626E+03 E0= -.62417626E+03  d E =-.125082E-02
       N       E                     dE             d eps       ncg     rms          rms(c)
DAV:   1    -0.615999199114E+03   -0.22639E-02   -0.85878E-01  1428   0.216E+00    0.261E-01
RMM:   2    -0.616000114589E+03   -0.91547E-03   -0.17130E-02  1428   0.309E-01    0.143E-01
RMM:   3    -0.615999856072E+03    0.25852E-03   -0.83520E-04  1429   0.774E-02    0.716E-02
RMM:   4    -0.615999800982E+03    0.55091E-04   -0.28210E-04  1487   0.341E-02    0.149E-02
RMM:   5    -0.615999798553E+03    0.24281E-05   -0.15970E-05  1449   0.907E-03    0.669E-03
RMM:   6    -0.615999797951E+03    0.60244E-06   -0.28352E-06  1448   0.314E-03    0.268E-03
RMM:   7    -0.615999797796E+03    0.15462E-06   -0.54781E-07  1213   0.148E-03    0.932E-04
RMM:   8    -0.615999797763E+03    0.33069E-07   -0.12499E-07   882   0.730E-04
  58 F= -.62417712E+03 E0= -.62417712E+03  d E =-.861577E-03
       N       E                     dE             d eps       ncg     rms          rms(c)
DAV:   1    -0.616001247889E+03   -0.14501E-02   -0.50477E-01  1428   0.165E+00    0.200E-01
RMM:   2    -0.616001786422E+03   -0.53853E-03   -0.10065E-02  1428   0.237E-01    0.110E-01
RMM:   3    -0.616001634737E+03    0.15168E-03   -0.49011E-04  1429   0.593E-02    0.549E-02
RMM:   4    -0.616001602253E+03    0.32484E-04   -0.16592E-04  1487   0.262E-02    0.114E-02
RMM:   5    -0.616001600728E+03    0.15258E-05   -0.93741E-06  1449   0.695E-03    0.513E-03
RMM:   6    -0.616001600323E+03    0.40419E-06   -0.16638E-06  1434   0.240E-03    0.206E-03
RMM:   7    -0.616001600210E+03    0.11317E-06   -0.30311E-07   992   0.114E-03    0.706E-04
RMM:   8    -0.616001600194E+03    0.16662E-07   -0.86069E-08   882   0.659E-04
  59 F= -.62417740E+03 E0= -.62417740E+03  d E =-.113368E-02
       N       E                     dE             d eps       ncg     rms          rms(c)
DAV:   1    -0.616003050052E+03   -0.14498E-02   -0.26542E-01  1464   0.121E+00    0.165E-01
RMM:   2    -0.616003374750E+03   -0.32470E-03   -0.60399E-03  1428   0.183E-01    0.871E-02
RMM:   3    -0.616003281525E+03    0.93225E-04   -0.30122E-04  1434   0.468E-02    0.446E-02
RMM:   4    -0.616003260099E+03    0.21426E-04   -0.10524E-04  1486   0.209E-02    0.999E-03
RMM:   5    -0.616003258760E+03    0.13384E-05   -0.84955E-06  1435   0.609E-03    0.394E-03
RMM:   6    -0.616003258571E+03    0.18892E-06   -0.93226E-07  1375   0.200E-03    0.195E-03
RMM:   7    -0.616003258478E+03    0.93543E-07   -0.33016E-07  1007   0.111E-03
  60 F= -.62417795E+03 E0= -.62417795E+03  d E =-.549943E-03
       N       E                     dE             d eps       ncg     rms          rms(c)
DAV:   1    -0.616003730881E+03   -0.47231E-03   -0.43540E-02  1464   0.489E-01    0.667E-02
RMM:   2    -0.616003784699E+03   -0.53818E-04   -0.99380E-04  1428   0.740E-02    0.354E-02
RMM:   3    -0.616003769349E+03    0.15350E-04   -0.49770E-05  1434   0.190E-02    0.181E-02
RMM:   4    -0.616003765812E+03    0.35372E-05   -0.17497E-05  1486   0.850E-03    0.412E-03
RMM:   5    -0.616003765519E+03    0.29274E-06   -0.14434E-06  1413   0.250E-03    0.161E-03
RMM:   6    -0.616003765457E+03    0.62049E-07   -0.13072E-07   888   0.835E-04
  61 F= -.62417801E+03 E0= -.62417801E+03  d E =-.608758E-03
       N       E                     dE             d eps       ncg     rms          rms(c)
DAV:   1    -0.616005408754E+03   -0.16432E-02   -0.32350E-01  1452   0.134E+00    0.183E-01
RMM:   2    -0.616005814445E+03   -0.40569E-03   -0.74756E-03  1428   0.204E-01    0.926E-02
RMM:   3    -0.616005705679E+03    0.10877E-03   -0.36276E-04  1428   0.512E-02    0.480E-02
RMM:   4    -0.616005678637E+03    0.27042E-04   -0.12195E-04  1486   0.229E-02    0.102E-02
RMM:   5    -0.616005677704E+03    0.93335E-06   -0.78511E-06  1438   0.615E-03    0.428E-03
RMM:   6    -0.616005677598E+03    0.10553E-06   -0.96791E-07  1395   0.199E-03    0.208E-03
RMM:   7    -0.616005677537E+03    0.60772E-07   -0.29678E-07   985   0.109E-03
  62 F= -.62417851E+03 E0= -.62417851E+03  d E =-.504110E-03
       N       E                     dE             d eps       ncg     rms          rms(c)
DAV:   1    -0.616006414314E+03   -0.73672E-03   -0.87433E-02  1464   0.694E-01    0.952E-02
RMM:   2    -0.616006524099E+03   -0.10978E-03   -0.20230E-03  1428   0.106E-01    0.482E-02
RMM:   3    -0.616006494459E+03    0.29640E-04   -0.98299E-05  1428   0.267E-02    0.250E-02
RMM:   4    -0.616006487000E+03    0.74588E-05   -0.33140E-05  1486   0.119E-02    0.532E-03
RMM:   5    -0.616006486704E+03    0.29627E-06   -0.21578E-06  1436   0.322E-03    0.224E-03
RMM:   6    -0.616006486650E+03    0.53784E-07   -0.21920E-07   920   0.104E-03
  63 F= -.62417859E+03 E0= -.62417859E+03  d E =-.582264E-03
       N       E                     dE             d eps       ncg     rms          rms(c)
DAV:   1    -0.616007918590E+03   -0.14319E-02   -0.33239E-01  1440   0.135E+00    0.161E-01
RMM:   2    -0.616008362255E+03   -0.44367E-03   -0.71999E-03  1428   0.198E-01    0.873E-02
RMM:   3    -0.616008264264E+03    0.97992E-04   -0.33071E-04  1432   0.495E-02    0.448E-02
RMM:   4    -0.616008241618E+03    0.22646E-04   -0.11097E-04  1484   0.218E-02    0.869E-03
RMM:   5    -0.616008241010E+03    0.60731E-06   -0.59548E-06  1447   0.554E-03    0.401E-03
RMM:   6    -0.616008240933E+03    0.77041E-07   -0.10121E-06  1382   0.195E-03    0.165E-03
RMM:   7    -0.616008240922E+03    0.10838E-07   -0.14764E-07   882   0.908E-04
  64 F= -.62417907E+03 E0= -.62417907E+03  d E =-.482459E-03
       N       E                     dE             d eps       ncg     rms          rms(c)
DAV:   1    -0.616008715545E+03   -0.47461E-03   -0.46148E-02  1464   0.501E-01    0.600E-02
RMM:   2    -0.616008777178E+03   -0.61633E-04   -0.99961E-04  1428   0.738E-02    0.325E-02
RMM:   3    -0.616008763492E+03    0.13686E-04   -0.45974E-05  1431   0.185E-02    0.167E-02
RMM:   4    -0.616008760262E+03    0.32300E-05   -0.15506E-05  1484   0.814E-03    0.326E-03
RMM:   5    -0.616008760151E+03    0.11067E-06   -0.82934E-07  1379   0.208E-03    0.150E-03
RMM:   6    -0.616008760125E+03    0.26092E-07   -0.12293E-07   882   0.754E-04
  65 F= -.62417912E+03 E0= -.62417912E+03  d E =-.528315E-03
       N       E                     dE             d eps       ncg     rms          rms(c)
DAV:   1    -0.616009964231E+03   -0.12041E-02   -0.29169E-01  1440   0.126E+00    0.156E-01
RMM:   2    -0.616010351161E+03   -0.38693E-03   -0.62634E-03  1428   0.182E-01    0.835E-02
RMM:   3    -0.616010258478E+03    0.92683E-04   -0.28254E-04  1429   0.454E-02    0.430E-02
RMM:   4    -0.616010236030E+03    0.22449E-04   -0.94632E-05  1484   0.202E-02    0.826E-03
RMM:   5    -0.616010235504E+03    0.52549E-06   -0.49144E-06  1451   0.502E-03    0.405E-03
RMM:   6    -0.616010235343E+03    0.16084E-06   -0.88462E-07  1371   0.182E-03    0.148E-03
RMM:   7    -0.616010235279E+03    0.64214E-07   -0.14910E-07   883   0.855E-04
  66 F= -.62417965E+03 E0= -.62417965E+03  d E =-.536070E-03
       N       E                     dE             d eps       ncg     rms          rms(c)
DAV:   1    -0.616011348692E+03   -0.11133E-02   -0.55324E-01  1440   0.173E+00    0.215E-01
RMM:   2    -0.616012081337E+03   -0.73264E-03   -0.11865E-02  1428   0.250E-01    0.115E-01
RMM:   3    -0.616011905230E+03    0.17611E-03   -0.53563E-04  1429   0.624E-02    0.592E-02
RMM:   4    -0.616011862626E+03    0.42603E-04   -0.17925E-04  1485   0.278E-02    0.114E-02
RMM:   5    -0.616011861672E+03    0.95442E-06   -0.93089E-06  1451   0.690E-03    0.556E-03
RMM:   6    -0.616011861402E+03    0.26955E-06   -0.16968E-06  1450   0.249E-03    0.204E-03
RMM:   7    -0.616011861297E+03    0.10541E-06   -0.29461E-07   979   0.114E-03    0.666E-04
RMM:   8    -0.616011861264E+03    0.33113E-07   -0.90172E-08   882   0.660E-04
  67 F= -.62417999E+03 E0= -.62417999E+03  d E =-.871973E-03
       N       E                     dE             d eps       ncg     rms          rms(c)
DAV:   1    -0.616013012541E+03   -0.11512E-02   -0.30306E-01  1440   0.128E+00    0.157E-01
RMM:   2    -0.616013449849E+03   -0.43731E-03   -0.68903E-03  1428   0.191E-01    0.861E-02
RMM:   3    -0.616013352356E+03    0.97493E-04   -0.30612E-04  1428   0.471E-02    0.449E-02
RMM:   4    -0.616013327840E+03    0.24516E-04   -0.10777E-04  1480   0.217E-02    0.864E-03
RMM:   5    -0.616013327197E+03    0.64356E-06   -0.70932E-06  1441   0.565E-03    0.384E-03
RMM:   6    -0.616013327153E+03    0.43925E-07   -0.81282E-07  1338   0.185E-03
  68 F= -.62418055E+03 E0= -.62418055E+03  d E =-.565954E-03
       N       E                     dE             d eps       ncg     rms          rms(c)
DAV:   1    -0.616014033436E+03   -0.70624E-03   -0.20169E-01  1452   0.104E+00    0.128E-01
RMM:   2    -0.616014325044E+03   -0.29161E-03   -0.45932E-03  1428   0.156E-01    0.702E-02
RMM:   3    -0.616014260236E+03    0.64807E-04   -0.20406E-04  1428   0.385E-02    0.367E-02
RMM:   4    -0.616014243825E+03    0.16411E-04   -0.72381E-05  1479   0.178E-02    0.705E-03
RMM:   5    -0.616014243386E+03    0.43908E-06   -0.47736E-06  1445   0.464E-03    0.316E-03
RMM:   6    -0.616014243343E+03    0.43001E-07   -0.51224E-07  1116   0.153E-03
  69 F= -.62418074E+03 E0= -.62418074E+03  d E =-.749747E-03
       N       E                     dE             d eps       ncg     rms          rms(c)
DAV:   1    -0.616014823156E+03   -0.57977E-03   -0.36916E-01  1440   0.141E+00    0.169E-01
RMM:   2    -0.616015420738E+03   -0.59758E-03   -0.85623E-03  1428   0.211E-01    0.942E-02
RMM:   3    -0.616015307577E+03    0.11316E-03   -0.36448E-04  1432   0.521E-02    0.507E-02
RMM:   4    -0.616015278345E+03    0.29232E-04   -0.14453E-04  1476   0.245E-02    0.102E-02
RMM:   5    -0.616015277046E+03    0.12988E-05   -0.11411E-05  1432   0.692E-03    0.415E-03
RMM:   6    -0.616015277018E+03    0.28591E-07   -0.90016E-07  1347   0.214E-03
  70 F= -.62418132E+03 E0= -.62418132E+03  d E =-.579058E-03
       N       E                     dE             d eps       ncg     rms          rms(c)
DAV:   1    -0.616015551382E+03   -0.27434E-03   -0.24643E-01  1452   0.115E+00    0.138E-01
RMM:   2    -0.616015950751E+03   -0.39937E-03   -0.57216E-03  1428   0.173E-01    0.770E-02
RMM:   3    -0.616015875217E+03    0.75534E-04   -0.24331E-04  1432   0.426E-02    0.415E-02
RMM:   4    -0.616015855602E+03    0.19615E-04   -0.97095E-05  1476   0.201E-02    0.832E-03
RMM:   5    -0.616015854722E+03    0.87966E-06   -0.76374E-06  1432   0.567E-03    0.340E-03
RMM:   6    -0.616015854694E+03    0.28220E-07   -0.58204E-07  1129   0.175E-03
  71 F= -.62418153E+03 E0= -.62418153E+03  d E =-.787149E-03
       N       E                     dE             d eps       ncg     rms          rms(c)
DAV:   1    -0.616016018279E+03   -0.16356E-03   -0.39991E-01  1440   0.146E+00    0.179E-01
RMM:   2    -0.616016654410E+03   -0.63613E-03   -0.91119E-03  1428   0.216E-01    0.988E-02
RMM:   3    -0.616016525791E+03    0.12862E-03   -0.38181E-04  1428   0.534E-02    0.525E-02
RMM:   4    -0.616016493791E+03    0.32000E-04   -0.15586E-04  1471   0.253E-02    0.102E-02
RMM:   5    -0.616016492331E+03    0.14602E-05   -0.11190E-05  1430   0.715E-03    0.439E-03
RMM:   6    -0.616016492244E+03    0.86955E-07   -0.10606E-06  1418   0.223E-03    0.231E-03
RMM:   7    -0.616016492167E+03    0.77278E-07   -0.42843E-07  1098   0.124E-03
  72 F= -.62418208E+03 E0= -.62418208E+03  d E =-.556235E-03
       N       E                     dE             d eps       ncg     rms          rms(c)
DAV:   1    -0.616016465227E+03    0.27016E-04   -0.16345E-01  1464   0.934E-01    0.114E-01
RMM:   2    -0.616016725295E+03   -0.26007E-03   -0.37247E-03  1428   0.138E-01    0.632E-02
RMM:   3    -0.616016672437E+03    0.52858E-04   -0.15661E-04  1428   0.342E-02    0.336E-02
RMM:   4    -0.616016659328E+03    0.13109E-04   -0.63919E-05  1471   0.162E-02    0.658E-03
RMM:   5    -0.616016658696E+03    0.63157E-06   -0.46870E-06  1430   0.462E-03    0.282E-03
RMM:   6    -0.616016658640E+03    0.56527E-07   -0.39010E-07  1028   0.143E-03
  73 F= -.62418220E+03 E0= -.62418220E+03  d E =-.672038E-03
       N       E                     dE             d eps       ncg     rms          rms(c)
DAV:   1    -0.616016791710E+03   -0.13301E-03   -0.30918E-01  1452   0.128E+00    0.146E-01
RMM:   2    -0.616017273460E+03   -0.48175E-03   -0.66989E-03  1428   0.184E-01    0.810E-02
RMM:   3    -0.616017186908E+03    0.86551E-04   -0.26927E-04  1428   0.449E-02    0.428E-02
RMM:   4    -0.616017165593E+03    0.21315E-04   -0.10736E-04  1467   0.213E-02    0.730E-03
RMM:   5    -0.616017164921E+03    0.67228E-06   -0.54902E-06  1443   0.536E-03    0.346E-03
RMM:   6    -0.616017164889E+03    0.31388E-07   -0.74305E-07  1331   0.181E-03
  74 F= -.62418264E+03 E0= -.62418264E+03  d E =-.439443E-03
       N       E                     dE             d eps       ncg     rms          rms(c)
DAV:   1    -0.616017058383E+03    0.10654E-03   -0.33398E-01  1452   0.133E+00    0.152E-01
RMM:   2    -0.616017578917E+03   -0.52053E-03   -0.72364E-03  1428   0.192E-01    0.842E-02
RMM:   3    -0.616017485443E+03    0.93474E-04   -0.29113E-04  1428   0.467E-02    0.444E-02
RMM:   4    -0.616017462453E+03    0.22990E-04   -0.11589E-04  1468   0.222E-02    0.758E-03
RMM:   5    -0.616017461738E+03    0.71491E-06   -0.58995E-06  1443   0.556E-03    0.360E-03
RMM:   6    -0.616017461708E+03    0.30686E-07   -0.80525E-07  1352   0.188E-03
  75 F= -.62418287E+03 E0= -.62418287E+03  d E =-.668750E-03
       N       E                     dE             d eps       ncg     rms          rms(c)
DAV:   1    -0.616015786834E+03    0.16749E-02   -0.13357E+00  1428   0.266E+00    0.303E-01
RMM:   2    -0.616017867347E+03   -0.20805E-02   -0.28921E-02  1428   0.384E-01    0.168E-01
RMM:   3    -0.616017493030E+03    0.37432E-03   -0.11631E-03  1428   0.933E-02    0.888E-02
RMM:   4    -0.616017400553E+03    0.92477E-04   -0.46107E-04  1467   0.443E-02    0.151E-02
RMM:   5    -0.616017397881E+03    0.26716E-05   -0.23690E-05  1444   0.112E-02    0.716E-03
RMM:   6    -0.616017397859E+03    0.21821E-07   -0.32790E-06  1497   0.374E-03    0.347E-03
RMM:   7    -0.616017397815E+03    0.44332E-07   -0.78696E-07  1316   0.174E-03
  76 F= -.62418267E+03 E0= -.62418267E+03  d E =-.475640E-03
       N       E                     dE             d eps       ncg     rms          rms(c)
DAV:   1    -0.616016658038E+03    0.73982E-03   -0.72696E-01  1428   0.196E+00    0.224E-01
RMM:   2    -0.616017790143E+03   -0.11321E-02   -0.15758E-02  1428   0.283E-01    0.124E-01
RMM:   3    -0.616017585765E+03    0.20438E-03   -0.63071E-04  1428   0.689E-02    0.656E-02
RMM:   4    -0.616017534945E+03    0.50821E-04   -0.25210E-04  1468   0.327E-02    0.112E-02
RMM:   5    -0.616017533546E+03    0.13983E-05   -0.12824E-05  1441   0.820E-03    0.530E-03
RMM:   6    -0.616017533635E+03   -0.88701E-07   -0.17784E-06  1496   0.276E-03    0.258E-03
RMM:   7    -0.616017533692E+03   -0.57276E-07   -0.38751E-07  1051   0.127E-03
  77 F= -.62418290E+03 E0= -.62418290E+03  d E =-.706332E-03
       N       E                     dE             d eps       ncg     rms          rms(c)
DAV:   1    -0.616017670888E+03   -0.13725E-03   -0.31871E-01  1452   0.130E+00    0.149E-01
RMM:   2    -0.616018147583E+03   -0.47669E-03   -0.67221E-03  1428   0.184E-01    0.823E-02
RMM:   3    -0.616018059710E+03    0.87872E-04   -0.27800E-04  1433   0.450E-02    0.429E-02
RMM:   4    -0.616018038808E+03    0.20902E-04   -0.10089E-04  1474   0.209E-02    0.714E-03
RMM:   5    -0.616018038464E+03    0.34480E-06   -0.47348E-06  1443   0.509E-03    0.358E-03
RMM:   6    -0.616018038496E+03   -0.32847E-07   -0.76537E-07  1334   0.181E-03
  78 F= -.62418338E+03 E0= -.62418338E+03  d E =-.481314E-03
       N       E                     dE             d eps       ncg     rms          rms(c)
DAV:   1    -0.616017074159E+03    0.96430E-03   -0.12920E+00  1428   0.262E+00    0.299E-01
RMM:   2    -0.616019008027E+03   -0.19339E-02   -0.27272E-02  1428   0.371E-01    0.166E-01
RMM:   3    -0.616018650133E+03    0.35789E-03   -0.11310E-03  1433   0.906E-02    0.864E-02
RMM:   4    -0.616018564363E+03    0.85770E-04   -0.41082E-04  1474   0.421E-02    0.144E-02
RMM:   5    -0.616018562816E+03    0.15466E-05   -0.19402E-05  1444   0.103E-02    0.721E-03
RMM:   6    -0.616018562885E+03   -0.68329E-07   -0.32461E-06  1476   0.365E-03    0.296E-03
RMM:   7    -0.616018562889E+03   -0.39290E-08   -0.56952E-07  1223   0.153E-03
  79 F= -.62418387E+03 E0= -.62418387E+03  d E =-.963844E-03
       N       E                     dE             d eps       ncg     rms          rms(c)
DAV:   1    -0.616018966987E+03   -0.40410E-03   -0.44559E-01  1452   0.154E+00    0.180E-01
RMM:   2    -0.616019617525E+03   -0.65054E-03   -0.94188E-03  1428   0.220E-01    0.998E-02
RMM:   3    -0.616019487780E+03    0.12975E-03   -0.40361E-04  1432   0.541E-02    0.512E-02
RMM:   4    -0.616019456739E+03    0.31041E-04   -0.14919E-04  1481   0.251E-02    0.864E-03
RMM:   5    -0.616019456277E+03    0.46261E-06   -0.73355E-06  1450   0.607E-03    0.443E-03
RMM:   6    -0.616019456296E+03   -0.18990E-07   -0.10886E-06  1414   0.212E-03    0.198E-03
RMM:   7    -0.616019456282E+03    0.13461E-07   -0.25034E-07   957   0.102E-03
  80 F= -.62418450E+03 E0= -.62418450E+03  d E =-.631365E-03
       N       E                     dE             d eps       ncg     rms          rms(c)
DAV:   1    -0.616019531942E+03   -0.75646E-04   -0.26971E-01  1452   0.120E+00    0.140E-01
RMM:   2    -0.616019925326E+03   -0.39338E-03   -0.56997E-03  1428   0.171E-01    0.776E-02
RMM:   3    -0.616019846620E+03    0.78706E-04   -0.24423E-04  1432   0.421E-02    0.399E-02
RMM:   4    -0.616019827806E+03    0.18814E-04   -0.90375E-05  1481   0.195E-02    0.672E-03
RMM:   5    -0.616019827540E+03    0.26663E-06   -0.44560E-06  1451   0.472E-03    0.345E-03
RMM:   6    -0.616019827553E+03   -0.13613E-07   -0.63914E-07  1288   0.165E-03
  81 F= -.62418467E+03 E0= -.62418467E+03  d E =-.800649E-03
       N       E                     dE             d eps       ncg     rms          rms(c)
DAV:   1    -0.616020281373E+03   -0.45383E-03   -0.49960E-01  1440   0.164E+00    0.193E-01
RMM:   2    -0.616021004499E+03   -0.72313E-03   -0.10618E-02  1428   0.233E-01    0.107E-01
RMM:   3    -0.616020859525E+03    0.14497E-03   -0.45434E-04  1432   0.580E-02    0.554E-02
RMM:   4    -0.616020825384E+03    0.34141E-04   -0.17733E-04  1480   0.272E-02    0.979E-03
RMM:   5    -0.616020824424E+03    0.96067E-06   -0.91130E-06  1438   0.668E-03    0.466E-03
RMM:   6    -0.616020824438E+03   -0.14275E-07   -0.11865E-06  1433   0.224E-03    0.227E-03
RMM:   7    -0.616020824449E+03   -0.11452E-07   -0.31889E-07   992   0.115E-03
  82 F= -.62418530E+03 E0= -.62418530E+03  d E =-.635185E-03
       N       E                     dE             d eps       ncg     rms          rms(c)
DAV:   1    -0.616020639382E+03    0.18506E-03   -0.11232E+00  1428   0.245E+00    0.289E-01
RMM:   2    -0.616022263418E+03   -0.16240E-02   -0.23847E-02  1428   0.350E-01    0.160E-01
RMM:   3    -0.616021936599E+03    0.32682E-03   -0.10204E-03  1432   0.869E-02    0.830E-02
RMM:   4    -0.616021859806E+03    0.76793E-04   -0.39763E-04  1479   0.407E-02    0.147E-02
RMM:   5    -0.616021857626E+03    0.21802E-05   -0.20669E-05  1438   0.101E-02    0.696E-03
RMM:   6    -0.616021857661E+03   -0.35703E-07   -0.26572E-06  1485   0.335E-03    0.341E-03
RMM:   7    -0.616021857703E+03   -0.41447E-07   -0.75208E-07  1297   0.168E-03
  83 F= -.62418580E+03 E0= -.62418580E+03  d E =-.113184E-02
       N       E                     dE             d eps       ncg     rms          rms(c)
DAV:   1    -0.616022874783E+03   -0.10171E-02   -0.50147E-01  1440   0.165E+00    0.200E-01
RMM:   2    -0.616023587874E+03   -0.71309E-03   -0.11003E-02  1428   0.240E-01    0.111E-01
RMM:   3    -0.616023440241E+03    0.14763E-03   -0.49625E-04  1428   0.610E-02    0.577E-02
RMM:   4    -0.616023406312E+03    0.33929E-04   -0.18939E-04  1480   0.283E-02    0.116E-02
RMM:   5    -0.616023404544E+03    0.17685E-05   -0.11763E-05  1436   0.750E-03    0.520E-03
RMM:   6    -0.616023404329E+03    0.21431E-06   -0.16226E-06  1453   0.254E-03    0.245E-03
RMM:   7    -0.616023404240E+03    0.89261E-07   -0.44465E-07  1130   0.132E-03
  84 F= -.62418655E+03 E0= -.62418655E+03  d E =-.745473E-03
       N       E                     dE             d eps       ncg     rms          rms(c)
DAV:   1    -0.616023748442E+03   -0.34411E-03   -0.98705E-02  1464   0.730E-01    0.886E-02
RMM:   2    -0.616023889196E+03   -0.14075E-03   -0.21684E-03  1428   0.107E-01    0.491E-02
RMM:   3    -0.616023860169E+03    0.29027E-04   -0.97826E-05  1428   0.271E-02    0.256E-02
RMM:   4    -0.616023853484E+03    0.66850E-05   -0.37524E-05  1480   0.126E-02    0.518E-03
RMM:   5    -0.616023853081E+03    0.40341E-06   -0.23468E-06  1436   0.335E-03    0.233E-03
RMM:   6    -0.616023853006E+03    0.74688E-07   -0.27535E-07   957   0.113E-03
  85 F= -.62418664E+03 E0= -.62418664E+03  d E =-.839879E-03
       N       E                     dE             d eps       ncg     rms          rms(c)
DAV:   1    -0.616025192293E+03   -0.13392E-02   -0.36206E-01  1440   0.140E+00    0.173E-01
RMM:   2    -0.616025652742E+03   -0.46045E-03   -0.77060E-03  1428   0.204E-01    0.947E-02
RMM:   3    -0.616025545560E+03    0.10718E-03   -0.36058E-04  1428   0.516E-02    0.476E-02
RMM:   4    -0.616025521050E+03    0.24510E-04   -0.12336E-04  1488   0.233E-02    0.920E-03
RMM:   5    -0.616025520297E+03    0.75319E-06   -0.64765E-06  1452   0.569E-03    0.453E-03
RMM:   6    -0.616025520092E+03    0.20496E-06   -0.11524E-06  1393   0.209E-03    0.187E-03
RMM:   7    -0.616025520017E+03    0.75168E-07   -0.21261E-07   910   0.102E-03
  86 F= -.62418724E+03 E0= -.62418724E+03  d E =-.602122E-03
       N       E                     dE             d eps       ncg     rms          rms(c)
DAV:   1    -0.616026760745E+03   -0.12407E-02   -0.77970E-01  1428   0.206E+00    0.254E-01
RMM:   2    -0.616027751671E+03   -0.99093E-03   -0.16578E-02  1428   0.300E-01    0.139E-01
RMM:   3    -0.616027520445E+03    0.23123E-03   -0.77618E-04  1428   0.757E-02    0.697E-02
RMM:   4    -0.616027467916E+03    0.52529E-04   -0.26468E-04  1488   0.341E-02    0.135E-02
RMM:   5    -0.616027466403E+03    0.15137E-05   -0.13946E-05  1448   0.835E-03    0.660E-03
RMM:   6    -0.616027466048E+03    0.35418E-06   -0.25029E-06  1465   0.306E-03    0.274E-03
RMM:   7    -0.616027465927E+03    0.12090E-06   -0.49009E-07  1157   0.146E-03    0.855E-04
RMM:   8    -0.616027465897E+03    0.30472E-07   -0.96736E-08   882   0.693E-04
  87 F= -.62418763E+03 E0= -.62418763E+03  d E =-.989774E-03
       N       E                     dE             d eps       ncg     rms          rms(c)
DAV:   1    -0.616028900813E+03   -0.14349E-02   -0.52022E-01  1440   0.168E+00    0.203E-01
RMM:   2    -0.616029516994E+03   -0.61618E-03   -0.10267E-02  1428   0.236E-01    0.115E-01
RMM:   3    -0.616029360171E+03    0.15682E-03   -0.48828E-04  1428   0.596E-02    0.541E-02
RMM:   4    -0.616029330641E+03    0.29530E-04   -0.14730E-04  1488   0.257E-02    0.967E-03
RMM:   5    -0.616029329911E+03    0.73032E-06   -0.77274E-06  1460   0.652E-03    0.481E-03
RMM:   6    -0.616029329834E+03    0.76761E-07   -0.14821E-06  1414   0.237E-03    0.185E-03
RMM:   7    -0.616029329797E+03    0.36471E-07   -0.17178E-07   890   0.988E-04
  88 F= -.62418845E+03 E0= -.62418845E+03  d E =-.818017E-03
       N       E                     dE             d eps       ncg     rms          rms(c)
DAV:   1    -0.616030181163E+03   -0.85133E-03   -0.39101E-01  1428   0.145E+00    0.176E-01
RMM:   2    -0.616030644651E+03   -0.46349E-03   -0.77151E-03  1428   0.204E-01    0.999E-02
RMM:   3    -0.616030526677E+03    0.11797E-03   -0.36678E-04  1428   0.516E-02    0.469E-02
RMM:   4    -0.616030504417E+03    0.22260E-04   -0.11098E-04  1488   0.223E-02    0.838E-03
RMM:   5    -0.616030503853E+03    0.56446E-06   -0.58157E-06  1460   0.566E-03    0.417E-03
RMM:   6    -0.616030503787E+03    0.65913E-07   -0.11161E-06  1392   0.207E-03    0.161E-03
RMM:   7    -0.616030503756E+03    0.30843E-07   -0.13178E-07   882   0.866E-04
  89 F= -.62418872E+03 E0= -.62418872E+03  d E =-.108828E-02
       N       E                     dE             d eps       ncg     rms          rms(c)
DAV:   1    -0.616031914745E+03   -0.14110E-02   -0.69258E-01  1428   0.193E+00    0.235E-01
RMM:   2    -0.616032700602E+03   -0.78586E-03   -0.13084E-02  1428   0.268E-01    0.131E-01
RMM:   3    -0.616032504480E+03    0.19612E-03   -0.62425E-04  1431   0.666E-02    0.625E-02
RMM:   4    -0.616032467934E+03    0.36545E-04   -0.19963E-04  1487   0.294E-02    0.106E-02
RMM:   5    -0.616032466859E+03    0.10757E-05   -0.10040E-05  1469   0.752E-03    0.536E-03
RMM:   6    -0.616032466757E+03    0.10189E-06   -0.20178E-06  1424   0.277E-03    0.208E-03
RMM:   7    -0.616032466743E+03    0.13562E-07   -0.23331E-07   927   0.113E-03
  90 F= -.62418957E+03 E0= -.62418957E+03  d E =-.856683E-03
       N       E                     dE             d eps       ncg     rms          rms(c)
DAV:   1    -0.616033094803E+03   -0.62805E-03   -0.24089E-01  1452   0.114E+00    0.138E-01
RMM:   2    -0.616033368275E+03   -0.27347E-03   -0.45520E-03  1428   0.158E-01    0.773E-02
RMM:   3    -0.616033300037E+03    0.68238E-04   -0.21681E-04  1430   0.393E-02    0.369E-02
RMM:   4    -0.616033287240E+03    0.12797E-04   -0.69716E-05  1486   0.174E-02    0.625E-03
RMM:   5    -0.616033286835E+03    0.40449E-06   -0.35035E-06  1468   0.446E-03    0.318E-03
RMM:   6    -0.616033286785E+03    0.50219E-07   -0.69766E-07  1300   0.165E-03
  91 F= -.62418974E+03 E0= -.62418974E+03  d E =-.102647E-02
       N       E                     dE             d eps       ncg     rms          rms(c)
DAV:   1    -0.616035551505E+03   -0.22647E-02   -0.64503E-01  1428   0.187E+00    0.243E-01
RMM:   2    -0.616036109912E+03   -0.55841E-03   -0.12354E-02  1428   0.269E-01    0.135E-01
RMM:   3    -0.616035891616E+03    0.21830E-03   -0.67200E-04  1428   0.672E-02    0.620E-02
RMM:   4    -0.616035851106E+03    0.40509E-04   -0.19025E-04  1487   0.290E-02    0.120E-02
RMM:   5    -0.616035849948E+03    0.11586E-05   -0.10708E-05  1479   0.771E-03    0.623E-03
RMM:   6    -0.616035849513E+03    0.43524E-06   -0.24787E-06  1433   0.296E-03    0.213E-03
RMM:   7    -0.616035849402E+03    0.11035E-06   -0.28721E-07   976   0.122E-03    0.909E-04
RMM:   8    -0.616035849354E+03    0.48050E-07   -0.15928E-07   882   0.866E-04
  92 F= -.62419055E+03 E0= -.62419055E+03  d E =-.802803E-03
       N       E                     dE             d eps       ncg     rms          rms(c)
DAV:   1    -0.616037011916E+03   -0.11625E-02   -0.25595E-01  1440   0.118E+00    0.153E-01
RMM:   2    -0.616037232684E+03   -0.22077E-03   -0.48950E-03  1428   0.169E-01    0.851E-02
RMM:   3    -0.616037145792E+03    0.86893E-04   -0.26635E-04  1428   0.423E-02    0.390E-02
RMM:   4    -0.616037129593E+03    0.16199E-04   -0.75563E-05  1487   0.183E-02    0.759E-03
RMM:   5    -0.616037129055E+03    0.53792E-06   -0.42579E-06  1478   0.486E-03    0.395E-03
RMM:   6    -0.616037128829E+03    0.22594E-06   -0.98908E-07  1361   0.187E-03    0.133E-03
RMM:   7    -0.616037128770E+03    0.58633E-07   -0.11264E-07   882   0.795E-04
  93 F= -.62419072E+03 E0= -.62419072E+03  d E =-.976123E-03
       N       E                     dE             d eps       ncg     rms          rms(c)
DAV:   1    -0.616039868332E+03   -0.27395E-02   -0.60843E-01  1428   0.183E+00    0.255E-01
RMM:   2    -0.616040280912E+03   -0.41258E-03   -0.12166E-02  1428   0.272E-01    0.141E-01
RMM:   3    -0.616040043479E+03    0.23743E-03   -0.71505E-04  1428   0.682E-02    0.632E-02
RMM:   4    -0.616039999876E+03    0.43602E-04   -0.17384E-04  1487   0.280E-02    0.130E-02
RMM:   5    -0.616039998750E+03    0.11265E-05   -0.11153E-05  1472   0.764E-03    0.643E-03
RMM:   6    -0.616039998235E+03    0.51504E-06   -0.24651E-06  1443   0.296E-03    0.216E-03
RMM:   7    -0.616039998101E+03    0.13422E-06   -0.32109E-07  1005   0.126E-03    0.886E-04
RMM:   8    -0.616039998052E+03    0.48305E-07   -0.16882E-07   882   0.868E-04
  94 F= -.62419151E+03 E0= -.62419151E+03  d E =-.793600E-03
       N       E                     dE             d eps       ncg     rms          rms(c)
DAV:   1    -0.616041212338E+03   -0.12142E-02   -0.17710E-01  1452   0.989E-01    0.138E-01
RMM:   2    -0.616041332590E+03   -0.12025E-03   -0.35425E-03  1428   0.146E-01    0.759E-02
RMM:   3    -0.616041263464E+03    0.69126E-04   -0.20785E-04  1428   0.368E-02    0.341E-02
RMM:   4    -0.616041250660E+03    0.12804E-04   -0.50815E-05  1487   0.151E-02    0.699E-03
RMM:   5    -0.616041250244E+03    0.41604E-06   -0.32583E-06  1475   0.412E-03    0.348E-03
RMM:   6    -0.616041250033E+03    0.21100E-06   -0.71142E-07  1324   0.160E-03    0.117E-03
RMM:   7    -0.616041249979E+03    0.54009E-07   -0.94967E-08   882   0.716E-04
  95 F= -.62419165E+03 E0= -.62419165E+03  d E =-.927998E-03
       N       E                     dE             d eps       ncg     rms          rms(c)
DAV:   1    -0.616043684315E+03   -0.24343E-02   -0.57710E-01  1428   0.177E+00    0.240E-01
RMM:   2    -0.616044092519E+03   -0.40820E-03   -0.11175E-02  1428   0.261E-01    0.134E-01
RMM:   3    -0.616043866112E+03    0.22641E-03   -0.64625E-04  1428   0.644E-02    0.595E-02
RMM:   4    -0.616043827790E+03    0.38322E-04   -0.16533E-04  1488   0.271E-02    0.119E-02
RMM:   5    -0.616043826936E+03    0.85368E-06   -0.10441E-05  1461   0.747E-03    0.570E-03
RMM:   6    -0.616043826735E+03    0.20109E-06   -0.18909E-06  1435   0.277E-03    0.218E-03
RMM:   7    -0.616043826704E+03    0.30541E-07   -0.24928E-07   934   0.115E-03
  96 F= -.62419248E+03 E0= -.62419248E+03  d E =-.827545E-03
       N       E                     dE             d eps       ncg     rms          rms(c)
DAV:   1    -0.616046410056E+03   -0.25833E-02   -0.10211E+00  1428   0.236E+00    0.319E-01
RMM:   2    -0.616047135433E+03   -0.72538E-03   -0.19766E-02  1428   0.347E-01    0.178E-01
RMM:   3    -0.616046735036E+03    0.40040E-03   -0.11438E-03  1429   0.856E-02    0.791E-02
RMM:   4    -0.616046667453E+03    0.67583E-04   -0.29154E-04  1485   0.360E-02    0.158E-02
RMM:   5    -0.616046666075E+03    0.13780E-05   -0.18557E-05  1460   0.999E-03    0.756E-03
RMM:   6    -0.616046665784E+03    0.29040E-06   -0.33725E-06  1455   0.371E-03    0.290E-03
RMM:   7    -0.616046665749E+03    0.34892E-07   -0.48165E-07  1148   0.151E-03
  97 F= -.62419300E+03 E0= -.62419300E+03  d E =-.134856E-02
       N       E                     dE             d eps       ncg     rms          rms(c)
DAV:   1    -0.616049207607E+03   -0.25418E-02   -0.82304E-01  1428   0.211E+00    0.287E-01
RMM:   2    -0.616049732274E+03   -0.52467E-03   -0.14957E-02  1428   0.303E-01    0.162E-01
RMM:   3    -0.616049391694E+03    0.34058E-03   -0.92792E-04  1428   0.753E-02    0.690E-02
RMM:   4    -0.616049339135E+03    0.52559E-04   -0.21563E-04  1487   0.316E-02    0.141E-02
RMM:   5    -0.616049337947E+03    0.11873E-05   -0.15040E-05  1466   0.891E-03    0.680E-03
RMM:   6    -0.616049337669E+03    0.27855E-06   -0.26895E-06  1451   0.334E-03    0.248E-03
RMM:   7    -0.616049337608E+03    0.60518E-07   -0.36390E-07  1048   0.130E-03
  98 F= -.62419399E+03 E0= -.62419399E+03  d E =-.997851E-03
       N       E                     dE             d eps       ncg     rms          rms(c)
DAV:   1    -0.616050511393E+03   -0.11737E-02   -0.31136E-01  1440   0.130E+00    0.176E-01
RMM:   2    -0.616050710055E+03   -0.19866E-03   -0.56556E-03  1428   0.186E-01    0.998E-02
RMM:   3    -0.616050581032E+03    0.12902E-03   -0.35049E-04  1428   0.464E-02    0.425E-02
RMM:   4    -0.616050560972E+03    0.20060E-04   -0.81700E-05  1487   0.194E-02    0.864E-03
RMM:   5    -0.616050560453E+03    0.51897E-06   -0.56779E-06  1466   0.548E-03    0.420E-03
RMM:   6    -0.616050560306E+03    0.14643E-06   -0.10112E-06  1375   0.206E-03    0.151E-03
RMM:   7    -0.616050560271E+03    0.34721E-07   -0.13096E-07   882   0.834E-04
  99 F= -.62419419E+03 E0= -.62419419E+03  d E =-.119491E-02
       N       E                     dE             d eps       ncg     rms          rms(c)
DAV:   1    -0.616052817670E+03   -0.22574E-02   -0.99803E-01  1428   0.231E+00    0.309E-01
RMM:   2    -0.616053363912E+03   -0.54624E-03   -0.16332E-02  1428   0.313E-01    0.176E-01
RMM:   3    -0.616052970490E+03    0.39342E-03   -0.10376E-03  1428   0.794E-02    0.724E-02
RMM:   4    -0.616052915181E+03    0.55309E-04   -0.22511E-04  1488   0.329E-02    0.148E-02
RMM:   5    -0.616052914202E+03    0.97873E-06   -0.16267E-05  1477   0.913E-03    0.739E-03
RMM:   6    -0.616052913952E+03    0.25091E-06   -0.30182E-06  1440   0.355E-03    0.252E-03
RMM:   7    -0.616052913881E+03    0.70482E-07   -0.36550E-07  1049   0.135E-03
 100 F= -.62419516E+03 E0= -.62419516E+03  d E =-.970082E-03
       N       E                     dE             d eps       ncg     rms          rms(c)
DAV:   1    -0.616054560378E+03   -0.16464E-02   -0.90165E-01  1428   0.220E+00    0.293E-01
RMM:   2    -0.616055055005E+03   -0.49463E-03   -0.14746E-02  1428   0.297E-01    0.168E-01
RMM:   3    -0.616054699745E+03    0.35526E-03   -0.93645E-04  1428   0.755E-02    0.688E-02
RMM:   4    -0.616054649774E+03    0.49971E-04   -0.20334E-04  1488   0.313E-02    0.141E-02
RMM:   5    -0.616054648868E+03    0.90621E-06   -0.14683E-05  1475   0.867E-03    0.703E-03
RMM:   6    -0.616054648619E+03    0.24830E-06   -0.27315E-06  1440   0.337E-03    0.239E-03
RMM:   7    -0.616054648549E+03    0.70635E-07   -0.33194E-07  1015   0.129E-03
 101 F= -.62419559E+03 E0= -.62419559E+03  d E =-.139856E-02
       N       E                     dE             d eps       ncg     rms          rms(c)
DAV:   1    -0.616057710606E+03   -0.30620E-02   -0.12230E+00  1428   0.257E+00    0.333E-01
RMM:   2    -0.616058461143E+03   -0.75054E-03   -0.20470E-02  1428   0.353E-01    0.188E-01
RMM:   3    -0.616058023402E+03    0.43774E-03   -0.12003E-03  1429   0.871E-02    0.817E-02
RMM:   4    -0.616057953226E+03    0.70176E-04   -0.30152E-04  1484   0.372E-02    0.156E-02
RMM:   5    -0.616057951923E+03    0.13031E-05   -0.18898E-05  1481   0.101E-02    0.794E-03
RMM:   6    -0.616057951531E+03    0.39173E-06   -0.36083E-06  1448   0.379E-03    0.277E-03
RMM:   7    -0.616057951470E+03    0.61322E-07   -0.46401E-07  1137   0.148E-03
 102 F= -.62419683E+03 E0= -.62419683E+03  d E =-.123528E-02
       N       E                     dE             d eps       ncg     rms          rms(c)
DAV:   1    -0.616059514546E+03   -0.15630E-02   -0.54462E-01  1428   0.171E+00    0.222E-01
RMM:   2    -0.616059849547E+03   -0.33500E-03   -0.91119E-03  1428   0.235E-01    0.125E-01
RMM:   3    -0.616059654726E+03    0.19482E-03   -0.53336E-04  1429   0.582E-02    0.545E-02
RMM:   4    -0.616059623361E+03    0.31364E-04   -0.13469E-04  1485   0.249E-02    0.104E-02
RMM:   5    -0.616059622686E+03    0.67572E-06   -0.84007E-06  1482   0.675E-03    0.532E-03
RMM:   6    -0.616059622459E+03    0.22676E-06   -0.16046E-06  1408   0.252E-03    0.184E-03
RMM:   7    -0.616059622418E+03    0.40855E-07   -0.18623E-07   892   0.100E-03
 103 F= -.62419712E+03 E0= -.62419712E+03  d E =-.153258E-02
       N       E                     dE             d eps       ncg     rms          rms(c)
DAV:   1    -0.616062721041E+03   -0.30986E-02   -0.10406E+00  1428   0.238E+00    0.315E-01
RMM:   2    -0.616063353116E+03   -0.63207E-03   -0.18215E-02  1428   0.336E-01    0.178E-01
RMM:   3    -0.616062960419E+03    0.39270E-03   -0.10902E-03  1428   0.825E-02    0.783E-02
RMM:   4    -0.616062894117E+03    0.66302E-04   -0.26765E-04  1490   0.350E-02    0.159E-02
RMM:   5    -0.616062892604E+03    0.15133E-05   -0.18793E-05  1468   0.977E-03    0.779E-03
RMM:   6    -0.616062892066E+03    0.53793E-06   -0.32910E-06  1446   0.364E-03    0.285E-03
RMM:   7    -0.616062891914E+03    0.15184E-06   -0.55110E-07  1190   0.151E-03    0.100E-03
RMM:   8    -0.616062891859E+03    0.55134E-07   -0.15765E-07   884   0.801E-04
 104 F= -.62419818E+03 E0= -.62419818E+03  d E =-.105873E-02
       N       E                     dE             d eps       ncg     rms          rms(c)
DAV:   1    -0.616065984996E+03   -0.30931E-02   -0.16252E+00  1428   0.298E+00    0.393E-01
RMM:   2    -0.616066976260E+03   -0.99126E-03   -0.28442E-02  1428   0.420E-01    0.223E-01
RMM:   3    -0.616066363828E+03    0.61243E-03   -0.17014E-03  1428   0.103E-01    0.979E-02
RMM:   4    -0.616066260428E+03    0.10340E-03   -0.41756E-04  1490   0.437E-02    0.199E-02
RMM:   5    -0.616066258166E+03    0.22613E-05   -0.29376E-05  1467   0.122E-02    0.972E-03
RMM:   6    -0.616066257400E+03    0.76644E-06   -0.51316E-06  1447   0.455E-03    0.357E-03
RMM:   7    -0.616066257187E+03    0.21274E-06   -0.89846E-07  1356   0.188E-03    0.125E-03
RMM:   8    -0.616066257098E+03    0.89105E-07   -0.22810E-07   928   0.886E-04
 105 F= -.62419880E+03 E0= -.62419880E+03  d E =-.167532E-02
       N       E                     dE             d eps       ncg     rms          rms(c)
DAV:   1    -0.616068939545E+03   -0.26824E-02   -0.11363E+00  1428   0.248E+00    0.336E-01
RMM:   2    -0.616069766730E+03   -0.82719E-03   -0.20924E-02  1428   0.356E-01    0.192E-01
RMM:   3    -0.616069306091E+03    0.46064E-03   -0.12214E-03  1428   0.886E-02    0.836E-02
RMM:   4    -0.616069229709E+03    0.76382E-04   -0.30583E-04  1488   0.373E-02    0.166E-02
RMM:   5    -0.616069228066E+03    0.16433E-05   -0.22775E-05  1451   0.106E-02    0.781E-03
RMM:   6    -0.616069227673E+03    0.39302E-06   -0.33006E-06  1457   0.385E-03    0.304E-03
RMM:   7    -0.616069227538E+03    0.13487E-06   -0.66272E-07  1278   0.159E-03    0.102E-03
RMM:   8    -0.616069227479E+03    0.58844E-07   -0.14338E-07   889   0.747E-04
 106 F= -.62420000E+03 E0= -.62420000E+03  d E =-.120059E-02
       N       E                     dE             d eps       ncg     rms          rms(c)
DAV:   1    -0.616070572376E+03   -0.13448E-02   -0.52907E-01  1428   0.170E+00    0.229E-01
RMM:   2    -0.616070957896E+03   -0.38552E-03   -0.97389E-03  1428   0.243E-01    0.131E-01
RMM:   3    -0.616070743636E+03    0.21426E-03   -0.56731E-04  1428   0.605E-02    0.571E-02
RMM:   4    -0.616070707974E+03    0.35662E-04   -0.14254E-04  1488   0.255E-02    0.113E-02
RMM:   5    -0.616070707169E+03    0.80519E-06   -0.10554E-05  1452   0.722E-03    0.534E-03
RMM:   6    -0.616070706955E+03    0.21372E-06   -0.15269E-06  1440   0.262E-03    0.207E-03
RMM:   7    -0.616070706877E+03    0.78238E-07   -0.27903E-07   970   0.109E-03
 107 F= -.62420028E+03 E0= -.62420028E+03  d E =-.147887E-02
       N       E                     dE             d eps       ncg     rms          rms(c)
DAV:   1    -0.616072825431E+03   -0.21185E-02   -0.75214E-01  1428   0.202E+00    0.273E-01
RMM:   2    -0.616073368289E+03   -0.54286E-03   -0.13719E-02  1428   0.290E-01    0.156E-01
RMM:   3    -0.616073060128E+03    0.30816E-03   -0.80030E-04  1428   0.714E-02    0.665E-02
RMM:   4    -0.616073013564E+03    0.46564E-04   -0.19496E-04  1488   0.300E-02    0.128E-02
RMM:   5    -0.616073012734E+03    0.82952E-06   -0.14366E-05  1454   0.830E-03    0.617E-03
RMM:   6    -0.616073012614E+03    0.12002E-06   -0.20470E-06  1459   0.302E-03    0.239E-03
RMM:   7    -0.616073012589E+03    0.25200E-07   -0.32126E-07   994   0.121E-03
 108 F= -.62420128E+03 E0= -.62420128E+03  d E =-.100318E-02
       N       E                     dE             d eps       ncg     rms          rms(c)
DAV:   1    -0.616075313144E+03   -0.23005E-02   -0.17018E+00  1428   0.304E+00    0.410E-01
RMM:   2    -0.616076546727E+03   -0.12336E-02   -0.31038E-02  1428   0.437E-01    0.235E-01
RMM:   3    -0.616075849902E+03    0.69683E-03   -0.18102E-03  1428   0.107E-01    0.100E-01
RMM:   4    -0.616075745004E+03    0.10490E-03   -0.44048E-04  1488   0.451E-02    0.193E-02
RMM:   5    -0.616075743264E+03    0.17402E-05   -0.32603E-05  1450   0.125E-02    0.924E-03
RMM:   6    -0.616075743079E+03    0.18436E-06   -0.46268E-06  1458   0.454E-03    0.359E-03
RMM:   7    -0.616075743059E+03    0.20031E-07   -0.82343E-07  1350   0.183E-03
 109 F= -.62420207E+03 E0= -.62420207E+03  d E =-.178808E-02
       N       E                     dE             d eps       ncg     rms          rms(c)
DAV:   1    -0.616076522040E+03   -0.77896E-03   -0.27217E-01  1464   0.121E+00    0.164E-01
RMM:   2    -0.616076719166E+03   -0.19713E-03   -0.49618E-03  1428   0.174E-01    0.941E-02
RMM:   3    -0.616076607491E+03    0.11168E-03   -0.28918E-04  1428   0.430E-02    0.400E-02
RMM:   4    -0.616076590522E+03    0.16969E-04   -0.70729E-05  1488   0.180E-02    0.774E-03
RMM:   5    -0.616076590176E+03    0.34549E-06   -0.52132E-06  1454   0.501E-03    0.373E-03
RMM:   6    -0.616076590105E+03    0.71646E-07   -0.72911E-07  1332   0.182E-03
 110 F= -.62420214E+03 E0= -.62420214E+03  d E =-.186173E-02
       N       E                     dE             d eps       ncg     rms          rms(c)
DAV:   1    -0.616079000003E+03   -0.24098E-02   -0.15638E+00  1428   0.290E+00    0.389E-01
RMM:   2    -0.616080043097E+03   -0.10431E-02   -0.27129E-02  1428   0.407E-01    0.224E-01
RMM:   3    -0.616079396711E+03    0.64639E-03   -0.16471E-03  1428   0.101E-01    0.926E-02
RMM:   4    -0.616079305685E+03    0.91027E-04   -0.39188E-04  1488   0.426E-02    0.181E-02
RMM:   5    -0.616079304353E+03    0.13318E-05   -0.27517E-05  1475   0.118E-02    0.944E-03
RMM:   6    -0.616079303846E+03    0.50713E-06   -0.50155E-06  1452   0.449E-03    0.323E-03
RMM:   7    -0.616079303745E+03    0.10083E-06   -0.73380E-07  1310   0.176E-03    0.122E-03
RMM:   8    -0.616079303688E+03    0.57495E-07   -0.19727E-07   896   0.857E-04
 111 F= -.62420342E+03 E0= -.62420342E+03  d E =-.128460E-02
       N       E                     dE             d eps       ncg     rms          rms(c)
DAV:   1    -0.616080968515E+03   -0.16648E-02   -0.16998E+00  1428   0.302E+00    0.406E-01
RMM:   2    -0.616082103184E+03   -0.11347E-02   -0.29455E-02  1428   0.424E-01    0.234E-01
RMM:   3    -0.616081400684E+03    0.70250E-03   -0.17873E-03  1428   0.105E-01    0.964E-02
RMM:   4    -0.616081301970E+03    0.98714E-04   -0.42498E-04  1489   0.444E-02    0.188E-02
RMM:   5    -0.616081300538E+03    0.14320E-05   -0.29772E-05  1472   0.123E-02    0.982E-03
RMM:   6    -0.616081300004E+03    0.53395E-06   -0.54236E-06  1453   0.466E-03    0.335E-03
RMM:   7    -0.616081299899E+03    0.10536E-06   -0.79426E-07  1325   0.182E-03    0.126E-03
RMM:   8    -0.616081299836E+03    0.62530E-07   -0.21162E-07   911   0.879E-04
 112 F= -.62420395E+03 E0= -.62420395E+03  d E =-.180737E-02
       N       E                     dE             d eps       ncg     rms          rms(c)
DAV:   1    -0.616083656075E+03   -0.23562E-02   -0.19531E+00  1428   0.324E+00    0.442E-01
RMM:   2    -0.616084783671E+03   -0.11276E-02   -0.32260E-02  1428   0.443E-01    0.254E-01
RMM:   3    -0.616083954017E+03    0.82965E-03   -0.20050E-03  1428   0.111E-01    0.103E-01
RMM:   4    -0.616083841812E+03    0.11220E-03   -0.46982E-04  1485   0.473E-02    0.198E-02
RMM:   5    -0.616083841052E+03    0.75990E-06   -0.31279E-05  1495   0.127E-02    0.108E-02
RMM:   6    -0.616083840613E+03    0.43915E-06   -0.60754E-06  1444   0.492E-03    0.341E-03
RMM:   7    -0.616083840481E+03    0.13229E-06   -0.77811E-07  1337   0.184E-03    0.132E-03
RMM:   8    -0.616083840381E+03    0.99950E-07   -0.30841E-07  1013   0.101E-03
 113 F= -.62420549E+03 E0= -.62420549E+03  d E =-.154630E-02
       N       E                     dE             d eps       ncg     rms          rms(c)
DAV:   1    -0.616084865908E+03   -0.10254E-02   -0.11716E+00  1428   0.251E+00    0.342E-01
RMM:   2    -0.616085543293E+03   -0.67738E-03   -0.19342E-02  1428   0.343E-01    0.196E-01
RMM:   3    -0.616085045686E+03    0.49761E-03   -0.12011E-03  1428   0.858E-02    0.794E-02
RMM:   4    -0.616084978581E+03    0.67105E-04   -0.28196E-04  1485   0.366E-02    0.153E-02
RMM:   5    -0.616084978086E+03    0.49468E-06   -0.18718E-05  1494   0.982E-03    0.840E-03
RMM:   6    -0.616084977795E+03    0.29100E-06   -0.36774E-06  1445   0.383E-03    0.264E-03
RMM:   7    -0.616084977701E+03    0.93965E-07   -0.43967E-07  1120   0.143E-03
 114 F= -.62420587E+03 E0= -.62420587E+03  d E =-.192723E-02
       N       E                     dE             d eps       ncg     rms          rms(c)
DAV:   1    -0.616085810132E+03   -0.83234E-03   -0.13970E+00  1428   0.273E+00    0.368E-01
RMM:   2    -0.616086640772E+03   -0.83064E-03   -0.22290E-02  1428   0.367E-01    0.214E-01
RMM:   3    -0.616086054460E+03    0.58631E-03   -0.13777E-03  1429   0.921E-02    0.828E-02
RMM:   4    -0.616085986868E+03    0.67591E-04   -0.31806E-04  1488   0.391E-02    0.154E-02
RMM:   5    -0.616085986540E+03    0.32828E-06   -0.21000E-05  1485   0.103E-02    0.833E-03
RMM:   6    -0.616085986610E+03   -0.69806E-07   -0.36710E-06  1445   0.388E-03    0.275E-03
RMM:   7    -0.616085986627E+03   -0.17142E-07   -0.44239E-07  1139   0.146E-03
 115 F= -.62420692E+03 E0= -.62420692E+03  d E =-.104568E-02
       N       E                     dE             d eps       ncg     rms          rms(c)
DAV:   1    -0.616086065277E+03   -0.78667E-04   -0.39598E-01  1464   0.145E+00    0.196E-01
RMM:   2    -0.616086300088E+03   -0.23481E-03   -0.63112E-03  1428   0.195E-01    0.114E-01
RMM:   3    -0.616086133902E+03    0.16619E-03   -0.39009E-04  1429   0.490E-02    0.441E-02
RMM:   4    -0.616086114737E+03    0.19165E-04   -0.90195E-05  1487   0.208E-02    0.818E-03
RMM:   5    -0.616086114657E+03    0.80556E-07   -0.59491E-06  1488   0.549E-03    0.445E-03
RMM:   6    -0.616086114678E+03   -0.21118E-07   -0.10342E-06  1373   0.208E-03    0.144E-03
RMM:   7    -0.616086114678E+03   -0.73487E-09   -0.11575E-07   882   0.798E-04
 116 F= -.62420707E+03 E0= -.62420707E+03  d E =-.119911E-02
       N       E                     dE             d eps       ncg     rms          rms(c)
DAV:   1    -0.616085951586E+03    0.16309E-03   -0.13772E+00  1428   0.270E+00    0.357E-01
RMM:   2    -0.616086860759E+03   -0.90917E-03   -0.22312E-02  1428   0.368E-01    0.210E-01
RMM:   3    -0.616086287666E+03    0.57309E-03   -0.13875E-03  1428   0.922E-02    0.804E-02
RMM:   4    -0.616086223868E+03    0.63798E-04   -0.31349E-04  1488   0.385E-02    0.152E-02
RMM:   5    -0.616086223650E+03    0.21761E-06   -0.20195E-05  1486   0.103E-02    0.844E-03
RMM:   6    -0.616086223756E+03   -0.10591E-06   -0.42644E-06  1436   0.398E-03    0.244E-03
RMM:   7    -0.616086223771E+03   -0.15199E-07   -0.41321E-07  1100   0.148E-03
 117 F= -.62420818E+03 E0= -.62420818E+03  d E =-.110488E-02
       N       E                     dE             d eps       ncg     rms          rms(c)
DAV:   1    -0.616085394457E+03    0.82930E-03   -0.11250E+00  1428   0.244E+00    0.323E-01
RMM:   2    -0.616086135391E+03   -0.74093E-03   -0.18211E-02  1428   0.332E-01    0.190E-01
RMM:   3    -0.616085667661E+03    0.46773E-03   -0.11334E-03  1428   0.834E-02    0.727E-02
RMM:   4    -0.616085615465E+03    0.52197E-04   -0.25605E-04  1488   0.348E-02    0.138E-02
RMM:   5    -0.616085615309E+03    0.15573E-06   -0.16503E-05  1486   0.935E-03    0.764E-03
RMM:   6    -0.616085615401E+03   -0.92390E-07   -0.34938E-06  1436   0.361E-03    0.221E-03
RMM:   7    -0.616085615410E+03   -0.86729E-08   -0.32822E-07  1013   0.134E-03
 118 F= -.62420848E+03 E0= -.62420848E+03  d E =-.140806E-02
       N       E                     dE             d eps       ncg     rms          rms(c)
DAV:   1    -0.616085244028E+03    0.37137E-03   -0.15214E+00  1428   0.285E+00    0.391E-01
RMM:   2    -0.616086182045E+03   -0.93802E-03   -0.25415E-02  1428   0.393E-01    0.228E-01
RMM:   3    -0.616085492650E+03    0.68940E-03   -0.15880E-03  1428   0.994E-02    0.877E-02
RMM:   4    -0.616085413871E+03    0.78780E-04   -0.36572E-04  1487   0.413E-02    0.164E-02
RMM:   5    -0.616085413312E+03    0.55876E-06   -0.25469E-05  1469   0.113E-02    0.884E-03
RMM:   6    -0.616085413440E+03   -0.12816E-06   -0.47106E-06  1451   0.422E-03    0.299E-03
RMM:   7    -0.616085413431E+03    0.91350E-08   -0.56416E-07  1227   0.164E-03
 119 F= -.62420955E+03 E0= -.62420955E+03  d E =-.107228E-02
       N       E                     dE             d eps       ncg     rms          rms(c)
DAV:   1    -0.616084626020E+03    0.78742E-03   -0.83660E-01  1440   0.212E+00    0.290E-01
RMM:   2    -0.616085140394E+03   -0.51437E-03   -0.13972E-02  1428   0.292E-01    0.169E-01
RMM:   3    -0.616084760978E+03    0.37942E-03   -0.87489E-04  1428   0.737E-02    0.649E-02
RMM:   4    -0.616084717977E+03    0.43000E-04   -0.20066E-04  1487   0.306E-02    0.122E-02
RMM:   5    -0.616084717702E+03    0.27554E-06   -0.14034E-05  1468   0.837E-03    0.656E-03
RMM:   6    -0.616084717784E+03   -0.82633E-07   -0.26144E-06  1450   0.315E-03    0.221E-03
RMM:   7    -0.616084717768E+03    0.16342E-07   -0.28494E-07   967   0.122E-03
 120 F= -.62420981E+03 E0= -.62420981E+03  d E =-.133194E-02
       N       E                     dE             d eps       ncg     rms          rms(c)
DAV:   1    -0.616084470752E+03    0.24703E-03   -0.16755E+00  1428   0.299E+00    0.402E-01
RMM:   2    -0.616085592833E+03   -0.11221E-02   -0.28080E-02  1428   0.412E-01    0.232E-01
RMM:   3    -0.616084879248E+03    0.71359E-03   -0.16364E-03  1429   0.102E-01    0.930E-02
RMM:   4    -0.616084789550E+03    0.89698E-04   -0.42484E-04  1482   0.443E-02    0.164E-02
RMM:   5    -0.616084789030E+03    0.51984E-06   -0.25566E-05  1483   0.117E-02    0.895E-03
RMM:   6    -0.616084789141E+03   -0.11148E-06   -0.47562E-06  1456   0.432E-03    0.295E-03
RMM:   7    -0.616084789146E+03   -0.41837E-08   -0.53612E-07  1227   0.159E-03
 121 F= -.62421108E+03 E0= -.62421108E+03  d E =-.126751E-02
       N       E                     dE             d eps       ncg     rms          rms(c)
DAV:   1    -0.616083995128E+03    0.79401E-03   -0.10711E+00  1428   0.239E+00    0.322E-01
RMM:   2    -0.616084710923E+03   -0.71579E-03   -0.17945E-02  1428   0.329E-01    0.185E-01
RMM:   3    -0.616084254664E+03    0.45626E-03   -0.10474E-03  1429   0.813E-02    0.743E-02
RMM:   4    -0.616084197417E+03    0.57247E-04   -0.27161E-04  1483   0.354E-02    0.131E-02
RMM:   5    -0.616084197095E+03    0.32144E-06   -0.16369E-05  1483   0.936E-03    0.717E-03
RMM:   6    -0.616084197171E+03   -0.76143E-07   -0.30591E-06  1455   0.346E-03    0.237E-03
RMM:   7    -0.616084197163E+03    0.85238E-08   -0.32039E-07  1003   0.127E-03
 122 F= -.62421146E+03 E0= -.62421146E+03  d E =-.164410E-02
       N       E                     dE             d eps       ncg     rms          rms(c)
DAV:   1    -0.616083122759E+03    0.10744E-02   -0.22247E+00  1428   0.344E+00    0.462E-01
RMM:   2    -0.616084558412E+03   -0.14357E-02   -0.37002E-02  1428   0.471E-01    0.265E-01
RMM:   3    -0.616083634313E+03    0.92410E-03   -0.22145E-03  1428   0.117E-01    0.108E-01
RMM:   4    -0.616083512412E+03    0.12190E-03   -0.54919E-04  1482   0.508E-02    0.199E-02
RMM:   5    -0.616083511834E+03    0.57795E-06   -0.33333E-05  1481   0.135E-02    0.108E-02
RMM:   6    -0.616083512140E+03   -0.30670E-06   -0.70664E-06  1452   0.522E-03    0.346E-03
RMM:   7    -0.616083512108E+03    0.32443E-07   -0.68092E-07  1302   0.186E-03
 123 F= -.62421280E+03 E0= -.62421280E+03  d E =-.134672E-02
       N       E                     dE             d eps       ncg     rms          rms(c)
DAV:   1    -0.616082543341E+03    0.96880E-03   -0.58205E-01  1452   0.176E+00    0.236E-01
RMM:   2    -0.616082917919E+03   -0.37458E-03   -0.96766E-03  1428   0.241E-01    0.136E-01
RMM:   3    -0.616082676272E+03    0.24165E-03   -0.58061E-04  1428   0.598E-02    0.551E-02
RMM:   4    -0.616082644648E+03    0.31624E-04   -0.14383E-04  1483   0.260E-02    0.102E-02
RMM:   5    -0.616082644565E+03    0.82659E-07   -0.87310E-06  1481   0.687E-03    0.552E-03
RMM:   6    -0.616082644686E+03   -0.12004E-06   -0.18814E-06  1442   0.269E-03    0.177E-03
RMM:   7    -0.616082644664E+03    0.21835E-07   -0.15349E-07   889   0.963E-04
 124 F= -.62421298E+03 E0= -.62421298E+03  d E =-.152711E-02
       N       E                     dE             d eps       ncg     rms          rms(c)
DAV:   1    -0.616080996395E+03    0.16483E-02   -0.24168E+00  1440   0.358E+00    0.487E-01
RMM:   2    -0.616082298511E+03   -0.13021E-02   -0.39680E-02  1428   0.490E-01    0.281E-01
RMM:   3    -0.616081237344E+03    0.10612E-02   -0.24312E-03  1428   0.122E-01    0.108E-01
RMM:   4    -0.616081113798E+03    0.12355E-03   -0.56328E-04  1485   0.519E-02    0.196E-02
RMM:   5    -0.616081114478E+03   -0.68074E-06   -0.29803E-05  1500   0.129E-02    0.114E-02
RMM:   6    -0.616081115169E+03   -0.69050E-06   -0.75904E-06  1442   0.543E-03    0.286E-03
RMM:   7    -0.616081115127E+03    0.42113E-07   -0.51411E-07  1208   0.174E-03
 125 F= -.62421424E+03 E0= -.62421424E+03  d E =-.125256E-02
       N       E                     dE             d eps       ncg     rms          rms(c)
DAV:   1    -0.616079293543E+03    0.18216E-02   -0.12840E+00  1440   0.261E+00    0.355E-01
RMM:   2    -0.616079980389E+03   -0.68685E-03   -0.21056E-02  1428   0.358E-01    0.205E-01
RMM:   3    -0.616079417047E+03    0.56334E-03   -0.12939E-03  1428   0.890E-02    0.785E-02
RMM:   4    -0.616079351421E+03    0.65626E-04   -0.29939E-04  1486   0.379E-02    0.144E-02
RMM:   5    -0.616079351854E+03   -0.43297E-06   -0.15863E-05  1500   0.941E-03    0.831E-03
RMM:   6    -0.616079352281E+03   -0.42732E-06   -0.40487E-06  1441   0.397E-03    0.209E-03
RMM:   7    -0.616079352244E+03    0.36802E-07   -0.24328E-07   922   0.128E-03
 126 F= -.62421452E+03 E0= -.62421452E+03  d E =-.153437E-02
       N       E                     dE             d eps       ncg     rms          rms(c)
DAV:   1    -0.616078213191E+03    0.11391E-02   -0.19447E+00  1440   0.321E+00    0.437E-01
RMM:   2    -0.616079363551E+03   -0.11504E-02   -0.32602E-02  1428   0.445E-01    0.253E-01
RMM:   3    -0.616078492393E+03    0.87116E-03   -0.19522E-03  1428   0.110E-01    0.959E-02
RMM:   4    -0.616078393911E+03    0.98482E-04   -0.45616E-04  1487   0.468E-02    0.173E-02
RMM:   5    -0.616078394187E+03   -0.27532E-06   -0.24418E-05  1492   0.116E-02    0.983E-03
RMM:   6    -0.616078394769E+03   -0.58204E-06   -0.55169E-06  1446   0.464E-03    0.269E-03
RMM:   7    -0.616078394774E+03   -0.52241E-08   -0.41040E-07  1078   0.157E-03
 127 F= -.62421579E+03 E0= -.62421579E+03  d E =-.127439E-02
       N       E                     dE             d eps       ncg     rms          rms(c)
DAV:   1    -0.616076403341E+03    0.19914E-02   -0.19221E+00  1440   0.319E+00    0.435E-01
RMM:   2    -0.616077537108E+03   -0.11338E-02   -0.32246E-02  1428   0.443E-01    0.251E-01
RMM:   3    -0.616076674982E+03    0.86213E-03   -0.19332E-03  1428   0.110E-01    0.954E-02
RMM:   4    -0.616076577575E+03    0.97407E-04   -0.45116E-04  1487   0.465E-02    0.173E-02
RMM:   5    -0.616076577826E+03   -0.25123E-06   -0.24234E-05  1492   0.116E-02    0.977E-03
RMM:   6    -0.616076578403E+03   -0.57644E-06   -0.54653E-06  1445   0.462E-03    0.269E-03
RMM:   7    -0.616076578407E+03   -0.43001E-08   -0.41056E-07  1079   0.157E-03
 128 F= -.62421622E+03 E0= -.62421622E+03  d E =-.169846E-02
       N       E                     dE             d eps       ncg     rms          rms(c)
DAV:   1    -0.616075845964E+03    0.73244E-03   -0.24468E+00  1440   0.361E+00    0.492E-01
RMM:   2    -0.616077422217E+03   -0.15763E-02   -0.41987E-02  1428   0.503E-01    0.286E-01
RMM:   3    -0.616076295067E+03    0.11272E-02   -0.25678E-03  1428   0.126E-01    0.109E-01
RMM:   4    -0.616076167265E+03    0.12780E-03   -0.58393E-04  1488   0.526E-02    0.207E-02
RMM:   5    -0.616076166905E+03    0.36061E-06   -0.35911E-05  1480   0.138E-02    0.115E-02
RMM:   6    -0.616076167262E+03   -0.35788E-06   -0.83320E-06  1448   0.554E-03    0.327E-03
RMM:   7    -0.616076167210E+03    0.52252E-07   -0.75313E-07  1321   0.198E-03
 129 F= -.62421756E+03 E0= -.62421756E+03  d E =-.134730E-02
       N       E                     dE             d eps       ncg     rms          rms(c)
DAV:   1    -0.616074332937E+03    0.18343E-02   -0.29368E+00  1440   0.395E+00    0.539E-01
RMM:   2    -0.616076223625E+03   -0.18907E-02   -0.50464E-02  1428   0.551E-01    0.314E-01
RMM:   3    -0.616074868950E+03    0.13547E-02   -0.30894E-03  1428   0.138E-01    0.119E-01
RMM:   4    -0.616074715076E+03    0.15387E-03   -0.70083E-04  1487   0.577E-02    0.228E-02
RMM:   5    -0.616074714586E+03    0.48939E-06   -0.43405E-05  1480   0.151E-02    0.126E-02
RMM:   6    -0.616074714993E+03   -0.40671E-06   -0.10051E-05  1447   0.609E-03    0.360E-03
RMM:   7    -0.616074714929E+03    0.63919E-07   -0.92182E-07  1360   0.218E-03
 130 F= -.62421807E+03 E0= -.62421807E+03  d E =-.185262E-02
       N       E                     dE             d eps       ncg     rms          rms(c)
DAV:   1    -0.616074455216E+03    0.25978E-03   -0.19499E+00  1440   0.322E+00    0.436E-01
RMM:   2    -0.616075767840E+03   -0.13126E-02   -0.33681E-02  1428   0.449E-01    0.254E-01
RMM:   3    -0.616074878083E+03    0.88976E-03   -0.20136E-03  1429   0.112E-01    0.983E-02
RMM:   4    -0.616074774372E+03    0.10371E-03   -0.48373E-04  1485   0.477E-02    0.185E-02
RMM:   5    -0.616074773982E+03    0.38982E-06   -0.29815E-05  1483   0.126E-02    0.101E-02
RMM:   6    -0.616074774205E+03   -0.22260E-06   -0.59142E-06  1454   0.478E-03    0.309E-03
RMM:   7    -0.616074774192E+03    0.12478E-07   -0.59491E-07  1273   0.173E-03
 131 F= -.62421930E+03 E0= -.62421930E+03  d E =-.122882E-02
       N       E                     dE             d eps       ncg     rms          rms(c)
DAV:   1    -0.616073310801E+03    0.14634E-02   -0.31706E+00  1440   0.410E+00    0.556E-01
RMM:   2    -0.616075437677E+03   -0.21269E-02   -0.54781E-02  1428   0.573E-01    0.324E-01
RMM:   3    -0.616073988771E+03    0.14489E-02   -0.32811E-03  1429   0.143E-01    0.125E-01
RMM:   4    -0.616073820068E+03    0.16870E-03   -0.78669E-04  1486   0.608E-02    0.236E-02
RMM:   5    -0.616073819325E+03    0.74283E-06   -0.48684E-05  1481   0.160E-02    0.128E-02
RMM:   6    -0.616073819685E+03   -0.35969E-06   -0.95471E-06  1453   0.607E-03    0.396E-03
RMM:   7    -0.616073819687E+03   -0.19354E-08   -0.99325E-07  1374   0.220E-03
 132 F= -.62421987E+03 E0= -.62421987E+03  d E =-.179656E-02
       N       E                     dE             d eps       ncg     rms          rms(c)
DAV:   1    -0.616073473860E+03    0.34582E-03   -0.15152E+00  1452   0.284E+00    0.389E-01
RMM:   2    -0.616074433906E+03   -0.96005E-03   -0.25854E-02  1428   0.391E-01    0.224E-01
RMM:   3    -0.616073753087E+03    0.68082E-03   -0.15037E-03  1428   0.977E-02    0.899E-02
RMM:   4    -0.616073664187E+03    0.88900E-04   -0.38827E-04  1484   0.426E-02    0.161E-02
RMM:   5    -0.616073664148E+03    0.38533E-07   -0.23396E-05  1481   0.109E-02    0.880E-03
RMM:   6    -0.616073664463E+03   -0.31487E-06   -0.39813E-06  1455   0.401E-03    0.302E-03
RMM:   7    -0.616073664531E+03   -0.68118E-07   -0.47096E-07  1149   0.151E-03
 133 F= -.62422099E+03 E0= -.62422099E+03  d E =-.112599E-02
       N       E                     dE             d eps       ncg     rms          rms(c)
DAV:   1    -0.616072287873E+03    0.13766E-02   -0.26470E+00  1428   0.375E+00    0.515E-01
RMM:   2    -0.616073962092E+03   -0.16742E-02   -0.45218E-02  1428   0.517E-01    0.297E-01
RMM:   3    -0.616072771165E+03    0.11909E-02   -0.26294E-03  1428   0.129E-01    0.119E-01
RMM:   4    -0.616072615206E+03    0.15596E-03   -0.67959E-04  1484   0.563E-02    0.212E-02
RMM:   5    -0.616072615029E+03    0.17711E-06   -0.41080E-05  1479   0.145E-02    0.116E-02
RMM:   6    -0.616072615544E+03   -0.51455E-06   -0.69230E-06  1455   0.529E-03    0.403E-03
RMM:   7    -0.616072615677E+03   -0.13359E-06   -0.87297E-07  1356   0.200E-03    0.144E-03
RMM:   8    -0.616072615610E+03    0.66615E-07   -0.25156E-07   948   0.982E-04
 134 F= -.62422166E+03 E0= -.62422166E+03  d E =-.179693E-02
       N       E                     dE             d eps       ncg     rms          rms(c)
DAV:   1    -0.616072026637E+03    0.58904E-03   -0.25269E+00  1428   0.366E+00    0.501E-01
RMM:   2    -0.616073729337E+03   -0.17027E-02   -0.43104E-02  1428   0.504E-01    0.285E-01
RMM:   3    -0.616072625818E+03    0.11035E-02   -0.24504E-03  1428   0.125E-01    0.119E-01
RMM:   4    -0.616072462051E+03    0.16377E-03   -0.66992E-04  1483   0.555E-02    0.208E-02
RMM:   5    -0.616072462298E+03   -0.24736E-06   -0.35903E-05  1481   0.142E-02    0.118E-02
RMM:   6    -0.616072462721E+03   -0.42336E-06   -0.69012E-06  1453   0.523E-03    0.355E-03
RMM:   7    -0.616072462853E+03   -0.13204E-06   -0.75697E-07  1336   0.189E-03    0.130E-03
RMM:   8    -0.616072462783E+03    0.69995E-07   -0.23638E-07   920   0.961E-04
 135 F= -.62422312E+03 E0= -.62422312E+03  d E =-.145426E-02
       N       E                     dE             d eps       ncg     rms          rms(c)
DAV:   1    -0.616071473911E+03    0.98894E-03   -0.11118E+00  1452   0.243E+00    0.332E-01
RMM:   2    -0.616072219602E+03   -0.74569E-03   -0.18949E-02  1428   0.334E-01    0.189E-01
RMM:   3    -0.616071733546E+03    0.48606E-03   -0.10787E-03  1428   0.829E-02    0.788E-02
RMM:   4    -0.616071661799E+03    0.71747E-04   -0.29410E-04  1484   0.368E-02    0.138E-02
RMM:   5    -0.616071661972E+03   -0.17292E-06   -0.15718E-05  1481   0.934E-03    0.783E-03
RMM:   6    -0.616071662202E+03   -0.23016E-06   -0.30585E-06  1452   0.347E-03    0.234E-03
RMM:   7    -0.616071662252E+03   -0.49207E-07   -0.29011E-07   974   0.125E-03
 136 F= -.62422340E+03 E0= -.62422340E+03  d E =-.173472E-02
       N       E                     dE             d eps       ncg     rms          rms(c)
DAV:   1    -0.616071582862E+03    0.79340E-04   -0.30968E+00  1428   0.405E+00    0.544E-01
RMM:   2    -0.616073730922E+03   -0.21481E-02   -0.52475E-02  1428   0.558E-01    0.314E-01
RMM:   3    -0.616072368613E+03    0.13623E-02   -0.29891E-03  1428   0.138E-01    0.126E-01
RMM:   4    -0.616072192231E+03    0.17638E-03   -0.77494E-04  1487   0.601E-02    0.225E-02
RMM:   5    -0.616072192120E+03    0.11093E-06   -0.46194E-05  1470   0.155E-02    0.123E-02
RMM:   6    -0.616072192710E+03   -0.58962E-06   -0.77596E-06  1453   0.563E-03    0.397E-03
RMM:   7    -0.616072192910E+03   -0.19977E-06   -0.99990E-07  1389   0.212E-03    0.145E-03
RMM:   8    -0.616072192843E+03    0.66953E-07   -0.29575E-07   984   0.107E-03
 137 F= -.62422463E+03 E0= -.62422463E+03  d E =-.123002E-02
       N       E                     dE             d eps       ncg     rms          rms(c)
DAV:   1    -0.616071548314E+03    0.64460E-03   -0.19291E+00  1428   0.320E+00    0.429E-01
RMM:   2    -0.616072876757E+03   -0.13284E-02   -0.32625E-02  1428   0.440E-01    0.248E-01
RMM:   3    -0.616072026069E+03    0.85069E-03   -0.18626E-03  1428   0.109E-01    0.988E-02
RMM:   4    -0.616071917179E+03    0.10889E-03   -0.48086E-04  1487   0.474E-02    0.177E-02
RMM:   5    -0.616071917165E+03    0.14195E-07   -0.28621E-05  1471   0.122E-02    0.969E-03
RMM:   6    -0.616071917558E+03   -0.39332E-06   -0.48512E-06  1453   0.445E-03    0.311E-03
RMM:   7    -0.616071917677E+03   -0.11885E-06   -0.59463E-07  1265   0.167E-03    0.113E-03
RMM:   8    -0.616071917630E+03    0.47665E-07   -0.18069E-07   892   0.883E-04
 138 F= -.62422493E+03 E0= -.62422493E+03  d E =-.152990E-02
       N       E                     dE             d eps       ncg     rms          rms(c)
DAV:   1    -0.616071858089E+03    0.59588E-04   -0.34478E+00  1428   0.429E+00    0.571E-01
RMM:   2    -0.616074646261E+03   -0.27882E-02   -0.61345E-02  1428   0.598E-01    0.328E-01
RMM:   3    -0.616073152389E+03    0.14939E-02   -0.33087E-03  1428   0.148E-01    0.136E-01
RMM:   4    -0.616072938805E+03    0.21358E-03   -0.88001E-04  1488   0.639E-02    0.239E-02
RMM:   5    -0.616072938523E+03    0.28154E-06   -0.50461E-05  1468   0.161E-02    0.128E-02
RMM:   6    -0.616072939086E+03   -0.56318E-06   -0.85021E-06  1454   0.589E-03    0.409E-03
RMM:   7    -0.616072939220E+03   -0.13349E-06   -0.11194E-06  1405   0.226E-03    0.146E-03
RMM:   8    -0.616072939177E+03    0.42473E-07   -0.32183E-07  1004   0.110E-03
 139 F= -.62422643E+03 E0= -.62422643E+03  d E =-.150590E-02
       N       E                     dE             d eps       ncg     rms          rms(c)
DAV:   1    -0.616071907904E+03    0.10313E-02   -0.32523E+00  1428   0.416E+00    0.555E-01
RMM:   2    -0.616074535425E+03   -0.26275E-02   -0.57895E-02  1428   0.581E-01    0.319E-01
RMM:   3    -0.616073124755E+03    0.14107E-02   -0.31232E-03  1428   0.143E-01    0.132E-01
RMM:   4    -0.616072922826E+03    0.20193E-03   -0.83083E-04  1488   0.621E-02    0.232E-02
RMM:   5    -0.616072922559E+03    0.26650E-06   -0.47756E-05  1468   0.157E-02    0.124E-02
RMM:   6    -0.616072923103E+03   -0.54347E-06   -0.80316E-06  1454   0.572E-03    0.399E-03
RMM:   7    -0.616072923230E+03   -0.12691E-06   -0.10540E-06  1400   0.220E-03    0.142E-03
RMM:   8    -0.616072923189E+03    0.40705E-07   -0.30283E-07   992   0.108E-03
 140 F= -.62422692E+03 E0= -.62422692E+03  d E =-.199348E-02
       N       E                     dE             d eps       ncg     rms          rms(c)
DAV:   1    -0.616072055750E+03    0.86748E-03   -0.33895E+00  1428   0.425E+00    0.558E-01
RMM:   2    -0.616075084896E+03   -0.30291E-02   -0.61885E-02  1428   0.599E-01    0.322E-01
RMM:   3    -0.616073660143E+03    0.14248E-02   -0.33015E-03  1428   0.148E-01    0.136E-01
RMM:   4    -0.616073447900E+03    0.21224E-03   -0.90297E-04  1488   0.642E-02    0.245E-02
RMM:   5    -0.616073445912E+03    0.19883E-05   -0.56958E-05  1452   0.170E-02    0.126E-02
RMM:   6    -0.616073446300E+03   -0.38809E-06   -0.90583E-06  1455   0.608E-03    0.447E-03
RMM:   7    -0.616073446484E+03   -0.18387E-06   -0.13724E-06  1416   0.242E-03    0.164E-03
RMM:   8    -0.616073446436E+03    0.48090E-07   -0.38157E-07  1042   0.119E-03
 141 F= -.62422837E+03 E0= -.62422837E+03  d E =-.145179E-02
       N       E                     dE             d eps       ncg     rms          rms(c)
DAV:   1    -0.616071592730E+03    0.18538E-02   -0.32589E+00  1428   0.417E+00    0.547E-01
RMM:   2    -0.616074505202E+03   -0.29125E-02   -0.59558E-02  1428   0.587E-01    0.316E-01
RMM:   3    -0.616073133950E+03    0.13713E-02   -0.31734E-03  1428   0.145E-01    0.134E-01
RMM:   4    -0.616072928489E+03    0.20546E-03   -0.87063E-04  1488   0.630E-02    0.241E-02
RMM:   5    -0.616072926572E+03    0.19170E-05   -0.54860E-05  1451   0.167E-02    0.124E-02
RMM:   6    -0.616072926958E+03   -0.38594E-06   -0.87203E-06  1455   0.597E-03    0.439E-03
RMM:   7    -0.616072927137E+03   -0.17880E-06   -0.13178E-06  1416   0.237E-03    0.161E-03
RMM:   8    -0.616072927090E+03    0.47188E-07   -0.36214E-07  1026   0.116E-03
 142 F= -.62422880E+03 E0= -.62422880E+03  d E =-.187439E-02
       N       E                     dE             d eps       ncg     rms          rms(c)
DAV:   1    -0.616070962502E+03    0.19646E-02   -0.34137E+00  1428   0.427E+00    0.540E-01
RMM:   2    -0.616074209504E+03   -0.32470E-02   -0.62226E-02  1428   0.595E-01    0.315E-01
RMM:   3    -0.616072898824E+03    0.13107E-02   -0.31412E-03  1428   0.146E-01    0.138E-01
RMM:   4    -0.616072685787E+03    0.21304E-03   -0.92746E-04  1488   0.647E-02    0.242E-02
RMM:   5    -0.616072683712E+03    0.20751E-05   -0.57160E-05  1447   0.169E-02    0.121E-02
RMM:   6    -0.616072684147E+03   -0.43539E-06   -0.68446E-06  1465   0.556E-03    0.494E-03
RMM:   7    -0.616072684443E+03   -0.29571E-06   -0.15462E-06  1414   0.241E-03    0.140E-03
RMM:   8    -0.616072684396E+03    0.46413E-07   -0.30304E-07   990   0.110E-03
 143 F= -.62423019E+03 E0= -.62423019E+03  d E =-.139768E-02
       N       E                     dE             d eps       ncg     rms          rms(c)
DAV:   1    -0.616065031040E+03    0.76534E-02   -0.10502E+01  1428   0.748E+00    0.947E-01
RMM:   2    -0.616075027936E+03   -0.99969E-02   -0.19212E-01  1428   0.104E+00    0.553E-01
RMM:   3    -0.616070988253E+03    0.40397E-02   -0.97055E-03  1428   0.258E-01    0.243E-01
RMM:   4    -0.616070326413E+03    0.66184E-03   -0.28847E-03  1488   0.114E-01    0.428E-02
RMM:   5    -0.616070318851E+03    0.75620E-05   -0.17980E-04  1443   0.301E-02    0.211E-02
RMM:   6    -0.616070320064E+03   -0.12137E-05   -0.20876E-05  1467   0.973E-03    0.875E-03
RMM:   7    -0.616070320985E+03   -0.92075E-06   -0.48829E-06  1465   0.426E-03    0.250E-03
RMM:   8    -0.616070320906E+03    0.79322E-07   -0.10221E-06  1329   0.187E-03    0.140E-03
RMM:   9    -0.616070320854E+03    0.51419E-07   -0.39939E-07  1020   0.112E-03
 144 F= -.62423078E+03 E0= -.62423078E+03  d E =-.198663E-02
       N       E                     dE             d eps       ncg     rms          rms(c)
DAV:   1    -0.616069301454E+03    0.10195E-02   -0.12682E+00  1468   0.260E+00    0.326E-01
RMM:   2    -0.616070516797E+03   -0.12153E-02   -0.22835E-02  1428   0.358E-01    0.188E-01
RMM:   3    -0.616070057288E+03    0.45951E-03   -0.11192E-03  1429   0.878E-02    0.856E-02
RMM:   4    -0.616069975033E+03    0.82255E-04   -0.35148E-04  1488   0.396E-02    0.145E-02
RMM:   5    -0.616069974265E+03    0.76849E-06   -0.20022E-05  1445   0.101E-02    0.725E-03
RMM:   6    -0.616069974449E+03   -0.18451E-06   -0.24151E-06  1465   0.331E-03    0.308E-03
RMM:   7    -0.616069974559E+03   -0.11009E-06   -0.56979E-07  1226   0.148E-03    0.852E-04
RMM:   8    -0.616069974537E+03    0.22104E-07   -0.10360E-07   885   0.711E-04
 145 F= -.62423156E+03 E0= -.62423156E+03  d E =-.775891E-03
       N       E                     dE             d eps       ncg     rms          rms(c)
DAV:   1    -0.616061677825E+03    0.82967E-02   -0.11406E+01  1428   0.779E+00    0.979E-01
RMM:   2    -0.616072622913E+03   -0.10945E-01   -0.20636E-01  1428   0.107E+00    0.565E-01
RMM:   3    -0.616068486636E+03    0.41363E-02   -0.10132E-02  1429   0.265E-01    0.257E-01
RMM:   4    -0.616067739226E+03    0.74741E-03   -0.32048E-03  1488   0.119E-01    0.440E-02
RMM:   5    -0.616067730376E+03    0.88498E-05   -0.18469E-04  1442   0.307E-02    0.217E-02
RMM:   6    -0.616067731534E+03   -0.11578E-05   -0.21662E-05  1467   0.992E-03    0.939E-03
RMM:   7    -0.616067732449E+03   -0.91527E-06   -0.54843E-06  1442   0.453E-03    0.263E-03
RMM:   8    -0.616067732360E+03    0.89593E-07   -0.10948E-06  1350   0.198E-03    0.141E-03
RMM:   9    -0.616067732298E+03    0.62195E-07   -0.45670E-07  1075   0.118E-03
 146 F= -.62423275E+03 E0= -.62423275E+03  d E =-.196676E-02
       N       E                     dE             d eps       ncg     rms          rms(c)
DAV:   1    -0.616068353816E+03   -0.62146E-03   -0.82700E-02  1544   0.669E-01    0.963E-02
RMM:   2    -0.616068458471E+03   -0.10465E-03   -0.16313E-03  1428   0.960E-02    0.454E-02
RMM:   3    -0.616068433165E+03    0.25306E-04   -0.75371E-05  1429   0.232E-02    0.246E-02
RMM:   4    -0.616068427507E+03    0.56581E-05   -0.34825E-05  1477   0.117E-02    0.506E-03
RMM:   5    -0.616068426971E+03    0.53542E-06   -0.20607E-06  1440   0.328E-03    0.232E-03
RMM:   6    -0.616068426921E+03    0.49986E-07   -0.54745E-07  1245   0.136E-03
 147 F= -.62423357E+03 E0= -.62423357E+03  d E =-.816595E-03
       N       E                     dE             d eps       ncg     rms          rms(c)
DAV:   1    -0.616068547911E+03   -0.12094E-03   -0.30078E-01  1464   0.128E+00    0.184E-01
RMM:   2    -0.616068928280E+03   -0.38037E-03   -0.59333E-03  1428   0.183E-01    0.865E-02
RMM:   3    -0.616068836351E+03    0.91929E-04   -0.27400E-04  1431   0.441E-02    0.470E-02
RMM:   4    -0.616068814859E+03    0.21493E-04   -0.12653E-04  1476   0.222E-02    0.964E-03
RMM:   5    -0.616068812899E+03    0.19595E-05   -0.73846E-06  1442   0.620E-03    0.444E-03
RMM:   6    -0.616068812707E+03    0.19189E-06   -0.21752E-06  1437   0.263E-03    0.201E-03
RMM:   7    -0.616068812592E+03    0.11564E-06   -0.24563E-07   948   0.117E-03    0.985E-04
RMM:   8    -0.616068812532E+03    0.59714E-07   -0.13756E-07   882   0.727E-04
 148 F= -.62423419E+03 E0= -.62423419E+03  d E =-.143626E-02
       N       E                     dE             d eps       ncg     rms          rms(c)
DAV:   1    -0.616069168152E+03   -0.35556E-03   -0.39088E-02  1512   0.462E-01    0.586E-02
RMM:   2    -0.616069213063E+03   -0.44911E-04   -0.72909E-04  1428   0.648E-02    0.319E-02
RMM:   3    -0.616069200828E+03    0.12235E-04   -0.36782E-05  1431   0.158E-02    0.162E-02
RMM:   4    -0.616069198526E+03    0.23019E-05   -0.14621E-05  1471   0.773E-03    0.341E-03
RMM:   5    -0.616069198341E+03    0.18482E-06   -0.10843E-06  1407   0.236E-03    0.152E-03
RMM:   6    -0.616069198318E+03    0.23123E-07   -0.13145E-07   882   0.829E-04
 149 F= -.62423461E+03 E0= -.62423461E+03  d E =-.426856E-03
       N       E                     dE             d eps       ncg     rms          rms(c)
DAV:   1    -0.616069290090E+03   -0.91748E-04   -0.63126E-02  1464   0.588E-01    0.745E-02
RMM:   2    -0.616069362660E+03   -0.72571E-04   -0.11764E-03  1428   0.823E-02    0.406E-02
RMM:   3    -0.616069343044E+03    0.19616E-04   -0.59315E-05  1431   0.201E-02    0.206E-02
RMM:   4    -0.616069339370E+03    0.36744E-05   -0.23480E-05  1469   0.981E-03    0.432E-03
RMM:   5    -0.616069339082E+03    0.28712E-06   -0.17347E-06  1435   0.299E-03    0.193E-03
RMM:   6    -0.616069339054E+03    0.28740E-07   -0.21040E-07   892   0.105E-03
 150 F= -.62423481E+03 E0= -.62423481E+03  d E =-.620210E-03
       N       E                     dE             d eps       ncg     rms          rms(c)
DAV:   1    -0.616069238383E+03    0.10070E-03   -0.37157E-02  1464   0.453E-01    0.628E-02
RMM:   2    -0.616069285414E+03   -0.47031E-04   -0.74303E-04  1428   0.652E-02    0.294E-02
RMM:   3    -0.616069276062E+03    0.93527E-05   -0.35497E-05  1434   0.162E-02    0.156E-02
RMM:   4    -0.616069274387E+03    0.16745E-05   -0.15229E-05  1490   0.760E-03    0.328E-03
RMM:   5    -0.616069274286E+03    0.10094E-06   -0.71435E-07  1329   0.199E-03    0.149E-03
RMM:   6    -0.616069274307E+03   -0.20475E-07   -0.18209E-07   887   0.826E-04
 151 F= -.62423519E+03 E0= -.62423519E+03  d E =-.382462E-03
       N       E                     dE             d eps       ncg     rms          rms(c)
DAV:   1    -0.616068654638E+03    0.61965E-03   -0.11013E-01  1464   0.781E-01    0.108E-01
RMM:   2    -0.616068793510E+03   -0.13887E-03   -0.22000E-03  1428   0.112E-01    0.507E-02
RMM:   3    -0.616068765488E+03    0.28022E-04   -0.10514E-04  1434   0.279E-02    0.268E-02
RMM:   4    -0.616068760226E+03    0.52617E-05   -0.45404E-05  1490   0.131E-02    0.566E-03
RMM:   5    -0.616068759840E+03    0.38611E-06   -0.21547E-06  1432   0.344E-03    0.258E-03
RMM:   6    -0.616068759854E+03   -0.13610E-07   -0.61619E-07  1282   0.139E-03
 152 F= -.62423544E+03 E0= -.62423544E+03  d E =-.638436E-03
       N       E                     dE             d eps       ncg     rms          rms(c)
DAV:   1    -0.616068554742E+03    0.20510E-03   -0.43940E-02  1464   0.493E-01    0.583E-02
RMM:   2    -0.616068613893E+03   -0.59151E-04   -0.89501E-04  1428   0.705E-02    0.324E-02
RMM:   3    -0.616068604476E+03    0.94170E-05   -0.42131E-05  1434   0.184E-02    0.174E-02
RMM:   4    -0.616068602624E+03    0.18520E-05   -0.16820E-05  1488   0.840E-03    0.370E-03
RMM:   5    -0.616068602509E+03    0.11483E-06   -0.10330E-06  1413   0.221E-03    0.157E-03
RMM:   6    -0.616068602531E+03   -0.22079E-07   -0.12488E-07   882   0.773E-04
 153 F= -.62423582E+03 E0= -.62423582E+03  d E =-.376250E-03
       N       E                     dE             d eps       ncg     rms          rms(c)
DAV:   1    -0.616067617693E+03    0.98482E-03   -0.14421E-01  1464   0.892E-01    0.106E-01
RMM:   2    -0.616067811998E+03   -0.19431E-03   -0.29388E-03  1428   0.128E-01    0.588E-02
RMM:   3    -0.616067780688E+03    0.31311E-04   -0.13828E-04  1434   0.334E-02    0.315E-02
RMM:   4    -0.616067774236E+03    0.64512E-05   -0.55467E-05  1488   0.152E-02    0.672E-03
RMM:   5    -0.616067773768E+03    0.46854E-06   -0.34446E-06  1430   0.402E-03    0.285E-03
RMM:   6    -0.616067773793E+03   -0.24891E-07   -0.46715E-07  1196   0.139E-03
 154 F= -.62423596E+03 E0= -.62423596E+03  d E =-.514664E-03
       N       E                     dE             d eps       ncg     rms          rms(c)
DAV:   1    -0.616068088360E+03   -0.31459E-03   -0.13421E-02  1480   0.272E-01    0.322E-02
RMM:   2    -0.616068106382E+03   -0.18022E-04   -0.27155E-04  1428   0.389E-02    0.179E-02
RMM:   3    -0.616068103424E+03    0.29576E-05   -0.12760E-05  1434   0.101E-02    0.955E-03
RMM:   4    -0.616068102701E+03    0.72273E-06   -0.50408E-06  1488   0.460E-03    0.203E-03
RMM:   5    -0.616068102622E+03    0.79126E-07   -0.28165E-07   966   0.122E-03
 155 F= -.62423599E+03 E0= -.62423599E+03  d E =-.548050E-03
       N       E                     dE             d eps       ncg     rms          rms(c)
DAV:   1    -0.616068087496E+03    0.15206E-04   -0.59597E-02  1464   0.566E-01    0.707E-02
RMM:   2    -0.616068174643E+03   -0.87147E-04   -0.11594E-03  1428   0.795E-02    0.351E-02
RMM:   3    -0.616068162493E+03    0.12150E-04   -0.50473E-05  1433   0.196E-02    0.192E-02
RMM:   4    -0.616068160286E+03    0.22070E-05   -0.24430E-05  1495   0.958E-03    0.375E-03
RMM:   5    -0.616068160053E+03    0.23295E-06   -0.11039E-06  1410   0.240E-03    0.174E-03
RMM:   6    -0.616068160048E+03    0.47112E-08   -0.17978E-07   885   0.887E-04
 156 F= -.62423640E+03 E0= -.62423640E+03  d E =-.412124E-03
       N       E                     dE             d eps       ncg     rms          rms(c)
DAV:   1    -0.616066990682E+03    0.11694E-02   -0.45289E-01  1452   0.156E+00    0.195E-01
RMM:   2    -0.616067657203E+03   -0.66652E-03   -0.88296E-03  1428   0.219E-01    0.969E-02
RMM:   3    -0.616067566032E+03    0.91171E-04   -0.38406E-04  1432   0.540E-02    0.530E-02
RMM:   4    -0.616067549033E+03    0.16998E-04   -0.18604E-04  1496   0.265E-02    0.103E-02
RMM:   5    -0.616067547158E+03    0.18751E-05   -0.83714E-06  1429   0.661E-03    0.481E-03
RMM:   6    -0.616067547086E+03    0.72123E-07   -0.16491E-06  1431   0.246E-03    0.183E-03
RMM:   7    -0.616067547083E+03    0.33615E-08   -0.22434E-07   912   0.110E-03
 157 F= -.62423677E+03 E0= -.62423677E+03  d E =-.777851E-03
       N       E                     dE             d eps       ncg     rms          rms(c)
DAV:   1    -0.616067464895E+03    0.82191E-04   -0.30542E-02  1496   0.405E-01    0.459E-02
RMM:   2    -0.616067505343E+03   -0.40448E-04   -0.55492E-04  1428   0.541E-02    0.261E-02
RMM:   3    -0.616067500013E+03    0.53309E-05   -0.26502E-05  1433   0.140E-02    0.134E-02
RMM:   4    -0.616067499409E+03    0.60324E-06   -0.93007E-06  1492   0.619E-03    0.276E-03
RMM:   5    -0.616067499349E+03    0.59921E-07   -0.64561E-07  1278   0.180E-03
 158 F= -.62423702E+03 E0= -.62423702E+03  d E =-.251321E-03
       N       E                     dE             d eps       ncg     rms          rms(c)
DAV:   1    -0.616066646092E+03    0.85332E-03   -0.27463E-01  1464   0.121E+00    0.138E-01
RMM:   2    -0.616067010055E+03   -0.36396E-03   -0.49840E-03  1428   0.162E-01    0.781E-02
RMM:   3    -0.616066962247E+03    0.47808E-04   -0.23768E-04  1433   0.420E-02    0.403E-02
RMM:   4    -0.616066955613E+03    0.66333E-05   -0.82933E-05  1492   0.185E-02    0.821E-03
RMM:   5    -0.616066954874E+03    0.73965E-06   -0.58274E-06  1433   0.536E-03    0.332E-03
RMM:   6    -0.616066954897E+03   -0.23108E-07   -0.66139E-07  1278   0.172E-03
 159 F= -.62423737E+03 E0= -.62423737E+03  d E =-.604674E-03
       N       E                     dE             d eps       ncg     rms          rms(c)
DAV:   1    -0.616067066605E+03   -0.11173E-03   -0.10898E-02  1528   0.246E-01    0.514E-02
RMM:   2    -0.616067087156E+03   -0.20551E-04   -0.28394E-04  1428   0.382E-02    0.158E-02
RMM:   3    -0.616067083462E+03    0.36942E-05   -0.12621E-05  1429   0.988E-03    0.906E-03
RMM:   4    -0.616067082876E+03    0.58562E-06   -0.71893E-06  1474   0.496E-03    0.245E-03
RMM:   5    -0.616067082774E+03    0.10174E-06   -0.36157E-07  1034   0.142E-03    0.123E-03
RMM:   6    -0.616067082782E+03   -0.71159E-08   -0.16329E-07   885   0.892E-04
 160 F= -.62423764E+03 E0= -.62423764E+03  d E =-.262164E-03
       N       E                     dE             d eps       ncg     rms          rms(c)
DAV:   1    -0.616066907668E+03    0.17511E-03   -0.76290E-02  1464   0.651E-01    0.135E-01
RMM:   2    -0.616067051108E+03   -0.14344E-03   -0.19832E-03  1428   0.101E-01    0.420E-02
RMM:   3    -0.616067025152E+03    0.25956E-04   -0.88295E-05  1429   0.261E-02    0.240E-02
RMM:   4    -0.616067020925E+03    0.42269E-05   -0.50602E-05  1474   0.132E-02    0.652E-03
RMM:   5    -0.616067020122E+03    0.80292E-06   -0.27354E-06  1432   0.376E-03    0.323E-03
RMM:   6    -0.616067020081E+03    0.40953E-07   -0.10193E-06  1358   0.179E-03    0.133E-03
RMM:   7    -0.616067020069E+03    0.12293E-07   -0.88345E-08   882   0.793E-04
 161 F= -.62423793E+03 E0= -.62423793E+03  d E =-.555069E-03
       N       E                     dE             d eps       ncg     rms          rms(c)
DAV:   1    -0.616067128639E+03   -0.10856E-03   -0.21194E-02  1480   0.341E-01    0.396E-02
RMM:   2    -0.616067161335E+03   -0.32696E-04   -0.43908E-04  1428   0.473E-02    0.205E-02
RMM:   3    -0.616067156744E+03    0.45916E-05   -0.18636E-05  1449   0.120E-02    0.125E-02
RMM:   4    -0.616067155631E+03    0.11124E-05   -0.11168E-05  1470   0.638E-03    0.305E-03
RMM:   5    -0.616067155436E+03    0.19563E-06   -0.71962E-07  1231   0.185E-03    0.132E-03
RMM:   6    -0.616067155441E+03   -0.52314E-08   -0.14623E-07   882   0.820E-04
 162 F= -.62423821E+03 E0= -.62423821E+03  d E =-.281737E-03
       N       E                     dE             d eps       ncg     rms          rms(c)
DAV:   1    -0.616066958576E+03    0.19686E-03   -0.10238E-01  1464   0.750E-01    0.871E-02
RMM:   2    -0.616067117330E+03   -0.15875E-03   -0.21218E-03  1428   0.104E-01    0.450E-02
RMM:   3    -0.616067095384E+03    0.21946E-04   -0.90098E-05  1449   0.265E-02    0.274E-02
RMM:   4    -0.616067090086E+03    0.52983E-05   -0.53794E-05  1470   0.141E-02    0.671E-03
RMM:   5    -0.616067089086E+03    0.99968E-06   -0.35223E-06  1428   0.406E-03    0.289E-03
RMM:   6    -0.616067089067E+03    0.18670E-07   -0.73985E-07  1337   0.164E-03
 163 F= -.62423847E+03 E0= -.62423847E+03  d E =-.537173E-03
       N       E                     dE             d eps       ncg     rms          rms(c)
DAV:   1    -0.616067250594E+03   -0.16151E-03   -0.22847E-02  1464   0.355E-01    0.529E-02
RMM:   2    -0.616067292104E+03   -0.41510E-04   -0.51500E-04  1428   0.509E-02    0.219E-02
RMM:   3    -0.616067286253E+03    0.58513E-05   -0.21614E-05  1433   0.131E-02    0.125E-02
RMM:   4    -0.616067285287E+03    0.96593E-06   -0.11440E-05  1479   0.639E-03    0.303E-03
RMM:   5    -0.616067285072E+03    0.21530E-06   -0.74964E-07  1266   0.180E-03    0.123E-03
RMM:   6    -0.616067285049E+03    0.23094E-07   -0.94822E-08   882   0.685E-04
 164 F= -.62423874E+03 E0= -.62423874E+03  d E =-.276193E-03
       N       E                     dE             d eps       ncg     rms          rms(c)
DAV:   1    -0.616067275036E+03    0.10036E-04   -0.83297E-02  1464   0.678E-01    0.101E-01
RMM:   2    -0.616067426381E+03   -0.15134E-03   -0.18864E-03  1428   0.973E-02    0.419E-02
RMM:   3    -0.616067404324E+03    0.22057E-04   -0.78849E-05  1432   0.251E-02    0.238E-02
RMM:   4    -0.616067400371E+03    0.39532E-05   -0.42717E-05  1479   0.123E-02    0.589E-03
RMM:   5    -0.616067399561E+03    0.80937E-06   -0.30555E-06  1430   0.354E-03    0.237E-03
RMM:   6    -0.616067399474E+03    0.87202E-07   -0.32476E-07  1007   0.119E-03
 165 F= -.62423901E+03 E0= -.62423901E+03  d E =-.543953E-03
       N       E                     dE             d eps       ncg     rms          rms(c)
DAV:   1    -0.616067358727E+03    0.40834E-04   -0.73509E-03  1560   0.202E-01    0.299E-02
RMM:   2    -0.616067372172E+03   -0.13445E-04   -0.16776E-04  1428   0.291E-02    0.124E-02
RMM:   3    -0.616067370236E+03    0.19359E-05   -0.69897E-06  1432   0.744E-03    0.713E-03
RMM:   4    -0.616067369902E+03    0.33414E-06   -0.39503E-06  1480   0.372E-03    0.177E-03
RMM:   5    -0.616067369811E+03    0.90913E-07   -0.25344E-07   969   0.105E-03
 166 F= -.62423903E+03 E0= -.62423903E+03  d E =-.559838E-03
       N       E                     dE             d eps       ncg     rms          rms(c)
DAV:   1    -0.616067744014E+03   -0.37411E-03   -0.41945E-02  1464   0.480E-01    0.543E-02
RMM:   2    -0.616067821948E+03   -0.77933E-04   -0.96347E-04  1428   0.708E-02    0.303E-02
RMM:   3    -0.616067813120E+03    0.88276E-05   -0.40813E-05  1437   0.179E-02    0.179E-02
RMM:   4    -0.616067810971E+03    0.21494E-05   -0.19170E-05  1459   0.864E-03    0.395E-03
RMM:   5    -0.616067810671E+03    0.29985E-06   -0.17239E-06  1388   0.267E-03    0.157E-03
RMM:   6    -0.616067810659E+03    0.11529E-07   -0.89781E-08   882   0.828E-04
 167 F= -.62423936E+03 E0= -.62423936E+03  d E =-.334414E-03
       N       E                     dE             d eps       ncg     rms          rms(c)
DAV:   1    -0.616068051743E+03   -0.24107E-03   -0.97009E-02  1464   0.730E-01    0.826E-02
RMM:   2    -0.616068231771E+03   -0.18003E-03   -0.22311E-03  1428   0.108E-01    0.459E-02
RMM:   3    -0.616068211305E+03    0.20467E-04   -0.94479E-05  1437   0.273E-02    0.272E-02
RMM:   4    -0.616068206273E+03    0.50316E-05   -0.44687E-05  1458   0.132E-02    0.603E-03
RMM:   5    -0.616068205575E+03    0.69840E-06   -0.40297E-06  1433   0.408E-03    0.239E-03
RMM:   6    -0.616068205548E+03    0.26175E-07   -0.21776E-07   936   0.124E-03
 168 F= -.62423959E+03 E0= -.62423959E+03  d E =-.567741E-03
       N       E                     dE             d eps       ncg     rms          rms(c)
DAV:   1    -0.616068535517E+03   -0.32994E-03   -0.60079E-02  1464   0.575E-01    0.910E-02
RMM:   2    -0.616068649179E+03   -0.11366E-03   -0.14314E-03  1428   0.867E-02    0.372E-02
RMM:   3    -0.616068632738E+03    0.16441E-04   -0.60368E-05  1429   0.219E-02    0.208E-02
RMM:   4    -0.616068629067E+03    0.36710E-05   -0.30365E-05  1473   0.107E-02    0.452E-03
RMM:   5    -0.616068628602E+03    0.46544E-06   -0.15005E-06  1438   0.275E-03    0.197E-03
RMM:   6    -0.616068628521E+03    0.80770E-07   -0.27163E-07   956   0.104E-03
 169 F= -.62423996E+03 E0= -.62423996E+03  d E =-.361646E-03
       N       E                     dE             d eps       ncg     rms          rms(c)
DAV:   1    -0.616068705432E+03   -0.76830E-04   -0.34088E-02  1464   0.433E-01    0.679E-02
RMM:   2    -0.616068769994E+03   -0.64562E-04   -0.81306E-04  1428   0.654E-02    0.281E-02
RMM:   3    -0.616068760548E+03    0.94456E-05   -0.34302E-05  1429   0.165E-02    0.157E-02
RMM:   4    -0.616068758414E+03    0.21344E-05   -0.17408E-05  1473   0.806E-03    0.343E-03
RMM:   5    -0.616068758132E+03    0.28103E-06   -0.85510E-07  1368   0.208E-03    0.149E-03
RMM:   6    -0.616068758079E+03    0.53395E-07   -0.16126E-07   882   0.824E-04
 170 F= -.62424004E+03 E0= -.62424004E+03  d E =-.445191E-03
       N       E                     dE             d eps       ncg     rms          rms(c)
DAV:   1    -0.616068999721E+03   -0.24159E-03   -0.63328E-02  1464   0.586E-01    0.630E-02
RMM:   2    -0.616069097106E+03   -0.97385E-04   -0.12346E-03  1428   0.792E-02    0.363E-02
RMM:   3    -0.616069085109E+03    0.11998E-04   -0.51394E-05  1434   0.201E-02    0.206E-02
RMM:   4    -0.616069082391E+03    0.27172E-05   -0.25967E-05  1479   0.100E-02    0.434E-03
RMM:   5    -0.616069081929E+03    0.46268E-06   -0.16460E-06  1434   0.271E-03    0.168E-03
RMM:   6    -0.616069081910E+03    0.18248E-07   -0.16639E-07   883   0.922E-04
 171 F= -.62424036E+03 E0= -.62424036E+03  d E =-.321669E-03
       N       E                     dE             d eps       ncg     rms          rms(c)
DAV:   1    -0.616069131026E+03   -0.49098E-04   -0.14849E-01  1452   0.897E-01    0.965E-02
RMM:   2    -0.616069359391E+03   -0.22836E-03   -0.28952E-03  1428   0.121E-01    0.556E-02
RMM:   3    -0.616069331280E+03    0.28111E-04   -0.12038E-04  1432   0.308E-02    0.315E-02
RMM:   4    -0.616069325016E+03    0.62641E-05   -0.60917E-05  1480   0.154E-02    0.665E-03
RMM:   5    -0.616069323947E+03    0.10695E-05   -0.39193E-06  1436   0.418E-03    0.256E-03
RMM:   6    -0.616069323912E+03    0.34204E-07   -0.44437E-07  1172   0.141E-03
 172 F= -.62424060E+03 E0= -.62424060E+03  d E =-.560837E-03
       N       E                     dE             d eps       ncg     rms          rms(c)
DAV:   1    -0.616069814373E+03   -0.49043E-03   -0.96751E-02  1464   0.727E-01    0.109E-01
RMM:   2    -0.616069971709E+03   -0.15734E-03   -0.20625E-03  1428   0.101E-01    0.449E-02
RMM:   3    -0.616069948329E+03    0.23380E-04   -0.85414E-05  1430   0.261E-02    0.254E-02
RMM:   4    -0.616069943327E+03    0.50024E-05   -0.46585E-05  1465   0.128E-02    0.527E-03
RMM:   5    -0.616069942618E+03    0.70883E-06   -0.23026E-06  1428   0.339E-03    0.239E-03
RMM:   6    -0.616069942528E+03    0.90386E-07   -0.54737E-07  1203   0.139E-03
 173 F= -.62424104E+03 E0= -.62424104E+03  d E =-.437121E-03
       N       E                     dE             d eps       ncg     rms          rms(c)
DAV:   1    -0.616070107094E+03   -0.16448E-03   -0.42834E-02  1480   0.484E-01    0.727E-02
RMM:   2    -0.616070176569E+03   -0.69475E-04   -0.91273E-04  1428   0.675E-02    0.298E-02
RMM:   3    -0.616070166147E+03    0.10422E-04   -0.37874E-05  1431   0.173E-02    0.170E-02
RMM:   4    -0.616070163793E+03    0.23547E-05   -0.20963E-05  1467   0.857E-03    0.352E-03
RMM:   5    -0.616070163459E+03    0.33350E-06   -0.10194E-06  1361   0.225E-03    0.161E-03
RMM:   6    -0.616070163407E+03    0.52201E-07   -0.23661E-07   943   0.950E-04
 174 F= -.62424114E+03 E0= -.62424114E+03  d E =-.537440E-03
       N       E                     dE             d eps       ncg     rms          rms(c)
DAV:   1    -0.616070533120E+03   -0.36966E-03   -0.87623E-02  1452   0.687E-01    0.781E-02
RMM:   2    -0.616070659564E+03   -0.12644E-03   -0.16658E-03  1428   0.916E-02    0.426E-02
RMM:   3    -0.616070642524E+03    0.17040E-04   -0.71979E-05  1430   0.234E-02    0.234E-02
RMM:   4    -0.616070639242E+03    0.32819E-05   -0.32723E-05  1482   0.111E-02    0.460E-03
RMM:   5    -0.616070638751E+03    0.49101E-06   -0.19184E-06  1433   0.305E-03    0.195E-03
RMM:   6    -0.616070638709E+03    0.41993E-07   -0.21136E-07   900   0.100E-03
 175 F= -.62424152E+03 E0= -.62424152E+03  d E =-.385581E-03
       N       E                     dE             d eps       ncg     rms          rms(c)
DAV:   1    -0.616070761610E+03   -0.12286E-03   -0.16630E-01  1452   0.947E-01    0.108E-01
RMM:   2    -0.616071001597E+03   -0.23999E-03   -0.31621E-03  1428   0.126E-01    0.587E-02
RMM:   3    -0.616070969324E+03    0.32273E-04   -0.13663E-04  1430   0.322E-02    0.322E-02
RMM:   4    -0.616070963159E+03    0.61649E-05   -0.61977E-05  1482   0.153E-02    0.634E-03
RMM:   5    -0.616070962249E+03    0.91011E-06   -0.36502E-06  1433   0.420E-03    0.269E-03
RMM:   6    -0.616070962185E+03    0.63541E-07   -0.44720E-07  1166   0.138E-03
 176 F= -.62424172E+03 E0= -.62424172E+03  d E =-.585967E-03
       N       E                     dE             d eps       ncg     rms          rms(c)
DAV:   1    -0.616071119139E+03   -0.15689E-03   -0.61710E-02  1464   0.575E-01    0.745E-02
RMM:   2    -0.616071206830E+03   -0.87691E-04   -0.11668E-03  1428   0.775E-02    0.370E-02
RMM:   3    -0.616071193718E+03    0.13112E-04   -0.50412E-05  1431   0.196E-02    0.200E-02
RMM:   4    -0.616071191137E+03    0.25814E-05   -0.24345E-05  1486   0.947E-03    0.395E-03
RMM:   5    -0.616071190768E+03    0.36873E-06   -0.15930E-06  1422   0.269E-03    0.164E-03
RMM:   6    -0.616071190737E+03    0.31367E-07   -0.12949E-07   882   0.840E-04
 177 F= -.62424204E+03 E0= -.62424204E+03  d E =-.316226E-03
       N       E                     dE             d eps       ncg     rms          rms(c)
DAV:   1    -0.616071110626E+03    0.80143E-04   -0.17678E-01  1440   0.974E-01    0.126E-01
RMM:   2    -0.616071361222E+03   -0.25060E-03   -0.33429E-03  1428   0.131E-01    0.626E-02
RMM:   3    -0.616071323167E+03    0.38055E-04   -0.14439E-04  1431   0.332E-02    0.339E-02
RMM:   4    -0.616071315680E+03    0.74866E-05   -0.70371E-05  1486   0.161E-02    0.673E-03
RMM:   5    -0.616071314612E+03    0.10686E-05   -0.46326E-06  1430   0.457E-03    0.279E-03
RMM:   6    -0.616071314523E+03    0.88574E-07   -0.42661E-07  1126   0.143E-03
 178 F= -.62424231E+03 E0= -.62424231E+03  d E =-.588956E-03
       N       E                     dE             d eps       ncg     rms          rms(c)
DAV:   1    -0.616071267582E+03    0.47030E-04   -0.17603E-02  1480   0.307E-01    0.393E-02
RMM:   2    -0.616071292614E+03   -0.25032E-04   -0.33448E-04  1428   0.416E-02    0.198E-02
RMM:   3    -0.616071288813E+03    0.38004E-05   -0.14481E-05  1432   0.105E-02    0.107E-02
RMM:   4    -0.616071288028E+03    0.78580E-06   -0.71740E-06  1486   0.513E-03    0.214E-03
RMM:   5    -0.616071287908E+03    0.11923E-06   -0.42904E-07  1049   0.144E-03    0.912E-04
RMM:   6    -0.616071287898E+03    0.10634E-07   -0.70589E-08   882   0.694E-04
 179 F= -.62424233E+03 E0= -.62424233E+03  d E =-.609398E-03
       N       E                     dE             d eps       ncg     rms          rms(c)
DAV:   1    -0.616071176415E+03    0.11149E-03   -0.67655E-02  1452   0.605E-01    0.742E-02
RMM:   2    -0.616071270450E+03   -0.94035E-04   -0.13158E-03  1428   0.830E-02    0.410E-02
RMM:   3    -0.616071255089E+03    0.15362E-04   -0.57915E-05  1434   0.215E-02    0.217E-02
RMM:   4    -0.616071251844E+03    0.32444E-05   -0.25030E-05  1487   0.993E-03    0.408E-03
RMM:   5    -0.616071251504E+03    0.34029E-06   -0.15230E-06  1422   0.262E-03    0.165E-03
RMM:   6    -0.616071251487E+03    0.17128E-07   -0.15258E-07   884   0.883E-04
 180 F= -.62424266E+03 E0= -.62424266E+03  d E =-.330258E-03
       N       E                     dE             d eps       ncg     rms          rms(c)
DAV:   1    -0.616070849589E+03    0.40192E-03   -0.95048E-02  1440   0.717E-01    0.879E-02
RMM:   2    -0.616070981710E+03   -0.13212E-03   -0.18492E-03  1428   0.983E-02    0.486E-02
RMM:   3    -0.616070960059E+03    0.21651E-04   -0.81391E-05  1434   0.254E-02    0.257E-02
RMM:   4    -0.616070955445E+03    0.46141E-05   -0.35316E-05  1487   0.118E-02    0.484E-03
RMM:   5    -0.616070954956E+03    0.48893E-06   -0.21630E-06  1428   0.312E-03    0.196E-03
RMM:   6    -0.616070954923E+03    0.32851E-07   -0.22271E-07   906   0.105E-03
 181 F= -.62424280E+03 E0= -.62424280E+03  d E =-.468730E-03
       N       E                     dE             d eps       ncg     rms          rms(c)
DAV:   1    -0.616070792887E+03    0.16207E-03   -0.67393E-02  1452   0.599E-01    0.726E-02
RMM:   2    -0.616070876834E+03   -0.83948E-04   -0.12177E-03  1428   0.804E-02    0.398E-02
RMM:   3    -0.616070862192E+03    0.14642E-04   -0.56516E-05  1430   0.209E-02    0.206E-02
RMM:   4    -0.616070859776E+03    0.24166E-05   -0.23305E-05  1488   0.954E-03    0.400E-03
RMM:   5    -0.616070859510E+03    0.26613E-06   -0.13889E-06  1424   0.263E-03    0.165E-03
RMM:   6    -0.616070859497E+03    0.12980E-07   -0.17029E-07   883   0.873E-04
 182 F= -.62424315E+03 E0= -.62424315E+03  d E =-.350183E-03
       N       E                     dE             d eps       ncg     rms          rms(c)
DAV:   1    -0.616069436468E+03    0.14230E-02   -0.60635E-01  1428   0.180E+00    0.218E-01
RMM:   2    -0.616070190894E+03   -0.75443E-03   -0.10964E-02  1428   0.241E-01    0.120E-01
RMM:   3    -0.616070058627E+03    0.13227E-03   -0.50893E-04  1430   0.628E-02    0.618E-02
RMM:   4    -0.616070035596E+03    0.23032E-04   -0.21014E-04  1488   0.287E-02    0.121E-02
RMM:   5    -0.616070033017E+03    0.25781E-05   -0.12604E-05  1429   0.792E-03    0.496E-03
RMM:   6    -0.616070032815E+03    0.20270E-06   -0.18369E-06  1444   0.261E-03    0.216E-03
RMM:   7    -0.616070032754E+03    0.60449E-07   -0.45766E-07  1170   0.132E-03
 183 F= -.62424366E+03 E0= -.62424366E+03  d E =-.862184E-03
       N       E                     dE             d eps       ncg     rms          rms(c)
DAV:   1    -0.616070178576E+03   -0.14576E-03   -0.14231E-01  1428   0.870E-01    0.983E-02
RMM:   2    -0.616070337413E+03   -0.15884E-03   -0.23557E-03  1428   0.111E-01    0.575E-02
RMM:   3    -0.616070310105E+03    0.27309E-04   -0.11882E-04  1430   0.290E-02    0.291E-02
RMM:   4    -0.616070305846E+03    0.42587E-05   -0.41971E-05  1497   0.130E-02    0.570E-03
RMM:   5    -0.616070305386E+03    0.45954E-06   -0.36400E-06  1429   0.408E-03    0.244E-03
RMM:   6    -0.616070305380E+03    0.63155E-08   -0.27522E-07   968   0.123E-03
 184 F= -.62424415E+03 E0= -.62424415E+03  d E =-.489584E-03
       N       E                     dE             d eps       ncg     rms          rms(c)
DAV:   1    -0.616070169550E+03    0.13584E-03   -0.10886E-01  1452   0.761E-01    0.859E-02
RMM:   2    -0.616070291134E+03   -0.12158E-03   -0.18019E-03  1428   0.970E-02    0.502E-02
RMM:   3    -0.616070270585E+03    0.20549E-04   -0.90745E-05  1431   0.253E-02    0.254E-02
RMM:   4    -0.616070267387E+03    0.31980E-05   -0.31988E-05  1495   0.113E-02    0.494E-03
RMM:   5    -0.616070267050E+03    0.33726E-06   -0.27319E-06  1429   0.354E-03    0.212E-03
RMM:   6    -0.616070267050E+03   -0.65484E-10   -0.20165E-07   909   0.107E-03
 185 F= -.62424431E+03 E0= -.62424431E+03  d E =-.641500E-03
       N       E                     dE             d eps       ncg     rms          rms(c)
DAV:   1    -0.616069985439E+03    0.28161E-03   -0.20046E-01  1428   0.103E+00    0.125E-01
RMM:   2    -0.616070224282E+03   -0.23884E-03   -0.33230E-03  1428   0.132E-01    0.647E-02
RMM:   3    -0.616070189118E+03    0.35164E-04   -0.14738E-04  1435   0.338E-02    0.352E-02
RMM:   4    -0.616070181218E+03    0.78994E-05   -0.68763E-05  1487   0.163E-02    0.594E-03
RMM:   5    -0.616070180417E+03    0.80144E-06   -0.30441E-06  1432   0.406E-03    0.294E-03
RMM:   6    -0.616070180347E+03    0.69504E-07   -0.73712E-07  1313   0.163E-03
 186 F= -.62424473E+03 E0= -.62424473E+03  d E =-.422705E-03
       N       E                     dE             d eps       ncg     rms          rms(c)
DAV:   1    -0.616069892435E+03    0.28798E-03   -0.65396E-02  1480   0.591E-01    0.710E-02
RMM:   2    -0.616069970418E+03   -0.77982E-04   -0.10849E-03  1428   0.758E-02    0.370E-02
RMM:   3    -0.616069959014E+03    0.11404E-04   -0.48300E-05  1436   0.194E-02    0.201E-02
RMM:   4    -0.616069956499E+03    0.25147E-05   -0.22576E-05  1488   0.936E-03    0.340E-03
RMM:   5    -0.616069956239E+03    0.25982E-06   -0.97525E-07  1394   0.230E-03    0.170E-03
RMM:   6    -0.616069956214E+03    0.24993E-07   -0.22813E-07   912   0.979E-04
 187 F= -.62424480E+03 E0= -.62424480E+03  d E =-.489825E-03
       N       E                     dE             d eps       ncg     rms          rms(c)
DAV:   1    -0.616069528931E+03    0.42731E-03   -0.16791E-01  1428   0.941E-01    0.102E-01
RMM:   2    -0.616069694782E+03   -0.16585E-03   -0.25345E-03  1428   0.117E-01    0.613E-02
RMM:   3    -0.616069663012E+03    0.31770E-04   -0.12645E-04  1437   0.309E-02    0.283E-02
RMM:   4    -0.616069658773E+03    0.42397E-05   -0.40874E-05  1491   0.130E-02    0.510E-03
RMM:   5    -0.616069658431E+03    0.34185E-06   -0.20315E-06  1428   0.343E-03    0.237E-03
RMM:   6    -0.616069658426E+03    0.50641E-08   -0.53151E-07  1192   0.132E-03
 188 F= -.62424520E+03 E0= -.62424520E+03  d E =-.406743E-03
       N       E                     dE             d eps       ncg     rms          rms(c)
DAV:   1    -0.616069013549E+03    0.64488E-03   -0.14555E-01  1428   0.876E-01    0.947E-02
RMM:   2    -0.616069157303E+03   -0.14375E-03   -0.21974E-03  1428   0.109E-01    0.570E-02
RMM:   3    -0.616069129774E+03    0.27529E-04   -0.10960E-04  1435   0.287E-02    0.264E-02
RMM:   4    -0.616069126102E+03    0.36714E-05   -0.35629E-05  1493   0.122E-02    0.477E-03
RMM:   5    -0.616069125803E+03    0.29952E-06   -0.17784E-06  1425   0.320E-03    0.222E-03
RMM:   6    -0.616069125799E+03    0.30996E-08   -0.46385E-07  1161   0.123E-03
 189 F= -.62424533E+03 E0= -.62424533E+03  d E =-.530755E-03
       N       E                     dE             d eps       ncg     rms          rms(c)
DAV:   1    -0.616068809531E+03    0.31627E-03   -0.18463E-01  1428   0.986E-01    0.119E-01
RMM:   2    -0.616069018183E+03   -0.20865E-03   -0.31442E-03  1428   0.131E-01    0.661E-02
RMM:   3    -0.616068977444E+03    0.40739E-04   -0.16163E-04  1435   0.338E-02    0.325E-02
RMM:   4    -0.616068970595E+03    0.68489E-05   -0.58634E-05  1490   0.150E-02    0.587E-03
RMM:   5    -0.616068969957E+03    0.63835E-06   -0.30063E-06  1429   0.415E-03    0.271E-03
RMM:   6    -0.616068969909E+03    0.47687E-07   -0.65961E-07  1296   0.147E-03
 190 F= -.62424567E+03 E0= -.62424567E+03  d E =-.348557E-03
       N       E                     dE             d eps       ncg     rms          rms(c)
DAV:   1    -0.616068803529E+03    0.16643E-03   -0.21681E-02  1480   0.338E-01    0.408E-02
RMM:   2    -0.616068828043E+03   -0.24514E-04   -0.36977E-04  1428   0.449E-02    0.227E-02
RMM:   3    -0.616068823269E+03    0.47747E-05   -0.19064E-05  1434   0.116E-02    0.112E-02
RMM:   4    -0.616068822452E+03    0.81709E-06   -0.69378E-06  1490   0.515E-03    0.202E-03
RMM:   5    -0.616068822383E+03    0.69162E-07   -0.32543E-07  1009   0.143E-03
 191 F= -.62424570E+03 E0= -.62424570E+03  d E =-.374053E-03
       N       E                     dE             d eps       ncg     rms          rms(c)
DAV:   1    -0.616069005994E+03   -0.18354E-03   -0.93962E-02  1440   0.712E-01    0.858E-02
RMM:   2    -0.616069119665E+03   -0.11367E-03   -0.16959E-03  1428   0.963E-02    0.486E-02
RMM:   3    -0.616069098693E+03    0.20972E-04   -0.84311E-05  1428   0.248E-02    0.241E-02
RMM:   4    -0.616069094862E+03    0.38312E-05   -0.28716E-05  1499   0.109E-02    0.425E-03
RMM:   5    -0.616069094551E+03    0.31083E-06   -0.17104E-06  1427   0.293E-03    0.191E-03
RMM:   6    -0.616069094546E+03    0.50641E-08   -0.22148E-07   928   0.997E-04
 192 F= -.62424599E+03 E0= -.62424599E+03  d E =-.286542E-03
       N       E                     dE             d eps       ncg     rms          rms(c)
DAV:   1    -0.616069102649E+03   -0.80978E-05   -0.53652E-02  1452   0.538E-01    0.649E-02
RMM:   2    -0.616069167482E+03   -0.64833E-04   -0.96816E-04  1428   0.727E-02    0.367E-02
RMM:   3    -0.616069155557E+03    0.11924E-04   -0.48131E-05  1428   0.187E-02    0.182E-02
RMM:   4    -0.616069153379E+03    0.21781E-05   -0.16459E-05  1499   0.824E-03    0.321E-03
RMM:   5    -0.616069153193E+03    0.18591E-06   -0.97161E-07  1385   0.221E-03    0.145E-03
RMM:   6    -0.616069153188E+03    0.51950E-08   -0.12649E-07   882   0.769E-04
 193 F= -.62424606E+03 E0= -.62424606E+03  d E =-.356331E-03
       N       E                     dE             d eps       ncg     rms          rms(c)
DAV:   1    -0.616069533653E+03   -0.38046E-03   -0.10854E-01  1428   0.757E-01    0.885E-02
RMM:   2    -0.616069660349E+03   -0.12670E-03   -0.18613E-03  1428   0.100E-01    0.510E-02
RMM:   3    -0.616069637391E+03    0.22958E-04   -0.88667E-05  1428   0.258E-02    0.256E-02
RMM:   4    -0.616069633099E+03    0.42920E-05   -0.36358E-05  1497   0.120E-02    0.468E-03
RMM:   5    -0.616069632625E+03    0.47373E-06   -0.21290E-06  1429   0.322E-03    0.209E-03
RMM:   6    -0.616069632580E+03    0.45133E-07   -0.25872E-07   951   0.109E-03
 194 F= -.62424635E+03 E0= -.62424635E+03  d E =-.298084E-03
       N       E                     dE             d eps       ncg     rms          rms(c)
DAV:   1    -0.616069823900E+03   -0.19128E-03   -0.10441E-01  1428   0.743E-01    0.869E-02
RMM:   2    -0.616069945890E+03   -0.12199E-03   -0.17909E-03  1428   0.983E-02    0.501E-02
RMM:   3    -0.616069923792E+03    0.22098E-04   -0.85452E-05  1428   0.253E-02    0.252E-02
RMM:   4    -0.616069919661E+03    0.41307E-05   -0.35102E-05  1497   0.118E-02    0.460E-03
RMM:   5    -0.616069919201E+03    0.46062E-06   -0.20556E-06  1428   0.316E-03    0.205E-03
RMM:   6    -0.616069919156E+03    0.45198E-07   -0.25077E-07   946   0.108E-03
 195 F= -.62424646E+03 E0= -.62424646E+03  d E =-.407312E-03
       N       E                     dE             d eps       ncg     rms          rms(c)
DAV:   1    -0.616070067090E+03   -0.14789E-03   -0.15348E-01  1428   0.902E-01    0.103E-01
RMM:   2    -0.616070261898E+03   -0.19481E-03   -0.26698E-03  1428   0.117E-01    0.570E-02
RMM:   3    -0.616070232755E+03    0.29143E-04   -0.11615E-04  1439   0.295E-02    0.315E-02
RMM:   4    -0.616070225744E+03    0.70112E-05   -0.61164E-05  1488   0.149E-02    0.597E-03
RMM:   5    -0.616070224777E+03    0.96714E-06   -0.33278E-06  1428   0.401E-03    0.259E-03
RMM:   6    -0.616070224705E+03    0.72363E-07   -0.54294E-07  1237   0.144E-03
 196 F= -.62424678E+03 E0= -.62424678E+03  d E =-.319743E-03
       N       E                     dE             d eps       ncg     rms          rms(c)
DAV:   1    -0.616070216544E+03    0.82326E-05   -0.60818E-02  1464   0.568E-01    0.645E-02
RMM:   2    -0.616070293865E+03   -0.77321E-04   -0.10580E-03  1428   0.739E-02    0.359E-02
RMM:   3    -0.616070282331E+03    0.11535E-04   -0.46159E-05  1440   0.186E-02    0.198E-02
RMM:   4    -0.616070279476E+03    0.28548E-05   -0.24221E-05  1488   0.941E-03    0.375E-03
RMM:   5    -0.616070279086E+03    0.39030E-06   -0.12880E-06  1421   0.250E-03    0.164E-03
RMM:   6    -0.616070279046E+03    0.39341E-07   -0.20371E-07   907   0.932E-04
 197 F= -.62424685E+03 E0= -.62424685E+03  d E =-.383335E-03
       N       E                     dE             d eps       ncg     rms          rms(c)
DAV:   1    -0.616070151235E+03    0.12785E-03   -0.16123E-01  1428   0.932E-01    0.113E-01
RMM:   2    -0.616070351450E+03   -0.20022E-03   -0.29157E-03  1428   0.122E-01    0.610E-02
RMM:   3    -0.616070314717E+03    0.36733E-04   -0.12982E-04  1429   0.313E-02    0.329E-02
RMM:   4    -0.616070305765E+03    0.89519E-05   -0.60065E-05  1487   0.152E-02    0.612E-03
RMM:   5    -0.616070305017E+03    0.74785E-06   -0.36230E-06  1428   0.414E-03    0.270E-03
RMM:   6    -0.616070304965E+03    0.52256E-07   -0.37786E-07  1074   0.134E-03
 198 F= -.62424712E+03 E0= -.62424712E+03  d E =-.269127E-03
       N       E                     dE             d eps       ncg     rms          rms(c)
DAV:   1    -0.616070247798E+03    0.57219E-04   -0.99831E-03  1512   0.232E-01    0.281E-02
RMM:   2    -0.616070260175E+03   -0.12377E-04   -0.18068E-04  1428   0.305E-02    0.151E-02
RMM:   3    -0.616070257902E+03    0.22732E-05   -0.80820E-06  1430   0.780E-03    0.823E-03
RMM:   4    -0.616070257300E+03    0.60175E-06   -0.37683E-06  1484   0.380E-03    0.151E-03
RMM:   5    -0.616070257252E+03    0.48560E-07   -0.18456E-07   922   0.101E-03
 199 F= -.62424713E+03 E0= -.62424713E+03  d E =-.282021E-03
       N       E                     dE             d eps       ncg     rms          rms(c)
DAV:   1    -0.616070226378E+03    0.30922E-04   -0.12337E-01  1428   0.814E-01    0.944E-02
RMM:   2    -0.616070367835E+03   -0.14146E-03   -0.22015E-03  1428   0.109E-01    0.560E-02
RMM:   3    -0.616070335148E+03    0.32687E-04   -0.10662E-04  1428   0.276E-02    0.273E-02
RMM:   4    -0.616070329388E+03    0.57598E-05   -0.38101E-05  1489   0.126E-02    0.526E-03
RMM:   5    -0.616070328934E+03    0.45438E-06   -0.31309E-06  1429   0.383E-03    0.227E-03
RMM:   6    -0.616070328921E+03    0.13060E-07   -0.24657E-07   937   0.117E-03
 200 F= -.62424737E+03 E0= -.62424737E+03  d E =-.236390E-03
       N       E                     dE             d eps       ncg     rms          rms(c)
DAV:   1    -0.616070251402E+03    0.77531E-04   -0.35627E-02  1440   0.437E-01    0.507E-02
RMM:   2    -0.616070292382E+03   -0.40980E-04   -0.63733E-04  1428   0.585E-02    0.300E-02
RMM:   3    -0.616070283008E+03    0.93738E-05   -0.30811E-05  1428   0.149E-02    0.147E-02
RMM:   4    -0.616070281322E+03    0.16865E-05   -0.11104E-05  1489   0.682E-03    0.282E-03
RMM:   5    -0.616070281188E+03    0.13354E-06   -0.89635E-07  1374   0.205E-03    0.122E-03
RMM:   6    -0.616070281185E+03    0.31723E-08   -0.73648E-08   882   0.662E-04
 201 F= -.62424741E+03 E0= -.62424741E+03  d E =-.277417E-03
       N       E                     dE             d eps       ncg     rms          rms(c)
DAV:   1    -0.616070118181E+03    0.16301E-03   -0.99879E-02  1428   0.734E-01    0.856E-02
RMM:   2    -0.616070243835E+03   -0.12565E-03   -0.18398E-03  1428   0.994E-02    0.482E-02
RMM:   3    -0.616070217208E+03    0.26626E-04   -0.79622E-05  1428   0.246E-02    0.251E-02
RMM:   4    -0.616070211541E+03    0.56676E-05   -0.36888E-05  1483   0.119E-02    0.436E-03
RMM:   5    -0.616070211081E+03    0.45982E-06   -0.16260E-06  1429   0.298E-03    0.203E-03
RMM:   6    -0.616070211037E+03    0.44238E-07   -0.36875E-07  1072   0.121E-03
 202 F= -.62424763E+03 E0= -.62424763E+03  d E =-.223620E-03
       N       E                     dE             d eps       ncg     rms          rms(c)
DAV:   1    -0.616070005186E+03    0.20589E-03   -0.54298E-02  1440   0.541E-01    0.631E-02
RMM:   2    -0.616070073566E+03   -0.68379E-04   -0.99929E-04  1428   0.733E-02    0.356E-02
RMM:   3    -0.616070059179E+03    0.14387E-04   -0.43310E-05  1428   0.181E-02    0.185E-02
RMM:   4    -0.616070056132E+03    0.30467E-05   -0.20086E-05  1483   0.878E-03    0.321E-03
RMM:   5    -0.616070055873E+03    0.25861E-06   -0.86734E-07  1384   0.218E-03    0.151E-03
RMM:   6    -0.616070055842E+03    0.31487E-07   -0.19972E-07   907   0.928E-04
 203 F= -.62424769E+03 E0= -.62424769E+03  d E =-.285344E-03
       N       E                     dE             d eps       ncg     rms          rms(c)
DAV:   1    -0.616069871726E+03    0.18415E-03   -0.47621E-02  1440   0.505E-01    0.619E-02
RMM:   2    -0.616069923260E+03   -0.51534E-04   -0.86872E-04  1428   0.687E-02    0.364E-02
RMM:   3    -0.616069908628E+03    0.14632E-04   -0.42074E-05  1428   0.175E-02    0.177E-02
RMM:   4    -0.616069906089E+03    0.25394E-05   -0.16390E-05  1487   0.815E-03    0.339E-03
RMM:   5    -0.616069905899E+03    0.18976E-06   -0.13432E-06  1425   0.248E-03    0.139E-03
RMM:   6    -0.616069905904E+03   -0.49986E-08   -0.92965E-08   882   0.749E-04
 204 F= -.62424784E+03 E0= -.62424784E+03  d E =-.152708E-03
       N       E                     dE             d eps       ncg     rms          rms(c)
DAV:   1    -0.616069651344E+03    0.25455E-03   -0.40630E-02  1428   0.466E-01    0.572E-02
RMM:   2    -0.616069695370E+03   -0.44026E-04   -0.74229E-04  1428   0.634E-02    0.336E-02
RMM:   3    -0.616069682880E+03    0.12490E-04   -0.35947E-05  1428   0.162E-02    0.163E-02
RMM:   4    -0.616069680718E+03    0.21622E-05   -0.14047E-05  1487   0.753E-03    0.314E-03
RMM:   5    -0.616069680555E+03    0.16249E-06   -0.11546E-06  1410   0.229E-03    0.129E-03
RMM:   6    -0.616069680560E+03   -0.46239E-08   -0.81704E-08   882   0.702E-04
 205 F= -.62424790E+03 E0= -.62424790E+03  d E =-.207199E-03
       N       E                     dE             d eps       ncg     rms          rms(c)
DAV:   1    -0.616069552515E+03    0.12804E-03   -0.24872E-02  1480   0.367E-01    0.461E-02
RMM:   2    -0.616069577301E+03   -0.24786E-04   -0.44731E-04  1428   0.490E-02    0.259E-02
RMM:   3    -0.616069569968E+03    0.73326E-05   -0.21544E-05  1428   0.127E-02    0.131E-02
RMM:   4    -0.616069568431E+03    0.15377E-05   -0.87569E-06  1483   0.599E-03    0.246E-03
RMM:   5    -0.616069568360E+03    0.70511E-07   -0.57934E-07  1124   0.170E-03
 206 F= -.62424803E+03 E0= -.62424803E+03  d E =-.126718E-03
       N       E                     dE             d eps       ncg     rms          rms(c)
DAV:   1    -0.616069262226E+03    0.30620E-03   -0.75454E-02  1428   0.639E-01    0.803E-02
RMM:   2    -0.616069337733E+03   -0.75507E-04   -0.13567E-03  1428   0.853E-02    0.453E-02
RMM:   3    -0.616069315463E+03    0.22270E-04   -0.65431E-05  1428   0.221E-02    0.229E-02
RMM:   4    -0.616069310715E+03    0.47483E-05   -0.26450E-05  1483   0.104E-02    0.429E-03
RMM:   5    -0.616069310480E+03    0.23494E-06   -0.18682E-06  1428   0.297E-03    0.183E-03
RMM:   6    -0.616069310480E+03   -0.18554E-09   -0.14139E-07   886   0.893E-04
 207 F= -.62424818E+03 E0= -.62424818E+03  d E =-.285469E-03
       N       E                     dE             d eps       ncg     rms          rms(c)
DAV:   1    -0.616068365829E+03    0.94465E-03   -0.30181E-01  1428   0.128E+00    0.161E-01
RMM:   2    -0.616068665115E+03   -0.29929E-03   -0.54212E-03  1428   0.170E-01    0.904E-02
RMM:   3    -0.616068575518E+03    0.89597E-04   -0.26159E-04  1428   0.442E-02    0.457E-02
RMM:   4    -0.616068556258E+03    0.19260E-04   -0.10593E-04  1483   0.208E-02    0.857E-03
RMM:   5    -0.616068555245E+03    0.10132E-05   -0.74407E-06  1428   0.592E-03    0.365E-03
RMM:   6    -0.616068555216E+03    0.28827E-07   -0.69295E-07  1310   0.178E-03
 208 F= -.62424826E+03 E0= -.62424826E+03  d E =-.365118E-03
       N       E                     dE             d eps       ncg     rms          rms(c)
DAV:   1    -0.616068386648E+03    0.16860E-03   -0.35093E-02  1464   0.433E-01    0.532E-02
RMM:   2    -0.616068421712E+03   -0.35064E-04   -0.61454E-04  1428   0.572E-02    0.301E-02
RMM:   3    -0.616068412025E+03    0.96866E-05   -0.29606E-05  1430   0.147E-02    0.149E-02
RMM:   4    -0.616068410062E+03    0.19637E-05   -0.11415E-05  1486   0.689E-03    0.264E-03
RMM:   5    -0.616068409987E+03    0.74077E-07   -0.66810E-07  1215   0.187E-03
 209 F= -.62424837E+03 E0= -.62424837E+03  d E =-.103251E-03
       N       E                     dE             d eps       ncg     rms          rms(c)
DAV:   1    -0.616067926546E+03    0.48352E-03   -0.14553E-01  1428   0.882E-01    0.108E-01
RMM:   2    -0.616068073085E+03   -0.14654E-03   -0.25498E-03  1428   0.116E-01    0.615E-02
RMM:   3    -0.616068032510E+03    0.40575E-04   -0.12279E-04  1430   0.301E-02    0.304E-02
RMM:   4    -0.616068024231E+03    0.82785E-05   -0.47193E-05  1489   0.140E-02    0.546E-03
RMM:   5    -0.616068023860E+03    0.37175E-06   -0.30480E-06  1429   0.387E-03    0.239E-03
RMM:   6    -0.616068023862E+03   -0.24738E-08   -0.26291E-07   946   0.117E-03
 210 F= -.62424849E+03 E0= -.62424849E+03  d E =-.224034E-03
       N       E                     dE             d eps       ncg     rms          rms(c)
DAV:   1    -0.616066525513E+03    0.14983E-02   -0.58207E-01  1428   0.176E+00    0.217E-01
RMM:   2    -0.616067108341E+03   -0.58283E-03   -0.10197E-02  1428   0.233E-01    0.123E-01
RMM:   3    -0.616066945312E+03    0.16303E-03   -0.49058E-04  1430   0.601E-02    0.608E-02
RMM:   4    -0.616066911668E+03    0.33645E-04   -0.18948E-04  1488   0.280E-02    0.109E-02
RMM:   5    -0.616066910070E+03    0.15979E-05   -0.12153E-05  1429   0.775E-03    0.477E-03
RMM:   6    -0.616066910033E+03    0.36773E-07   -0.12641E-06  1451   0.235E-03    0.247E-03
RMM:   7    -0.616066910046E+03   -0.12747E-07   -0.52995E-07  1141   0.137E-03
 211 F= -.62424839E+03 E0= -.62424839E+03  d E =-.126857E-03
       N       E                     dE             d eps       ncg     rms          rms(c)
DAV:   1    -0.616067559474E+03   -0.64944E-03   -0.30272E-01  1428   0.127E+00    0.156E-01
RMM:   2    -0.616067862564E+03   -0.30309E-03   -0.52971E-03  1428   0.168E-01    0.886E-02
RMM:   3    -0.616067778032E+03    0.84532E-04   -0.25475E-04  1430   0.432E-02    0.438E-02
RMM:   4    -0.616067760326E+03    0.17706E-04   -0.97593E-05  1487   0.201E-02    0.782E-03
RMM:   5    -0.616067759400E+03    0.92566E-06   -0.62711E-06  1429   0.558E-03    0.341E-03
RMM:   6    -0.616067759303E+03    0.97232E-07   -0.60685E-07  1244   0.168E-03
 212 F= -.62424851E+03 E0= -.62424851E+03  d E =-.242428E-03
       N       E                     dE             d eps       ncg     rms          rms(c)
DAV:   1    -0.616067817443E+03   -0.58043E-04   -0.30148E-02  1452   0.402E-01    0.475E-02
RMM:   2    -0.616067851390E+03   -0.33947E-04   -0.54835E-04  1428   0.549E-02    0.284E-02
RMM:   3    -0.616067842056E+03    0.93334E-05   -0.25614E-05  1429   0.137E-02    0.139E-02
RMM:   4    -0.616067840258E+03    0.17981E-05   -0.10564E-05  1489   0.652E-03    0.276E-03
RMM:   5    -0.616067840106E+03    0.15223E-06   -0.86352E-07  1358   0.196E-03    0.114E-03
RMM:   6    -0.616067840099E+03    0.72250E-08   -0.62851E-08   882   0.629E-04
 213 F= -.62424868E+03 E0= -.62424868E+03  d E =-.172015E-03
       N       E                     dE             d eps       ncg     rms          rms(c)
DAV:   1    -0.616067623863E+03    0.21624E-03   -0.23437E-01  1428   0.112E+00    0.132E-01
RMM:   2    -0.616067888087E+03   -0.26422E-03   -0.42635E-03  1428   0.153E-01    0.789E-02
RMM:   3    -0.616067816869E+03    0.71217E-04   -0.19916E-04  1429   0.382E-02    0.387E-02
RMM:   4    -0.616067803511E+03    0.13359E-04   -0.81970E-05  1492   0.182E-02    0.759E-03
RMM:   5    -0.616067802392E+03    0.11191E-05   -0.64221E-06  1428   0.531E-03    0.314E-03
RMM:   6    -0.616067802354E+03    0.37951E-07   -0.54042E-07  1213   0.165E-03
 214 F= -.62424890E+03 E0= -.62424890E+03  d E =-.389381E-03
       N       E                     dE             d eps       ncg     rms          rms(c)
DAV:   1    -0.616067770714E+03    0.31677E-04   -0.63310E-02  1428   0.586E-01    0.767E-02
RMM:   2    -0.616067846106E+03   -0.75392E-04   -0.12060E-03  1428   0.818E-02    0.403E-02
RMM:   3    -0.616067826839E+03    0.19267E-04   -0.54124E-05  1428   0.200E-02    0.206E-02
RMM:   4    -0.616067822229E+03    0.46103E-05   -0.22980E-05  1480   0.955E-03    0.338E-03
RMM:   5    -0.616067822014E+03    0.21519E-06   -0.10133E-06  1422   0.235E-03    0.167E-03
RMM:   6    -0.616067821987E+03    0.26161E-07   -0.18072E-07   884   0.894E-04
 215 F= -.62424910E+03 E0= -.62424910E+03  d E =-.207474E-03
       N       E                     dE             d eps       ncg     rms          rms(c)
DAV:   1    -0.616067660760E+03    0.16125E-03   -0.68016E-02  1440   0.607E-01    0.795E-02
RMM:   2    -0.616067741453E+03   -0.80693E-04   -0.12936E-03  1428   0.848E-02    0.417E-02
RMM:   3    -0.616067720678E+03    0.20775E-04   -0.58029E-05  1428   0.207E-02    0.214E-02
RMM:   4    -0.616067715716E+03    0.49616E-05   -0.24639E-05  1481   0.989E-03    0.350E-03
RMM:   5    -0.616067715485E+03    0.23108E-06   -0.10927E-06  1430   0.243E-03    0.173E-03
RMM:   6    -0.616067715458E+03    0.27536E-07   -0.19204E-07   890   0.919E-04
 216 F= -.62424919E+03 E0= -.62424919E+03  d E =-.296168E-03
       N       E                     dE             d eps       ncg     rms          rms(c)
DAV:   1    -0.616067706624E+03    0.88609E-05   -0.28839E-02  1496   0.393E-01    0.563E-02
RMM:   2    -0.616067738380E+03   -0.31756E-04   -0.55414E-04  1428   0.566E-02    0.294E-02
RMM:   3    -0.616067727982E+03    0.10398E-04   -0.29450E-05  1428   0.141E-02    0.141E-02
RMM:   4    -0.616067725941E+03    0.20410E-05   -0.10209E-05  1486   0.647E-03    0.285E-03
RMM:   5    -0.616067725840E+03    0.10163E-06   -0.66911E-07  1303   0.190E-03    0.127E-03
RMM:   6    -0.616067725848E+03   -0.78471E-08   -0.10926E-07   882   0.738E-04
 217 F= -.62424933E+03 E0= -.62424933E+03  d E =-.133646E-03
       N       E                     dE             d eps       ncg     rms          rms(c)
DAV:   1    -0.616067668039E+03    0.57801E-04   -0.98171E-03  1480   0.229E-01    0.328E-02
RMM:   2    -0.616067678810E+03   -0.10771E-04   -0.18874E-04  1428   0.330E-02    0.171E-02
RMM:   3    -0.616067675223E+03    0.35869E-05   -0.10053E-05  1428   0.825E-03    0.824E-03
RMM:   4    -0.616067674489E+03    0.73461E-06   -0.34748E-06  1484   0.377E-03    0.167E-03
RMM:   5    -0.616067674456E+03    0.32243E-07   -0.19822E-07   905   0.112E-03
 218 F= -.62424935E+03 E0= -.62424935E+03  d E =-.154309E-03
       N       E                     dE             d eps       ncg     rms          rms(c)
DAV:   1    -0.616067676502E+03   -0.20134E-05   -0.27965E-02  1440   0.387E-01    0.489E-02
RMM:   2    -0.616067701609E+03   -0.25107E-04   -0.45872E-04  1428   0.511E-02    0.271E-02
RMM:   3    -0.616067693249E+03    0.83599E-05   -0.23346E-05  1429   0.127E-02    0.130E-02
RMM:   4    -0.616067691527E+03    0.17220E-05   -0.88884E-06  1488   0.597E-03    0.228E-03
RMM:   5    -0.616067691470E+03    0.57807E-07   -0.37486E-07  1025   0.155E-03
 219 F= -.62424946E+03 E0= -.62424946E+03  d E =-.115479E-03
       N       E                     dE             d eps       ncg     rms          rms(c)
DAV:   1    -0.616067615917E+03    0.75611E-04   -0.37185E-02  1428   0.446E-01    0.565E-02
RMM:   2    -0.616067649584E+03   -0.33667E-04   -0.61237E-04  1428   0.591E-02    0.313E-02
RMM:   3    -0.616067638435E+03    0.11149E-04   -0.31171E-05  1428   0.146E-02    0.151E-02
RMM:   4    -0.616067636136E+03    0.22986E-05   -0.11925E-05  1488   0.691E-03    0.264E-03
RMM:   5    -0.616067636056E+03    0.80061E-07   -0.53533E-07  1167   0.179E-03
 220 F= -.62424952E+03 E0= -.62424952E+03  d E =-.173755E-03
       N       E                     dE             d eps       ncg     rms          rms(c)
DAV:   1    -0.616067674158E+03   -0.38022E-04   -0.32040E-02  1428   0.416E-01    0.547E-02
RMM:   2    -0.616067712364E+03   -0.38206E-04   -0.59087E-04  1428   0.575E-02    0.282E-02
RMM:   3    -0.616067703894E+03    0.84708E-05   -0.27803E-05  1433   0.142E-02    0.151E-02
RMM:   4    -0.616067701990E+03    0.19039E-05   -0.12926E-05  1486   0.723E-03    0.285E-03
RMM:   5    -0.616067701833E+03    0.15712E-06   -0.63117E-07  1283   0.185E-03    0.140E-03
RMM:   6    -0.616067701819E+03    0.13621E-07   -0.21415E-07   907   0.895E-04
 221 F= -.62424964E+03 E0= -.62424964E+03  d E =-.123356E-03
       N       E                     dE             d eps       ncg     rms          rms(c)
DAV:   1    -0.616067689851E+03    0.11982E-04   -0.36318E-03  1512   0.140E-01    0.184E-02
RMM:   2    -0.616067694164E+03   -0.43134E-05   -0.66785E-05  1428   0.194E-02    0.950E-03
RMM:   3    -0.616067693220E+03    0.94434E-06   -0.31681E-06  1433   0.475E-03    0.508E-03
RMM:   4    -0.616067693017E+03    0.20326E-06   -0.14478E-06  1427   0.244E-03    0.950E-04
RMM:   5    -0.616067692999E+03    0.17069E-07   -0.66272E-08   882   0.733E-04
 222 F= -.62424965E+03 E0= -.62424965E+03  d E =-.133936E-03
       N       E                     dE             d eps       ncg     rms          rms(c)
DAV:   1    -0.616067529089E+03    0.16393E-03   -0.18732E-02  1440   0.319E-01    0.398E-02
RMM:   2    -0.616067550330E+03   -0.21241E-04   -0.36088E-04  1428   0.448E-02    0.227E-02
RMM:   3    -0.616067544665E+03    0.56647E-05   -0.18259E-05  1430   0.114E-02    0.119E-02
RMM:   4    -0.616067543647E+03    0.10181E-05   -0.75758E-06  1492   0.547E-03    0.248E-03
RMM:   5    -0.616067543559E+03    0.88003E-07   -0.70023E-07  1292   0.171E-03
 223 F= -.62424973E+03 E0= -.62424973E+03  d E =-.795536E-04
       N       E                     dE             d eps       ncg     rms          rms(c)
DAV:   1    -0.616067412418E+03    0.13123E-03   -0.68670E-03  1464   0.193E-01    0.241E-02
RMM:   2    -0.616067420253E+03   -0.78358E-05   -0.13207E-04  1428   0.272E-02    0.138E-02
RMM:   3    -0.616067418250E+03    0.20030E-05   -0.67317E-06  1429   0.689E-03    0.719E-03
RMM:   4    -0.616067417920E+03    0.33025E-06   -0.27229E-06  1478   0.330E-03    0.148E-03
RMM:   5    -0.616067417890E+03    0.30330E-07   -0.22234E-07   936   0.105E-03
 224 F= -.62424975E+03 E0= -.62424975E+03  d E =-.925751E-04
       N       E                     dE             d eps       ncg     rms          rms(c)
DAV:   1    -0.616067020845E+03    0.39708E-03   -0.15676E-02  1428   0.296E-01    0.391E-02
RMM:   2    -0.616067034361E+03   -0.13516E-04   -0.30658E-04  1428   0.431E-02    0.205E-02
RMM:   3    -0.616067030001E+03    0.43596E-05   -0.16050E-05  1429   0.104E-02    0.103E-02
RMM:   4    -0.616067029126E+03    0.87530E-06   -0.49691E-06  1487   0.457E-03    0.190E-03
RMM:   5    -0.616067029153E+03   -0.27765E-07   -0.20791E-07   914   0.119E-03
 225 F= -.62424983E+03 E0= -.62424983E+03  d E =-.803175E-04
       N       E                     dE             d eps       ncg     rms          rms(c)
DAV:   1    -0.616066394484E+03    0.63464E-03   -0.33210E-02  1428   0.430E-01    0.568E-02
RMM:   2    -0.616066423300E+03   -0.28816E-04   -0.65038E-04  1428   0.627E-02    0.298E-02
RMM:   3    -0.616066413921E+03    0.93790E-05   -0.33974E-05  1429   0.152E-02    0.151E-02
RMM:   4    -0.616066411966E+03    0.19550E-05   -0.10605E-05  1486   0.667E-03    0.278E-03
RMM:   5    -0.616066411990E+03   -0.23596E-07   -0.50101E-07  1135   0.176E-03
 226 F= -.62424989E+03 E0= -.62424989E+03  d E =-.145924E-03
       N       E                     dE             d eps       ncg     rms          rms(c)
DAV:   1    -0.616064931225E+03    0.14807E-02   -0.13282E-01  1428   0.860E-01    0.114E-01
RMM:   2    -0.616065046112E+03   -0.11489E-03   -0.26004E-03  1428   0.125E-01    0.596E-02
RMM:   3    -0.616065008220E+03    0.37893E-04   -0.13574E-04  1429   0.303E-02    0.301E-02
RMM:   4    -0.616064999907E+03    0.83127E-05   -0.42433E-05  1486   0.133E-02    0.554E-03
RMM:   5    -0.616064999839E+03    0.67615E-07   -0.21486E-06  1463   0.351E-03    0.253E-03
RMM:   6    -0.616064999884E+03   -0.44893E-07   -0.45798E-07  1204   0.127E-03
 227 F= -.62424985E+03 E0= -.62424985E+03  d E =-.100146E-03
       N       E                     dE             d eps       ncg     rms          rms(c)
DAV:   1    -0.616065982057E+03   -0.98222E-03   -0.65002E-02  1428   0.602E-01    0.795E-02
RMM:   2    -0.616066037933E+03   -0.55875E-04   -0.12671E-03  1428   0.877E-02    0.417E-02
RMM:   3    -0.616066018713E+03    0.19219E-04   -0.66121E-05  1429   0.211E-02    0.210E-02
RMM:   4    -0.616066014055E+03    0.46587E-05   -0.20595E-05  1486   0.927E-03    0.387E-03
RMM:   5    -0.616066013813E+03    0.24144E-06   -0.10450E-06  1431   0.245E-03    0.174E-03
RMM:   6    -0.616066013734E+03    0.79322E-07   -0.19034E-07   884   0.888E-04
 228 F= -.62424990E+03 E0= -.62424990E+03  d E =-.157641E-03
       N       E                     dE             d eps       ncg     rms          rms(c)
DAV:   1    -0.616065691347E+03    0.32247E-03   -0.90527E-03  1452   0.223E-01    0.284E-02
RMM:   2    -0.616065696683E+03   -0.53351E-05   -0.16023E-04  1428   0.316E-02    0.156E-02
RMM:   3    -0.616065694058E+03    0.26248E-05   -0.94208E-06  1428   0.787E-03    0.712E-03
RMM:   4    -0.616065693659E+03    0.39914E-06   -0.23277E-06  1479   0.318E-03    0.141E-03
RMM:   5    -0.616065693705E+03   -0.46435E-07   -0.96821E-08   882   0.895E-04
 229 F= -.62424997E+03 E0= -.62424997E+03  d E =-.661604E-04
       N       E                     dE             d eps       ncg     rms          rms(c)
DAV:   1    -0.616064635698E+03    0.10580E-02   -0.81559E-02  1428   0.670E-01    0.851E-02
RMM:   2    -0.616064685389E+03   -0.49691E-04   -0.14510E-03  1428   0.949E-02    0.468E-02
RMM:   3    -0.616064661656E+03    0.23733E-04   -0.85359E-05  1428   0.237E-02    0.214E-02
RMM:   4    -0.616064657616E+03    0.40407E-05   -0.21223E-05  1488   0.960E-03    0.431E-03
RMM:   5    -0.616064657715E+03   -0.99084E-07   -0.10919E-06  1429   0.261E-03    0.205E-03
RMM:   6    -0.616064657784E+03   -0.69031E-07   -0.28658E-07   962   0.102E-03
 230 F= -.62425009E+03 E0= -.62425009E+03  d E =-.189332E-03
       N       E                     dE             d eps       ncg     rms          rms(c)
DAV:   1    -0.616062150209E+03    0.25075E-02   -0.32620E-01  1428   0.134E+00    0.170E-01
RMM:   2    -0.616062347596E+03   -0.19739E-03   -0.58060E-03  1428   0.190E-01    0.936E-02
RMM:   3    -0.616062252296E+03    0.95299E-04   -0.34132E-04  1428   0.475E-02    0.428E-02
RMM:   4    -0.616062235498E+03    0.16799E-04   -0.85037E-05  1488   0.192E-02    0.860E-03
RMM:   5    -0.616062235546E+03   -0.48338E-07   -0.43654E-06  1472   0.522E-03    0.416E-03
RMM:   6    -0.616062235635E+03   -0.89134E-07   -0.12917E-06  1364   0.203E-03    0.129E-03
RMM:   7    -0.616062235621E+03    0.13948E-07   -0.92679E-08   882   0.776E-04
 231 F= -.62424999E+03 E0= -.62424999E+03  d E =-.873269E-04
       N       E                     dE             d eps       ncg     rms          rms(c)
DAV:   1    -0.616063968837E+03   -0.17332E-02   -0.16634E-01  1428   0.957E-01    0.122E-01
RMM:   2    -0.616064070995E+03   -0.10216E-03   -0.29553E-03  1428   0.136E-01    0.669E-02
RMM:   3    -0.616064021886E+03    0.49109E-04   -0.17405E-04  1428   0.338E-02    0.306E-02
RMM:   4    -0.616064012646E+03    0.92407E-05   -0.43021E-05  1488   0.136E-02    0.617E-03
RMM:   5    -0.616064012258E+03    0.38756E-06   -0.22221E-06  1471   0.373E-03    0.296E-03
RMM:   6    -0.616064012068E+03    0.19016E-06   -0.62739E-07  1325   0.143E-03    0.928E-04
RMM:   7    -0.616064012054E+03    0.14454E-07   -0.48120E-08   882   0.575E-04
 232 F= -.62425011E+03 E0= -.62425011E+03  d E =-.206640E-03
       N       E                     dE             d eps       ncg     rms          rms(c)
DAV:   1    -0.616063667427E+03    0.34464E-03   -0.23660E-02  1428   0.357E-01    0.444E-02
RMM:   2    -0.616063685240E+03   -0.17813E-04   -0.39109E-04  1428   0.479E-02    0.242E-02
RMM:   3    -0.616063678857E+03    0.63824E-05   -0.21851E-05  1428   0.121E-02    0.114E-02
RMM:   4    -0.616063677866E+03    0.99128E-06   -0.62123E-06  1492   0.514E-03    0.208E-03
RMM:   5    -0.616063677885E+03   -0.19147E-07   -0.24804E-07   926   0.136E-03
 233 F= -.62425021E+03 E0= -.62425021E+03  d E =-.100350E-03
       N       E                     dE             d eps       ncg     rms          rms(c)
DAV:   1    -0.616062430994E+03    0.12469E-02   -0.21303E-01  1428   0.107E+00    0.133E-01
RMM:   2    -0.616062593620E+03   -0.16263E-03   -0.35272E-03  1428   0.144E-01    0.726E-02
RMM:   3    -0.616062536166E+03    0.57454E-04   -0.19708E-04  1428   0.364E-02    0.341E-02
RMM:   4    -0.616062526481E+03    0.96848E-05   -0.56295E-05  1492   0.155E-02    0.625E-03
RMM:   5    -0.616062526364E+03    0.11776E-06   -0.27045E-06  1466   0.409E-03    0.310E-03
RMM:   6    -0.616062526390E+03   -0.26517E-07   -0.76967E-07  1334   0.161E-03
 234 F= -.62425036E+03 E0= -.62425036E+03  d E =-.253422E-03
       N       E                     dE             d eps       ncg     rms          rms(c)
DAV:   1    -0.616062199627E+03    0.32674E-03   -0.58935E-02  1428   0.560E-01    0.653E-02
RMM:   2    -0.616062248962E+03   -0.49334E-04   -0.93922E-04  1428   0.730E-02    0.373E-02
RMM:   3    -0.616062233643E+03    0.15318E-04   -0.52660E-05  1435   0.186E-02    0.173E-02
RMM:   4    -0.616062231406E+03    0.22373E-05   -0.15341E-05  1489   0.800E-03    0.325E-03
RMM:   5    -0.616062231375E+03    0.30799E-07   -0.91172E-07  1387   0.233E-03
 235 F= -.62425052E+03 E0= -.62425052E+03  d E =-.159773E-03
       N       E                     dE             d eps       ncg     rms          rms(c)
DAV:   1    -0.616061654772E+03    0.57663E-03   -0.10220E-01  1428   0.737E-01    0.859E-02
RMM:   2    -0.616061740723E+03   -0.85951E-04   -0.16306E-03  1428   0.960E-02    0.492E-02
RMM:   3    -0.616061714100E+03    0.26623E-04   -0.91577E-05  1435   0.245E-02    0.227E-02
RMM:   4    -0.616061710165E+03    0.39351E-05   -0.26586E-05  1489   0.105E-02    0.430E-03
RMM:   5    -0.616061710083E+03    0.82095E-07   -0.16164E-06  1449   0.309E-03    0.198E-03
RMM:   6    -0.616061710098E+03   -0.15221E-07   -0.25641E-07   965   0.103E-03
 236 F= -.62425060E+03 E0= -.62425060E+03  d E =-.237829E-03
       N       E                     dE             d eps       ncg     rms          rms(c)
DAV:   1    -0.616061315475E+03    0.39461E-03   -0.74710E-02  1440   0.633E-01    0.747E-02
RMM:   2    -0.616061373853E+03   -0.58377E-04   -0.11548E-03  1428   0.805E-02    0.425E-02
RMM:   3    -0.616061355593E+03    0.18260E-04   -0.63472E-05  1430   0.210E-02    0.198E-02
RMM:   4    -0.616061352646E+03    0.29474E-05   -0.18319E-05  1490   0.889E-03    0.374E-03
RMM:   5    -0.616061352593E+03    0.52583E-07   -0.12500E-06  1429   0.255E-03    0.166E-03
RMM:   6    -0.616061352604E+03   -0.11532E-07   -0.13047E-07   885   0.805E-04
 237 F= -.62425075E+03 E0= -.62425075E+03  d E =-.145393E-03
       N       E                     dE             d eps       ncg     rms          rms(c)
DAV:   1    -0.616060370630E+03    0.98196E-03   -0.26935E-01  1428   0.120E+00    0.142E-01
RMM:   2    -0.616060580962E+03   -0.21033E-03   -0.41611E-03  1428   0.153E-01    0.808E-02
RMM:   3    -0.616060514921E+03    0.66041E-04   -0.22851E-04  1430   0.398E-02    0.376E-02
RMM:   4    -0.616060504053E+03    0.10868E-04   -0.66069E-05  1490   0.169E-02    0.709E-03
RMM:   5    -0.616060503740E+03    0.31207E-06   -0.45183E-06  1453   0.485E-03    0.316E-03
RMM:   6    -0.616060503755E+03   -0.14588E-07   -0.54034E-07  1233   0.149E-03
 238 F= -.62425085E+03 E0= -.62425085E+03  d E =-.252595E-03
       N       E                     dE             d eps       ncg     rms          rms(c)
DAV:   1    -0.616060148629E+03    0.35511E-03   -0.51159E-02  1468   0.523E-01    0.591E-02
RMM:   2    -0.616060194309E+03   -0.45680E-04   -0.81607E-04  1428   0.679E-02    0.340E-02
RMM:   3    -0.616060182561E+03    0.11748E-04   -0.41586E-05  1429   0.172E-02    0.164E-02
RMM:   4    -0.616060180410E+03    0.21513E-05   -0.13738E-05  1488   0.759E-03    0.300E-03
RMM:   5    -0.616060180382E+03    0.27554E-07   -0.73291E-07  1305   0.202E-03
 239 F= -.62425099E+03 E0= -.62425099E+03  d E =-.138694E-03
       N       E                     dE             d eps       ncg     rms          rms(c)
DAV:   1    -0.616058779206E+03    0.14012E-02   -0.46024E-01  1428   0.157E+00    0.177E-01
RMM:   2    -0.616059189857E+03   -0.41065E-03   -0.73267E-03  1428   0.203E-01    0.102E-01
RMM:   3    -0.616059083992E+03    0.10587E-03   -0.37313E-04  1429   0.518E-02    0.492E-02
RMM:   4    -0.616059064467E+03    0.19525E-04   -0.12305E-04  1488   0.227E-02    0.901E-03
RMM:   5    -0.616059063916E+03    0.55060E-06   -0.67992E-06  1452   0.608E-03    0.423E-03
RMM:   6    -0.616059063893E+03    0.23327E-07   -0.10028E-06  1370   0.194E-03    0.179E-03
RMM:   7    -0.616059063899E+03   -0.61409E-08   -0.18763E-07   897   0.936E-04
 240 F= -.62425126E+03 E0= -.62425126E+03  d E =-.410217E-03
       N       E                     dE             d eps       ncg     rms          rms(c)
DAV:   1    -0.616055072965E+03    0.39909E-02   -0.18405E+00  1428   0.313E+00    0.355E-01
RMM:   2    -0.616056704334E+03   -0.16314E-02   -0.29297E-02  1428   0.406E-01    0.204E-01
RMM:   3    -0.616056278684E+03    0.42565E-03   -0.14911E-03  1429   0.104E-01    0.984E-02
RMM:   4    -0.616056199802E+03    0.78882E-04   -0.49404E-04  1488   0.456E-02    0.180E-02
RMM:   5    -0.616056197261E+03    0.25410E-05   -0.27223E-05  1452   0.122E-02    0.843E-03
RMM:   6    -0.616056197024E+03    0.23677E-06   -0.40548E-06  1450   0.389E-03    0.357E-03
RMM:   7    -0.616056197032E+03   -0.78144E-08   -0.83834E-07  1369   0.184E-03
 241 F= -.62425118E+03 E0= -.62425118E+03  d E =-.326291E-03
       N       E                     dE             d eps       ncg     rms          rms(c)
DAV:   1    -0.616057601912E+03   -0.14049E-02   -0.65025E-01  1428   0.186E+00    0.211E-01
RMM:   2    -0.616058180933E+03   -0.57902E-03   -0.10315E-02  1428   0.242E-01    0.121E-01
RMM:   3    -0.616058031960E+03    0.14897E-03   -0.52570E-04  1429   0.613E-02    0.585E-02
RMM:   4    -0.616058003972E+03    0.27988E-04   -0.17273E-04  1488   0.269E-02    0.107E-02
RMM:   5    -0.616058002767E+03    0.12055E-05   -0.96160E-06  1449   0.721E-03    0.502E-03
RMM:   6    -0.616058002572E+03    0.19442E-06   -0.13961E-06  1412   0.230E-03    0.215E-03
RMM:   7    -0.616058002555E+03    0.17204E-07   -0.26182E-07   944   0.109E-03
 242 F= -.62425133E+03 E0= -.62425133E+03  d E =-.476773E-03
       N       E                     dE             d eps       ncg     rms          rms(c)
DAV:   1    -0.616057268533E+03    0.73404E-03   -0.20444E-01  1428   0.105E+00    0.126E-01
RMM:   2    -0.616057465935E+03   -0.19740E-03   -0.33720E-03  1428   0.139E-01    0.699E-02
RMM:   3    -0.616057415005E+03    0.50929E-04   -0.17091E-04  1428   0.348E-02    0.334E-02
RMM:   4    -0.616057405749E+03    0.92563E-05   -0.55172E-05  1487   0.152E-02    0.565E-03
RMM:   5    -0.616057405583E+03    0.16601E-06   -0.27591E-06  1449   0.402E-03    0.275E-03
RMM:   6    -0.616057405608E+03   -0.24927E-07   -0.42827E-07  1160   0.133E-03
 243 F= -.62425156E+03 E0= -.62425156E+03  d E =-.227297E-03
       N       E                     dE             d eps       ncg     rms          rms(c)
DAV:   1    -0.616056141955E+03    0.12636E-02   -0.35196E-01  1428   0.137E+00    0.166E-01
RMM:   2    -0.616056482423E+03   -0.34047E-03   -0.58156E-03  1428   0.182E-01    0.917E-02
RMM:   3    -0.616056394763E+03    0.87661E-04   -0.29532E-04  1428   0.458E-02    0.438E-02
RMM:   4    -0.616056378879E+03    0.15884E-04   -0.95424E-05  1487   0.199E-02    0.744E-03
RMM:   5    -0.616056378551E+03    0.32742E-06   -0.47567E-06  1448   0.528E-03    0.361E-03
RMM:   6    -0.616056378580E+03   -0.28456E-07   -0.79013E-07  1345   0.176E-03
 244 F= -.62425161E+03 E0= -.62425161E+03  d E =-.283164E-03
       N       E                     dE             d eps       ncg     rms          rms(c)
DAV:   1    -0.616056705691E+03   -0.32714E-03   -0.34081E-02  1452   0.427E-01    0.516E-02
RMM:   2    -0.616056738466E+03   -0.32776E-04   -0.56014E-04  1428   0.565E-02    0.286E-02
RMM:   3    -0.616056729931E+03    0.85354E-05   -0.28420E-05  1428   0.142E-02    0.136E-02
RMM:   4    -0.616056728319E+03    0.16117E-05   -0.91020E-06  1487   0.616E-03    0.232E-03
RMM:   5    -0.616056728229E+03    0.89665E-07   -0.42290E-07  1031   0.165E-03
 245 F= -.62425163E+03 E0= -.62425163E+03  d E =-.295457E-03
       N       E                     dE             d eps       ncg     rms          rms(c)
DAV:   1    -0.616056159141E+03    0.56918E-03   -0.21826E-01  1428   0.108E+00    0.129E-01
RMM:   2    -0.616056358669E+03   -0.19953E-03   -0.35646E-03  1428   0.144E-01    0.752E-02
RMM:   3    -0.616056296764E+03    0.61905E-04   -0.18832E-04  1429   0.360E-02    0.336E-02
RMM:   4    -0.616056287315E+03    0.94486E-05   -0.53660E-05  1490   0.151E-02    0.584E-03
RMM:   5    -0.616056287042E+03    0.27325E-06   -0.32958E-06  1439   0.419E-03    0.271E-03
RMM:   6    -0.616056287037E+03    0.47075E-08   -0.42423E-07  1139   0.137E-03
 246 F= -.62425191E+03 E0= -.62425191E+03  d E =-.281544E-03
       N       E                     dE             d eps       ncg     rms          rms(c)
DAV:   1    -0.616054104724E+03    0.21823E-02   -0.12597E+00  1428   0.261E+00    0.310E-01
RMM:   2    -0.616055259602E+03   -0.11549E-02   -0.20605E-02  1428   0.345E-01    0.181E-01
RMM:   3    -0.616054903834E+03    0.35577E-03   -0.10899E-03  1429   0.867E-02    0.806E-02
RMM:   4    -0.616054849433E+03    0.54401E-04   -0.31000E-04  1490   0.363E-02    0.140E-02
RMM:   5    -0.616054847710E+03    0.17227E-05   -0.19039E-05  1442   0.101E-02    0.652E-03
RMM:   6    -0.616054847666E+03    0.43980E-07   -0.26738E-06  1458   0.331E-03    0.267E-03
RMM:   7    -0.616054847632E+03    0.34510E-07   -0.42171E-07  1101   0.138E-03
 247 F= -.62425221E+03 E0= -.62425221E+03  d E =-.583524E-03
       N       E                     dE             d eps       ncg     rms          rms(c)
DAV:   1    -0.616054189892E+03    0.65777E-03   -0.24280E-01  1428   0.114E+00    0.138E-01
RMM:   2    -0.616054399431E+03   -0.20954E-03   -0.38492E-03  1428   0.149E-01    0.796E-02
RMM:   3    -0.616054332450E+03    0.66982E-04   -0.20931E-04  1428   0.375E-02    0.357E-02
RMM:   4    -0.616054322489E+03    0.99603E-05   -0.62058E-05  1490   0.162E-02    0.626E-03
RMM:   5    -0.616054322195E+03    0.29420E-06   -0.38779E-06  1443   0.467E-03    0.294E-03
RMM:   6    -0.616054322206E+03   -0.10368E-07   -0.50912E-07  1213   0.147E-03
 248 F= -.62425248E+03 E0= -.62425248E+03  d E =-.273796E-03
       N       E                     dE             d eps       ncg     rms          rms(c)
DAV:   1    -0.616053527303E+03    0.79489E-03   -0.22729E-01  1428   0.110E+00    0.133E-01
RMM:   2    -0.616053723749E+03   -0.19645E-03   -0.36040E-03  1428   0.144E-01    0.770E-02
RMM:   3    -0.616053661398E+03    0.62352E-04   -0.19561E-04  1428   0.363E-02    0.345E-02
RMM:   4    -0.616053652133E+03    0.92644E-05   -0.58212E-05  1490   0.156E-02    0.603E-03
RMM:   5    -0.616053651861E+03    0.27210E-06   -0.36067E-06  1444   0.451E-03    0.284E-03
RMM:   6    -0.616053651872E+03   -0.11063E-07   -0.47497E-07  1182   0.142E-03
 249 F= -.62425259E+03 E0= -.62425259E+03  d E =-.378085E-03
       N       E                     dE             d eps       ncg     rms          rms(c)
DAV:   1    -0.616053289677E+03    0.36218E-03   -0.11820E-01  1440   0.794E-01    0.965E-02
RMM:   2    -0.616053387889E+03   -0.98212E-04   -0.18201E-03  1428   0.101E-01    0.548E-02
RMM:   3    -0.616053357063E+03    0.30826E-04   -0.94318E-05  1428   0.255E-02    0.263E-02
RMM:   4    -0.616053351510E+03    0.55533E-05   -0.34282E-05  1488   0.117E-02    0.458E-03
RMM:   5    -0.616053351307E+03    0.20255E-06   -0.18125E-06  1443   0.321E-03    0.224E-03
RMM:   6    -0.616053351298E+03    0.96334E-08   -0.26370E-07   948   0.107E-03
 250 F= -.62425280E+03 E0= -.62425280E+03  d E =-.211228E-03
       N       E                     dE             d eps       ncg     rms          rms(c)
DAV:   1    -0.616052622925E+03    0.72838E-03   -0.23111E-01  1428   0.111E+00    0.135E-01
RMM:   2    -0.616052814226E+03   -0.19130E-03   -0.35552E-03  1428   0.142E-01    0.767E-02
RMM:   3    -0.616052753754E+03    0.60472E-04   -0.18425E-04  1428   0.356E-02    0.367E-02
RMM:   4    -0.616052742793E+03    0.10961E-04   -0.66899E-05  1488   0.164E-02    0.640E-03
RMM:   5    -0.616052742364E+03    0.42875E-06   -0.35331E-06  1443   0.449E-03    0.312E-03
RMM:   6    -0.616052742336E+03    0.28136E-07   -0.57967E-07  1277   0.150E-03
 251 F= -.62425291E+03 E0= -.62425291E+03  d E =-.319163E-03
       N       E                     dE             d eps       ncg     rms          rms(c)
DAV:   1    -0.616052512029E+03    0.23034E-03   -0.13654E-01  1428   0.853E-01    0.102E-01
RMM:   2    -0.616052628670E+03   -0.11664E-03   -0.21160E-03  1428   0.108E-01    0.595E-02
RMM:   3    -0.616052593246E+03    0.35425E-04   -0.10990E-04  1428   0.276E-02    0.284E-02
RMM:   4    -0.616052586940E+03    0.63059E-05   -0.39275E-05  1488   0.127E-02    0.507E-03
RMM:   5    -0.616052586728E+03    0.21253E-06   -0.26586E-06  1438   0.369E-03    0.235E-03
RMM:   6    -0.616052586740E+03   -0.12227E-07   -0.22527E-07   907   0.110E-03
 252 F= -.62425309E+03 E0= -.62425309E+03  d E =-.185525E-03
       N       E                     dE             d eps       ncg     rms          rms(c)
DAV:   1    -0.616051999455E+03    0.58727E-03   -0.30789E-01  1428   0.128E+00    0.154E-01
RMM:   2    -0.616052262184E+03   -0.26273E-03   -0.47733E-03  1428   0.163E-01    0.893E-02
RMM:   3    -0.616052182138E+03    0.80045E-04   -0.24777E-04  1428   0.414E-02    0.426E-02
RMM:   4    -0.616052167915E+03    0.14223E-04   -0.88626E-05  1488   0.190E-02    0.763E-03
RMM:   5    -0.616052167367E+03    0.54796E-06   -0.60612E-06  1437   0.557E-03    0.351E-03
RMM:   6    -0.616052167379E+03   -0.11169E-07   -0.58286E-07  1243   0.166E-03
 253 F= -.62425319E+03 E0= -.62425319E+03  d E =-.279851E-03
       N       E                     dE             d eps       ncg     rms          rms(c)
DAV:   1    -0.616052028543E+03    0.13882E-03   -0.21414E-01  1428   0.107E+00    0.133E-01
RMM:   2    -0.616052226874E+03   -0.19833E-03   -0.34612E-03  1428   0.139E-01    0.762E-02
RMM:   3    -0.616052165799E+03    0.61075E-04   -0.18053E-04  1428   0.352E-02    0.351E-02
RMM:   4    -0.616052155864E+03    0.99351E-05   -0.58287E-05  1488   0.156E-02    0.612E-03
RMM:   5    -0.616052155492E+03    0.37181E-06   -0.38965E-06  1435   0.447E-03    0.281E-03
RMM:   6    -0.616052155495E+03   -0.28667E-08   -0.40595E-07  1102   0.140E-03
 254 F= -.62425341E+03 E0= -.62425341E+03  d E =-.224378E-03
       N       E                     dE             d eps       ncg     rms          rms(c)
DAV:   1    -0.616051977956E+03    0.17754E-03   -0.11061E-01  1440   0.769E-01    0.953E-02
RMM:   2    -0.616052080649E+03   -0.10269E-03   -0.17907E-03  1428   0.100E-01    0.548E-02
RMM:   3    -0.616052049037E+03    0.31612E-04   -0.93407E-05  1428   0.253E-02    0.252E-02
RMM:   4    -0.616052043898E+03    0.51390E-05   -0.30199E-05  1488   0.112E-02    0.442E-03
RMM:   5    -0.616052043711E+03    0.18727E-06   -0.20450E-06  1434   0.323E-03    0.202E-03
RMM:   6    -0.616052043713E+03   -0.18917E-08   -0.19024E-07   898   0.101E-03
 255 F= -.62425347E+03 E0= -.62425347E+03  d E =-.283247E-03
       N       E                     dE             d eps       ncg     rms          rms(c)
DAV:   1    -0.616051954237E+03    0.89474E-04   -0.14065E-01  1428   0.869E-01    0.108E-01
RMM:   2    -0.616052119835E+03   -0.16560E-03   -0.25499E-03  1428   0.121E-01    0.606E-02
RMM:   3    -0.616052078459E+03    0.41376E-04   -0.11897E-04  1428   0.291E-02    0.294E-02
RMM:   4    -0.616052070491E+03    0.79675E-05   -0.45677E-05  1488   0.135E-02    0.491E-03
RMM:   5    -0.616052070057E+03    0.43379E-06   -0.26239E-06  1431   0.355E-03    0.232E-03
RMM:   6    -0.616052070013E+03    0.44216E-07   -0.26379E-07   940   0.117E-03
 256 F= -.62425371E+03 E0= -.62425371E+03  d E =-.242506E-03
       N       E                     dE             d eps       ncg     rms          rms(c)
DAV:   1    -0.616051934979E+03    0.13508E-03   -0.62799E-02  1480   0.581E-01    0.722E-02
RMM:   2    -0.616052009101E+03   -0.74122E-04   -0.11408E-03  1428   0.811E-02    0.405E-02
RMM:   3    -0.616051990545E+03    0.18555E-04   -0.53258E-05  1428   0.195E-02    0.197E-02
RMM:   4    -0.616051986927E+03    0.36178E-05   -0.20581E-05  1488   0.904E-03    0.330E-03
RMM:   5    -0.616051986714E+03    0.21308E-06   -0.11914E-06  1422   0.239E-03    0.156E-03
RMM:   6    -0.616051986686E+03    0.28442E-07   -0.11323E-07   883   0.794E-04
 257 F= -.62425377E+03 E0= -.62425377E+03  d E =-.304067E-03
       N       E                     dE             d eps       ncg     rms          rms(c)
DAV:   1    -0.616051796351E+03    0.19036E-03   -0.10276E-01  1428   0.744E-01    0.952E-02
RMM:   2    -0.616051918755E+03   -0.12240E-03   -0.18932E-03  1428   0.103E-01    0.517E-02
RMM:   3    -0.616051889632E+03    0.29122E-04   -0.87992E-05  1428   0.253E-02    0.251E-02
RMM:   4    -0.616051883655E+03    0.59770E-05   -0.32454E-05  1487   0.117E-02    0.392E-03
RMM:   5    -0.616051883484E+03    0.17128E-06   -0.14928E-06  1442   0.285E-03    0.203E-03
RMM:   6    -0.616051883487E+03   -0.35470E-08   -0.21494E-07   897   0.101E-03
 258 F= -.62425392E+03 E0= -.62425392E+03  d E =-.144359E-03
       N       E                     dE             d eps       ncg     rms          rms(c)
DAV:   1    -0.616051826643E+03    0.56841E-04   -0.51982E-03  1512   0.167E-01    0.215E-02
RMM:   2    -0.616051832890E+03   -0.62464E-05   -0.96350E-05  1428   0.233E-02    0.116E-02
RMM:   3    -0.616051831383E+03    0.15069E-05   -0.45069E-06  1428   0.570E-03    0.567E-03
RMM:   4    -0.616051831057E+03    0.32599E-06   -0.16632E-06  1448   0.265E-03    0.880E-04
RMM:   5    -0.616051831048E+03    0.91241E-08   -0.69583E-08   882   0.742E-04
 259 F= -.62425392E+03 E0= -.62425392E+03  d E =-.147636E-03
       N       E                     dE             d eps       ncg     rms          rms(c)
DAV:   1    -0.616051718518E+03    0.11254E-03   -0.86583E-02  1440   0.682E-01    0.808E-02
RMM:   2    -0.616051801371E+03   -0.82853E-04   -0.14401E-03  1428   0.896E-02    0.470E-02
RMM:   3    -0.616051775938E+03    0.25433E-04   -0.71908E-05  1428   0.223E-02    0.211E-02
RMM:   4    -0.616051771834E+03    0.41039E-05   -0.23545E-05  1488   0.998E-03    0.357E-03
RMM:   5    -0.616051771761E+03    0.73174E-07   -0.11157E-06  1442   0.256E-03    0.183E-03
RMM:   6    -0.616051771776E+03   -0.15298E-07   -0.16533E-07   886   0.886E-04
 260 F= -.62425406E+03 E0= -.62425406E+03  d E =-.135691E-03
       N       E                     dE             d eps       ncg     rms          rms(c)
DAV:   1    -0.616051480308E+03    0.29145E-03   -0.15990E-01  1428   0.927E-01    0.110E-01
RMM:   2    -0.616051632982E+03   -0.15267E-03   -0.26596E-03  1428   0.122E-01    0.639E-02
RMM:   3    -0.616051586000E+03    0.46981E-04   -0.13298E-04  1428   0.303E-02    0.287E-02
RMM:   4    -0.616051578452E+03    0.75482E-05   -0.43579E-05  1488   0.136E-02    0.486E-03
RMM:   5    -0.616051578300E+03    0.15265E-06   -0.20772E-06  1462   0.349E-03    0.249E-03
RMM:   6    -0.616051578320E+03   -0.20809E-07   -0.32713E-07  1021   0.119E-03
 261 F= -.62425413E+03 E0= -.62425413E+03  d E =-.208125E-03
       N       E                     dE             d eps       ncg     rms          rms(c)
DAV:   1    -0.616051608348E+03   -0.30049E-04   -0.11029E-01  1428   0.768E-01    0.891E-02
RMM:   2    -0.616051723135E+03   -0.11479E-03   -0.18672E-03  1428   0.101E-01    0.517E-02
RMM:   3    -0.616051691942E+03    0.31192E-04   -0.90127E-05  1428   0.248E-02    0.238E-02
RMM:   4    -0.616051686823E+03    0.51199E-05   -0.32837E-05  1488   0.116E-02    0.384E-03
RMM:   5    -0.616051686696E+03    0.12611E-06   -0.13265E-06  1449   0.293E-03    0.211E-03
RMM:   6    -0.616051686709E+03   -0.12813E-07   -0.30162E-07  1015   0.111E-03
 262 F= -.62425429E+03 E0= -.62425429E+03  d E =-.161408E-03
       N       E                     dE             d eps       ncg     rms          rms(c)
DAV:   1    -0.616051660953E+03    0.25744E-04   -0.28958E-02  1464   0.393E-01    0.457E-02
RMM:   2    -0.616051690990E+03   -0.30038E-04   -0.48951E-04  1428   0.517E-02    0.265E-02
RMM:   3    -0.616051682760E+03    0.82306E-05   -0.23740E-05  1428   0.127E-02    0.122E-02
RMM:   4    -0.616051681409E+03    0.13510E-05   -0.86154E-06  1488   0.596E-03    0.197E-03
RMM:   5    -0.616051681374E+03    0.34706E-07   -0.30134E-07   980   0.150E-03
 263 F= -.62425431E+03 E0= -.62425431E+03  d E =-.183482E-03
       N       E                     dE             d eps       ncg     rms          rms(c)
DAV:   1    -0.616051750256E+03   -0.68848E-04   -0.10690E-01  1428   0.760E-01    0.898E-02
RMM:   2    -0.616051863479E+03   -0.11322E-03   -0.18849E-03  1428   0.101E-01    0.519E-02
RMM:   3    -0.616051831430E+03    0.32048E-04   -0.90507E-05  1428   0.250E-02    0.246E-02
RMM:   4    -0.616051826102E+03    0.53282E-05   -0.34686E-05  1488   0.119E-02    0.408E-03
RMM:   5    -0.616051825925E+03    0.17713E-06   -0.13937E-06  1456   0.291E-03    0.227E-03
RMM:   6    -0.616051825939E+03   -0.14254E-07   -0.45108E-07  1190   0.126E-03
 264 F= -.62425450E+03 E0= -.62425450E+03  d E =-.188243E-03
       N       E                     dE             d eps       ncg     rms          rms(c)
DAV:   1    -0.616051729059E+03    0.96866E-04   -0.18548E-01  1428   0.100E+00    0.118E-01
RMM:   2    -0.616051924644E+03   -0.19558E-03   -0.32614E-03  1428   0.133E-01    0.683E-02
RMM:   3    -0.616051869197E+03    0.55447E-04   -0.15673E-04  1428   0.328E-02    0.323E-02
RMM:   4    -0.616051859945E+03    0.92523E-05   -0.59869E-05  1488   0.156E-02    0.536E-03
RMM:   5    -0.616051859636E+03    0.30857E-06   -0.24060E-06  1474   0.382E-03    0.299E-03
RMM:   6    -0.616051859663E+03   -0.26455E-07   -0.80480E-07  1339   0.166E-03
 265 F= -.62425459E+03 E0= -.62425459E+03  d E =-.280667E-03
       N       E                     dE             d eps       ncg     rms          rms(c)
DAV:   1    -0.616051591770E+03    0.26787E-03   -0.13169E-01  1428   0.845E-01    0.105E-01
RMM:   2    -0.616051746365E+03   -0.15460E-03   -0.24866E-03  1428   0.116E-01    0.587E-02
RMM:   3    -0.616051704400E+03    0.41965E-04   -0.11630E-04  1429   0.289E-02    0.280E-02
RMM:   4    -0.616051696595E+03    0.78053E-05   -0.43499E-05  1488   0.133E-02    0.439E-03
RMM:   5    -0.616051696502E+03    0.92779E-07   -0.15211E-06  1473   0.310E-03    0.249E-03
RMM:   6    -0.616051696543E+03   -0.40884E-07   -0.37173E-07  1098   0.121E-03
 266 F= -.62425477E+03 E0= -.62425477E+03  d E =-.175591E-03
       N       E                     dE             d eps       ncg     rms          rms(c)
DAV:   1    -0.616051430206E+03    0.26630E-03   -0.77280E-02  1440   0.647E-01    0.808E-02
RMM:   2    -0.616051520832E+03   -0.90625E-04   -0.14606E-03  1428   0.890E-02    0.450E-02
RMM:   3    -0.616051496125E+03    0.24706E-04   -0.68392E-05  1429   0.222E-02    0.215E-02
RMM:   4    -0.616051491537E+03    0.45885E-05   -0.25613E-05  1488   0.102E-02    0.337E-03
RMM:   5    -0.616051491491E+03    0.45678E-07   -0.88473E-07  1390   0.238E-03
 267 F= -.62425483E+03 E0= -.62425483E+03  d E =-.230612E-03
       N       E                     dE             d eps       ncg     rms          rms(c)
DAV:   1    -0.616050664309E+03    0.82723E-03   -0.16836E-01  1428   0.956E-01    0.117E-01
RMM:   2    -0.616050867641E+03   -0.20333E-03   -0.33368E-03  1428   0.136E-01    0.659E-02
RMM:   3    -0.616050817635E+03    0.50006E-04   -0.15739E-04  1429   0.341E-02    0.323E-02
RMM:   4    -0.616050807649E+03    0.99869E-05   -0.57860E-05  1489   0.156E-02    0.543E-03
RMM:   5    -0.616050807512E+03    0.13668E-06   -0.26828E-06  1453   0.379E-03    0.277E-03
RMM:   6    -0.616050807560E+03   -0.47934E-07   -0.42713E-07  1157   0.131E-03
 268 F= -.62425503E+03 E0= -.62425503E+03  d E =-.203918E-03
       N       E                     dE             d eps       ncg     rms          rms(c)
DAV:   1    -0.616050373481E+03    0.43403E-03   -0.38342E-02  1464   0.456E-01    0.558E-02
RMM:   2    -0.616050419758E+03   -0.46278E-04   -0.76050E-04  1428   0.649E-02    0.314E-02
RMM:   3    -0.616050408372E+03    0.11387E-04   -0.35917E-05  1429   0.163E-02    0.154E-02
RMM:   4    -0.616050406166E+03    0.22063E-05   -0.13306E-05  1489   0.745E-03    0.261E-03
RMM:   5    -0.616050406156E+03    0.91241E-08   -0.58957E-07  1184   0.182E-03
 269 F= -.62425505E+03 E0= -.62425505E+03  d E =-.226553E-03
       N       E                     dE             d eps       ncg     rms          rms(c)
DAV:   1    -0.616049462055E+03    0.94411E-03   -0.14601E-01  1428   0.893E-01    0.110E-01
RMM:   2    -0.616049627487E+03   -0.16543E-03   -0.28748E-03  1428   0.126E-01    0.623E-02
RMM:   3    -0.616049583463E+03    0.44025E-04   -0.13452E-04  1429   0.315E-02    0.307E-02
RMM:   4    -0.616049574166E+03    0.92962E-05   -0.47662E-05  1487   0.144E-02    0.494E-03
RMM:   5    -0.616049574025E+03    0.14105E-06   -0.22655E-06  1447   0.342E-03    0.247E-03
RMM:   6    -0.616049574029E+03   -0.31287E-08   -0.31930E-07  1022   0.120E-03
 270 F= -.62425521E+03 E0= -.62425521E+03  d E =-.155692E-03
       N       E                     dE             d eps       ncg     rms          rms(c)
DAV:   1    -0.616048248261E+03    0.13258E-02   -0.21572E-01  1428   0.109E+00    0.134E-01
RMM:   2    -0.616048491848E+03   -0.24359E-03   -0.42505E-03  1428   0.154E-01    0.757E-02
RMM:   3    -0.616048426409E+03    0.65439E-04   -0.19891E-04  1429   0.383E-02    0.374E-02
RMM:   4    -0.616048412441E+03    0.13968E-04   -0.70672E-05  1487   0.175E-02    0.601E-03
RMM:   5    -0.616048412218E+03    0.22384E-06   -0.33616E-06  1447   0.417E-03    0.300E-03
RMM:   6    -0.616048412216E+03    0.16589E-08   -0.50257E-07  1211   0.147E-03
 271 F= -.62425525E+03 E0= -.62425525E+03  d E =-.196103E-03
       N       E                     dE             d eps       ncg     rms          rms(c)
DAV:   1    -0.616047807314E+03    0.60490E-03   -0.12297E-01  1428   0.816E-01    0.987E-02
RMM:   2    -0.616047943705E+03   -0.13639E-03   -0.22887E-03  1428   0.111E-01    0.560E-02
RMM:   3    -0.616047906844E+03    0.36861E-04   -0.10679E-04  1429   0.277E-02    0.267E-02
RMM:   4    -0.616047900157E+03    0.66863E-05   -0.37223E-05  1486   0.126E-02    0.415E-03
RMM:   5    -0.616047900072E+03    0.85536E-07   -0.16392E-06  1454   0.308E-03    0.210E-03
RMM:   6    -0.616047900104E+03   -0.31898E-07   -0.25215E-07   946   0.108E-03
 272 F= -.62425538E+03 E0= -.62425538E+03  d E =-.133196E-03
       N       E                     dE             d eps       ncg     rms          rms(c)
DAV:   1    -0.616047328601E+03    0.57147E-03   -0.91475E-02  1428   0.704E-01    0.851E-02
RMM:   2    -0.616047429921E+03   -0.10132E-03   -0.17015E-03  1428   0.960E-02    0.483E-02
RMM:   3    -0.616047402534E+03    0.27387E-04   -0.79475E-05  1429   0.239E-02    0.230E-02
RMM:   4    -0.616047397614E+03    0.49196E-05   -0.27634E-05  1487   0.109E-02    0.359E-03
RMM:   5    -0.616047397555E+03    0.59797E-07   -0.12185E-06  1446   0.265E-03    0.181E-03
RMM:   6    -0.616047397580E+03   -0.25913E-07   -0.18093E-07   883   0.930E-04
 273 F= -.62425544E+03 E0= -.62425544E+03  d E =-.187950E-03
       N       E                     dE             d eps       ncg     rms          rms(c)
DAV:   1    -0.616047171612E+03    0.22594E-03   -0.14420E-02  1496   0.279E-01    0.338E-02
RMM:   2    -0.616047187618E+03   -0.16006E-04   -0.26855E-04  1428   0.382E-02    0.192E-02
RMM:   3    -0.616047183355E+03    0.42634E-05   -0.12566E-05  1429   0.947E-03    0.913E-03
RMM:   4    -0.616047182651E+03    0.70353E-06   -0.43677E-06  1486   0.432E-03    0.143E-03
RMM:   5    -0.616047182647E+03    0.45911E-08   -0.15798E-07   898   0.106E-03
 274 F= -.62425544E+03 E0= -.62425544E+03  d E =-.194422E-03
       N       E                     dE             d eps       ncg     rms          rms(c)
DAV:   1    -0.616047268404E+03   -0.85753E-04   -0.32325E-02  1452   0.418E-01    0.519E-02
RMM:   2    -0.616047305229E+03   -0.36825E-04   -0.62258E-04  1428   0.581E-02    0.289E-02
RMM:   3    -0.616047294694E+03    0.10536E-04   -0.30015E-05  1429   0.142E-02    0.144E-02
RMM:   4    -0.616047292639E+03    0.20548E-05   -0.11735E-05  1481   0.689E-03    0.238E-03
RMM:   5    -0.616047292651E+03   -0.12136E-07   -0.50880E-07  1171   0.182E-03
 275 F= -.62425558E+03 E0= -.62425558E+03  d E =-.134232E-03
       N       E                     dE             d eps       ncg     rms          rms(c)
DAV:   1    -0.616047308359E+03   -0.15721E-04   -0.20547E-02  1464   0.333E-01    0.414E-02
RMM:   2    -0.616047331871E+03   -0.23512E-04   -0.39712E-04  1428   0.464E-02    0.231E-02
RMM:   3    -0.616047325173E+03    0.66985E-05   -0.19242E-05  1429   0.114E-02    0.115E-02
RMM:   4    -0.616047323892E+03    0.12811E-05   -0.74940E-06  1482   0.550E-03    0.191E-03
RMM:   5    -0.616047323906E+03   -0.14399E-07   -0.30267E-07   982   0.145E-03
 276 F= -.62425563E+03 E0= -.62425563E+03  d E =-.184986E-03
       N       E                     dE             d eps       ncg     rms          rms(c)
DAV:   1    -0.616047317026E+03    0.68656E-05   -0.44505E-03  1512   0.155E-01    0.193E-02
RMM:   2    -0.616047322089E+03   -0.50631E-05   -0.86377E-05  1428   0.216E-02    0.108E-02
RMM:   3    -0.616047320637E+03    0.14521E-05   -0.42074E-06  1429   0.531E-03    0.537E-03
RMM:   4    -0.616047320381E+03    0.25585E-06   -0.16189E-06  1449   0.257E-03    0.890E-04
RMM:   5    -0.616047320397E+03   -0.16098E-07   -0.66661E-08   882   0.762E-04
 277 F= -.62425563E+03 E0= -.62425563E+03  d E =-.190593E-03
       N       E                     dE             d eps       ncg     rms          rms(c)
DAV:   1    -0.616047401249E+03   -0.80868E-04   -0.42527E-02  1440   0.481E-01    0.630E-02
RMM:   2    -0.616047456470E+03   -0.55221E-04   -0.86861E-04  1428   0.675E-02    0.327E-02
RMM:   3    -0.616047442567E+03    0.13903E-04   -0.38199E-05  1432   0.163E-02    0.173E-02
RMM:   4    -0.616047439193E+03    0.33734E-05   -0.16960E-05  1472   0.817E-03    0.277E-03
RMM:   5    -0.616047439150E+03    0.43161E-07   -0.56810E-07  1199   0.199E-03
 278 F= -.62425576E+03 E0= -.62425576E+03  d E =-.126957E-03
       N       E                     dE             d eps       ncg     rms          rms(c)
DAV:   1    -0.616047444226E+03   -0.50324E-05   -0.21160E-02  1452   0.340E-01    0.445E-02
RMM:   2    -0.616047472073E+03   -0.27848E-04   -0.43711E-04  1428   0.479E-02    0.232E-02
RMM:   3    -0.616047465042E+03    0.70312E-05   -0.19215E-05  1431   0.116E-02    0.123E-02
RMM:   4    -0.616047463323E+03    0.17195E-05   -0.86412E-06  1467   0.580E-03    0.199E-03
RMM:   5    -0.616047463304E+03    0.18172E-07   -0.27530E-07   966   0.145E-03
 279 F= -.62425579E+03 E0= -.62425579E+03  d E =-.157043E-03
       N       E                     dE             d eps       ncg     rms          rms(c)
DAV:   1    -0.616047296150E+03    0.16717E-03   -0.19927E-02  1428   0.330E-01    0.382E-02
RMM:   2    -0.616047327254E+03   -0.31105E-04   -0.44148E-04  1428   0.496E-02    0.218E-02
RMM:   3    -0.616047321319E+03    0.59357E-05   -0.18506E-05  1430   0.119E-02    0.114E-02
RMM:   4    -0.616047319943E+03    0.13756E-05   -0.76072E-06  1470   0.569E-03    0.217E-03
RMM:   5    -0.616047319876E+03    0.66444E-07   -0.37552E-07  1026   0.143E-03
 280 F= -.62425587E+03 E0= -.62425587E+03  d E =-.810012E-04
       N       E                     dE             d eps       ncg     rms          rms(c)
DAV:   1    -0.616046916521E+03    0.40342E-03   -0.48589E-02  1428   0.515E-01    0.596E-02
RMM:   2    -0.616046992681E+03   -0.76159E-04   -0.10759E-03  1428   0.773E-02    0.341E-02
RMM:   3    -0.616046978273E+03    0.14408E-04   -0.45068E-05  1428   0.186E-02    0.178E-02
RMM:   4    -0.616046974893E+03    0.33799E-05   -0.18622E-05  1469   0.890E-03    0.341E-03
RMM:   5    -0.616046974727E+03    0.16599E-06   -0.10436E-06  1419   0.227E-03    0.152E-03
RMM:   6    -0.616046974725E+03    0.21828E-08   -0.13964E-07   882   0.822E-04
 281 F= -.62425588E+03 E0= -.62425588E+03  d E =-.866354E-04
       N       E                     dE             d eps       ncg     rms          rms(c)
DAV:   1    -0.616047143484E+03   -0.16876E-03   -0.10729E-02  1464   0.242E-01    0.280E-02
RMM:   2    -0.616047160233E+03   -0.16748E-04   -0.23585E-04  1428   0.363E-02    0.160E-02
RMM:   3    -0.616047157130E+03    0.31022E-05   -0.98357E-06  1428   0.869E-03    0.830E-03
RMM:   4    -0.616047156401E+03    0.72899E-06   -0.40152E-06  1469   0.414E-03    0.157E-03
RMM:   5    -0.616047156361E+03    0.40360E-07   -0.18627E-07   915   0.105E-03
 282 F= -.62425589E+03 E0= -.62425589E+03  d E =-.103280E-03
       N       E                     dE             d eps       ncg     rms          rms(c)
DAV:   1    -0.616046973366E+03    0.18303E-03   -0.24410E-02  1428   0.363E-01    0.439E-02
RMM:   2    -0.616047013375E+03   -0.40008E-04   -0.56630E-04  1428   0.553E-02    0.244E-02
RMM:   3    -0.616047006361E+03    0.70139E-05   -0.23482E-05  1428   0.132E-02    0.133E-02
RMM:   4    -0.616047004624E+03    0.17369E-05   -0.95388E-06  1468   0.629E-03    0.270E-03
RMM:   5    -0.616047004533E+03    0.90571E-07   -0.77805E-07  1187   0.179E-03
 283 F= -.62425597E+03 E0= -.62425597E+03  d E =-.764485E-04
       N       E                     dE             d eps       ncg     rms          rms(c)
DAV:   1    -0.616046800980E+03    0.20364E-03   -0.17884E-02  1428   0.311E-01    0.375E-02
RMM:   2    -0.616046830631E+03   -0.29651E-04   -0.41560E-04  1428   0.474E-02    0.209E-02
RMM:   3    -0.616046825649E+03    0.49823E-05   -0.17320E-05  1429   0.114E-02    0.114E-02
RMM:   4    -0.616046824423E+03    0.12258E-05   -0.69193E-06  1471   0.539E-03    0.229E-03
RMM:   5    -0.616046824360E+03    0.62741E-07   -0.53416E-07  1080   0.150E-03
 284 F= -.62425599E+03 E0= -.62425599E+03  d E =-.917520E-04
       N       E                     dE             d eps       ncg     rms          rms(c)
DAV:   1    -0.616046768217E+03    0.56206E-04   -0.23152E-02  1428   0.353E-01    0.422E-02
RMM:   2    -0.616046804449E+03   -0.36231E-04   -0.50728E-04  1428   0.518E-02    0.236E-02
RMM:   3    -0.616046797562E+03    0.68870E-05   -0.21198E-05  1428   0.126E-02    0.125E-02
RMM:   4    -0.616046795925E+03    0.16362E-05   -0.86968E-06  1466   0.593E-03    0.249E-03
RMM:   5    -0.616046795838E+03    0.87268E-07   -0.72370E-07  1230   0.180E-03
 285 F= -.62425605E+03 E0= -.62425605E+03  d E =-.664282E-04
       N       E                     dE             d eps       ncg     rms          rms(c)
DAV:   1    -0.616046749132E+03    0.46793E-04   -0.69871E-03  1480   0.194E-01    0.232E-02
RMM:   2    -0.616046760035E+03   -0.10903E-04   -0.15295E-04  1428   0.284E-02    0.129E-02
RMM:   3    -0.616046757985E+03    0.20504E-05   -0.64136E-06  1428   0.693E-03    0.685E-03
RMM:   4    -0.616046757486E+03    0.49865E-06   -0.26225E-06  1467   0.326E-03    0.136E-03
RMM:   5    -0.616046757462E+03    0.23509E-07   -0.19513E-07   930   0.981E-04
 286 F= -.62425607E+03 E0= -.62425607E+03  d E =-.802794E-04
       N       E                     dE             d eps       ncg     rms          rms(c)
DAV:   1    -0.616046714585E+03    0.42901E-04   -0.66846E-03  1452   0.189E-01    0.219E-02
RMM:   2    -0.616046725429E+03   -0.10844E-04   -0.14935E-04  1428   0.281E-02    0.121E-02
RMM:   3    -0.616046723541E+03    0.18888E-05   -0.60327E-06  1438   0.645E-03    0.700E-03
RMM:   4    -0.616046723159E+03    0.38125E-06   -0.27118E-06  1452   0.331E-03    0.127E-03
RMM:   5    -0.616046723129E+03    0.30101E-07   -0.11619E-07   883   0.940E-04
 287 F= -.62425612E+03 E0= -.62425612E+03  d E =-.539385E-04
       N       E                     dE             d eps       ncg     rms          rms(c)
DAV:   1    -0.616046636183E+03    0.86976E-04   -0.82371E-03  1452   0.210E-01    0.243E-02
RMM:   2    -0.616046649707E+03   -0.13524E-04   -0.18508E-04  1428   0.312E-02    0.135E-02
RMM:   3    -0.616046647344E+03    0.23626E-05   -0.75055E-06  1439   0.720E-03    0.783E-03
RMM:   4    -0.616046646859E+03    0.48516E-06   -0.33899E-06  1456   0.367E-03    0.143E-03
RMM:   5    -0.616046646821E+03    0.38173E-07   -0.15278E-07   893   0.106E-03
 288 F= -.62425614E+03 E0= -.62425614E+03  d E =-.756032E-04
       N       E                     dE             d eps       ncg     rms          rms(c)
DAV:   1    -0.616046571696E+03    0.75163E-04   -0.43274E-03  1464   0.152E-01    0.172E-02
RMM:   2    -0.616046578708E+03   -0.70119E-05   -0.95776E-05  1428   0.221E-02    0.954E-03
RMM:   3    -0.616046577565E+03    0.11422E-05   -0.38782E-06  1445   0.521E-03    0.556E-03
RMM:   4    -0.616046577353E+03    0.21239E-06   -0.15777E-06  1429   0.253E-03    0.104E-03
RMM:   5    -0.616046577342E+03    0.11045E-07   -0.71728E-08   882   0.761E-04
 289 F= -.62425618E+03 E0= -.62425618E+03  d E =-.359093E-04
       N       E                     dE             d eps       ncg     rms          rms(c)
DAV:   1    -0.616046359133E+03    0.21822E-03   -0.19532E-02  1428   0.324E-01    0.366E-02
RMM:   2    -0.616046390810E+03   -0.31677E-04   -0.43217E-04  1428   0.471E-02    0.202E-02
RMM:   3    -0.616046385579E+03    0.52309E-05   -0.17447E-05  1446   0.111E-02    0.118E-02
RMM:   4    -0.616046384420E+03    0.11588E-05   -0.71421E-06  1458   0.537E-03    0.223E-03
RMM:   5    -0.616046384351E+03    0.68532E-07   -0.33624E-07  1016   0.148E-03
 290 F= -.62425621E+03 E0= -.62425621E+03  d E =-.670058E-04
       N       E                     dE             d eps       ncg     rms          rms(c)
DAV:   1    -0.616046248153E+03    0.13627E-03   -0.46704E-03  1452   0.160E-01    0.206E-02
RMM:   2    -0.616046255471E+03   -0.73173E-05   -0.11287E-04  1428   0.241E-02    0.110E-02
RMM:   3    -0.616046254059E+03    0.14122E-05   -0.49985E-06  1432   0.624E-03    0.638E-03
RMM:   4    -0.616046253826E+03    0.23234E-06   -0.25105E-06  1463   0.308E-03    0.163E-03
RMM:   5    -0.616046253810E+03    0.16433E-07   -0.22061E-07   959   0.101E-03
 291 F= -.62425625E+03 E0= -.62425625E+03  d E =-.374778E-04
       N       E                     dE             d eps       ncg     rms          rms(c)
DAV:   1    -0.616046061310E+03    0.19252E-03   -0.68503E-03  1428   0.194E-01    0.250E-02
RMM:   2    -0.616046071973E+03   -0.10663E-04   -0.16466E-04  1428   0.292E-02    0.133E-02
RMM:   3    -0.616046069920E+03    0.20533E-05   -0.72881E-06  1432   0.753E-03    0.772E-03
RMM:   4    -0.616046069554E+03    0.36627E-06   -0.36388E-06  1481   0.372E-03    0.197E-03
RMM:   5    -0.616046069521E+03    0.32400E-07   -0.31197E-07  1002   0.116E-03
 292 F= -.62425626E+03 E0= -.62425626E+03  d E =-.567659E-04
       N       E                     dE             d eps       ncg     rms          rms(c)
DAV:   1    -0.616045984819E+03    0.84735E-04   -0.11906E-03  1560   0.810E-02    0.104E-02
RMM:   2    -0.616045986670E+03   -0.18508E-05   -0.28578E-05  1428   0.121E-02    0.558E-03
RMM:   3    -0.616045986336E+03    0.33419E-06   -0.12680E-06  1429   0.314E-03    0.324E-03
RMM:   4    -0.616045986308E+03    0.27863E-07   -0.61015E-07  1289   0.155E-03
 293 F= -.62425627E+03 E0= -.62425627E+03  d E =-.584227E-04
       N       E                     dE             d eps       ncg     rms          rms(c)
DAV:   1    -0.616045830623E+03    0.15571E-03   -0.39797E-03  1440   0.150E-01    0.215E-02
RMM:   2    -0.616045836769E+03   -0.61459E-05   -0.10470E-04  1428   0.233E-02    0.110E-02
RMM:   3    -0.616045835477E+03    0.12919E-05   -0.47383E-06  1433   0.600E-03    0.650E-03
RMM:   4    -0.616045835291E+03    0.18591E-06   -0.23790E-06  1439   0.301E-03    0.180E-03
RMM:   5    -0.616045835272E+03    0.18852E-07   -0.33331E-07  1018   0.115E-03
 294 F= -.62425630E+03 E0= -.62425630E+03  d E =-.343459E-04
       N       E                     dE             d eps       ncg     rms          rms(c)
DAV:   1    -0.616045439707E+03    0.39558E-03   -0.18990E-02  1428   0.327E-01    0.470E-02
RMM:   2    -0.616045468524E+03   -0.28817E-04   -0.49296E-04  1428   0.508E-02    0.239E-02
RMM:   3    -0.616045462312E+03    0.62119E-05   -0.22357E-05  1433   0.129E-02    0.141E-02
RMM:   4    -0.616045461035E+03    0.12772E-05   -0.10958E-05  1454   0.647E-03    0.381E-03
RMM:   5    -0.616045460895E+03    0.13974E-06   -0.15328E-06  1304   0.237E-03    0.140E-03
RMM:   6    -0.616045460911E+03   -0.16385E-07   -0.72713E-08   882   0.761E-04
 295 F= -.62425633E+03 E0= -.62425633E+03  d E =-.649472E-04
       N       E                     dE             d eps       ncg     rms          rms(c)
DAV:   1    -0.616045345207E+03    0.11569E-03   -0.43595E-03  1464   0.154E-01    0.198E-02
RMM:   2    -0.616045351186E+03   -0.59790E-05   -0.93659E-05  1428   0.225E-02    0.106E-02
RMM:   3    -0.616045349898E+03    0.12882E-05   -0.42520E-06  1429   0.564E-03    0.567E-03
RMM:   4    -0.616045349715E+03    0.18324E-06   -0.18361E-06  1439   0.269E-03    0.135E-03
RMM:   5    -0.616045349670E+03    0.44427E-07   -0.15488E-07   901   0.938E-04
 296 F= -.62425636E+03 E0= -.62425636E+03  d E =-.317948E-04
       N       E                     dE             d eps       ncg     rms          rms(c)
DAV:   1    -0.616045124832E+03    0.22488E-03   -0.11523E-02  1428   0.251E-01    0.322E-02
RMM:   2    -0.616045140782E+03   -0.15950E-04   -0.24803E-04  1428   0.367E-02    0.174E-02
RMM:   3    -0.616045137246E+03    0.35363E-05   -0.11371E-05  1429   0.921E-03    0.922E-03
RMM:   4    -0.616045136675E+03    0.57108E-06   -0.48500E-06  1481   0.434E-03    0.225E-03
RMM:   5    -0.616045136566E+03    0.10904E-06   -0.44472E-07  1047   0.142E-03    0.823E-04
RMM:   6    -0.616045136558E+03    0.82400E-08   -0.60904E-08   880   0.625E-04
 297 F= -.62425638E+03 E0= -.62425638E+03  d E =-.512526E-04
       N       E                     dE             d eps       ncg     rms          rms(c)
DAV:   1    -0.616045072383E+03    0.64183E-04   -0.41013E-03  1440   0.148E-01    0.175E-02
RMM:   2    -0.616045077212E+03   -0.48291E-05   -0.76494E-05  1428   0.202E-02    0.985E-03
RMM:   3    -0.616045076116E+03    0.10968E-05   -0.35174E-06  1431   0.495E-03    0.498E-03
RMM:   4    -0.616045075938E+03    0.17794E-06   -0.10855E-06  1423   0.220E-03    0.923E-04
RMM:   5    -0.616045075932E+03    0.54933E-08   -0.66692E-08   881   0.720E-04
 298 F= -.62425641E+03 E0= -.62425641E+03  d E =-.279246E-04
       N       E                     dE             d eps       ncg     rms          rms(c)
DAV:   1    -0.616044822159E+03    0.25378E-03   -0.36902E-02  1428   0.445E-01    0.524E-02
RMM:   2    -0.616044866185E+03   -0.44026E-04   -0.68798E-04  1428   0.606E-02    0.296E-02
RMM:   3    -0.616044856104E+03    0.10082E-04   -0.31693E-05  1431   0.149E-02    0.149E-02
RMM:   4    -0.616044854312E+03    0.17918E-05   -0.98350E-06  1467   0.657E-03    0.282E-03
RMM:   5    -0.616044854255E+03    0.56814E-07   -0.67070E-07  1267   0.196E-03
 299 F= -.62425645E+03 E0= -.62425645E+03  d E =-.720266E-04
       N       E                     dE             d eps       ncg     rms          rms(c)
DAV:   1    -0.616044780989E+03    0.73323E-04   -0.52296E-03  1468   0.167E-01    0.194E-02
RMM:   2    -0.616044787533E+03   -0.65435E-05   -0.99541E-05  1428   0.227E-02    0.107E-02
RMM:   3    -0.616044786146E+03    0.13870E-05   -0.43440E-06  1430   0.562E-03    0.553E-03
RMM:   4    -0.616044785888E+03    0.25833E-06   -0.15182E-06  1449   0.255E-03    0.101E-03
RMM:   5    -0.616044785895E+03   -0.72250E-08   -0.64840E-08   882   0.723E-04
 300 F= -.62425649E+03 E0= -.62425649E+03  d E =-.352658E-04
       N       E                     dE             d eps       ncg     rms          rms(c)
DAV:   1    -0.616044485126E+03    0.30076E-03   -0.47042E-02  1428   0.502E-01    0.582E-02
RMM:   2    -0.616044544449E+03   -0.59323E-04   -0.89414E-04  1428   0.682E-02    0.322E-02
RMM:   3    -0.616044531629E+03    0.12820E-04   -0.38742E-05  1430   0.167E-02    0.166E-02
RMM:   4    -0.616044529081E+03    0.25480E-05   -0.13801E-05  1467   0.765E-03    0.311E-03
RMM:   5    -0.616044529038E+03    0.42884E-07   -0.68569E-07  1300   0.205E-03
 301 F= -.62425654E+03 E0= -.62425654E+03  d E =-.894778E-04
       N       E                     dE             d eps       ncg     rms          rms(c)
DAV:   1    -0.616044413523E+03    0.11556E-03   -0.53812E-03  1496   0.172E-01    0.219E-02
RMM:   2    -0.616044421358E+03   -0.78352E-05   -0.11953E-04  1428   0.254E-02    0.118E-02
RMM:   3    -0.616044419715E+03    0.16424E-05   -0.53658E-06  1431   0.638E-03    0.631E-03
RMM:   4    -0.616044419397E+03    0.31808E-06   -0.20765E-06  1473   0.295E-03    0.135E-03
RMM:   5    -0.616044419391E+03    0.67594E-08   -0.11508E-07   888   0.826E-04
 302 F= -.62425658E+03 E0= -.62425658E+03  d E =-.351512E-04
       N       E                     dE             d eps       ncg     rms          rms(c)
DAV:   1    -0.616044201552E+03    0.21785E-03   -0.12867E-02  1428   0.265E-01    0.339E-02
RMM:   2    -0.616044220173E+03   -0.18621E-04   -0.28472E-04  1428   0.393E-02    0.183E-02
RMM:   3    -0.616044216192E+03    0.39806E-05   -0.12746E-05  1433   0.979E-03    0.973E-03
RMM:   4    -0.616044215369E+03    0.82341E-06   -0.49127E-06  1474   0.452E-03    0.209E-03
RMM:   5    -0.616044215337E+03    0.31621E-07   -0.30149E-07   989   0.127E-03
 303 F= -.62425660E+03 E0= -.62425660E+03  d E =-.552074E-04
       N       E                     dE             d eps       ncg     rms          rms(c)
DAV:   1    -0.616044115610E+03    0.99758E-04   -0.61541E-03  1440   0.182E-01    0.223E-02
RMM:   2    -0.616044124378E+03   -0.87680E-05   -0.13221E-04  1428   0.268E-02    0.127E-02
RMM:   3    -0.616044122642E+03    0.17365E-05   -0.59722E-06  1430   0.655E-03    0.681E-03
RMM:   4    -0.616044122375E+03    0.26717E-06   -0.25128E-06  1468   0.317E-03    0.144E-03
RMM:   5    -0.616044122359E+03    0.15498E-07   -0.21129E-07   949   0.101E-03
 304 F= -.62425663E+03 E0= -.62425663E+03  d E =-.288579E-04
       N       E                     dE             d eps       ncg     rms          rms(c)
DAV:   1    -0.616043984265E+03    0.13811E-03   -0.89457E-03  1428   0.220E-01    0.269E-02
RMM:   2    -0.616043996954E+03   -0.12689E-04   -0.19188E-04  1428   0.323E-02    0.153E-02
RMM:   3    -0.616043994408E+03    0.25464E-05   -0.86719E-06  1430   0.789E-03    0.820E-03
RMM:   4    -0.616043993986E+03    0.42160E-06   -0.36380E-06  1468   0.382E-03    0.173E-03
RMM:   5    -0.616043993960E+03    0.26215E-07   -0.31732E-07  1012   0.122E-03
 305 F= -.62425665E+03 E0= -.62425665E+03  d E =-.474371E-04
       N       E                     dE             d eps       ncg     rms          rms(c)
DAV:   1    -0.616043925105E+03    0.68881E-04   -0.19583E-03  1512   0.103E-01    0.126E-02
RMM:   2    -0.616043927882E+03   -0.27767E-05   -0.41962E-05  1428   0.151E-02    0.716E-03
RMM:   3    -0.616043927361E+03    0.52134E-06   -0.19057E-06  1430   0.370E-03    0.385E-03
RMM:   4    -0.616043927304E+03    0.56785E-07   -0.77127E-07  1330   0.178E-03
 306 F= -.62425665E+03 E0= -.62425665E+03  d E =-.495368E-04
       N       E                     dE             d eps       ncg     rms          rms(c)
DAV:   1    -0.616043936804E+03   -0.94437E-05   -0.86402E-03  1428   0.215E-01    0.254E-02
RMM:   2    -0.616043949078E+03   -0.12274E-04   -0.16821E-04  1428   0.299E-02    0.140E-02
RMM:   3    -0.616043947069E+03    0.20088E-05   -0.73518E-06  1433   0.733E-03    0.764E-03
RMM:   4    -0.616043946721E+03    0.34826E-06   -0.31955E-06  1468   0.355E-03    0.160E-03
RMM:   5    -0.616043946689E+03    0.31810E-07   -0.28610E-07   981   0.114E-03
 307 F= -.62425669E+03 E0= -.62425669E+03  d E =-.368914E-04
       N       E                     dE             d eps       ncg     rms          rms(c)
DAV:   1    -0.616043936469E+03    0.10252E-04   -0.93021E-03  1428   0.223E-01    0.263E-02
RMM:   2    -0.616043949564E+03   -0.13096E-04   -0.17949E-04  1428   0.309E-02    0.145E-02
RMM:   3    -0.616043947438E+03    0.21262E-05   -0.78245E-06  1433   0.754E-03    0.789E-03
RMM:   4    -0.616043947058E+03    0.38040E-06   -0.33859E-06  1468   0.366E-03    0.161E-03
RMM:   5    -0.616043947022E+03    0.36009E-07   -0.28543E-07   979   0.114E-03
 308 F= -.62425670E+03 E0= -.62425670E+03  d E =-.554347E-04
       N       E                     dE             d eps       ncg     rms          rms(c)
DAV:   1    -0.616043901461E+03    0.45597E-04   -0.99371E-03  1428   0.230E-01    0.256E-02
RMM:   2    -0.616043913626E+03   -0.12165E-04   -0.17032E-04  1428   0.299E-02    0.146E-02
RMM:   3    -0.616043911589E+03    0.20365E-05   -0.73121E-06  1432   0.721E-03    0.814E-03
RMM:   4    -0.616043911195E+03    0.39435E-06   -0.34089E-06  1465   0.362E-03    0.156E-03
RMM:   5    -0.616043911163E+03    0.31268E-07   -0.29088E-07   985   0.118E-03
 309 F= -.62425674E+03 E0= -.62425674E+03  d E =-.404959E-04
       N       E                     dE             d eps       ncg     rms          rms(c)
DAV:   1    -0.616043832276E+03    0.78918E-04   -0.11765E-02  1428   0.250E-01    0.278E-02
RMM:   2    -0.616043846758E+03   -0.14482E-04   -0.20180E-04  1428   0.325E-02    0.159E-02
RMM:   3    -0.616043844349E+03    0.24093E-05   -0.86589E-06  1431   0.785E-03    0.889E-03
RMM:   4    -0.616043843881E+03    0.46812E-06   -0.40463E-06  1468   0.395E-03    0.170E-03
RMM:   5    -0.616043843844E+03    0.36871E-07   -0.34805E-07  1005   0.128E-03
 310 F= -.62425676E+03 E0= -.62425676E+03  d E =-.563121E-04
       N       E                     dE             d eps       ncg     rms          rms(c)
DAV:   1    -0.616043692237E+03    0.15164E-03   -0.75017E-03  1440   0.201E-01    0.226E-02
RMM:   2    -0.616043700927E+03   -0.86898E-05   -0.12644E-04  1428   0.263E-02    0.126E-02
RMM:   3    -0.616043699358E+03    0.15691E-05   -0.53082E-06  1429   0.633E-03    0.670E-03
RMM:   4    -0.616043699043E+03    0.31477E-06   -0.21419E-06  1457   0.300E-03    0.116E-03
RMM:   5    -0.616043699025E+03    0.17848E-07   -0.98584E-08   882   0.826E-04
 311 F= -.62425679E+03 E0= -.62425679E+03  d E =-.284363E-04
       N       E                     dE             d eps       ncg     rms          rms(c)
DAV:   1    -0.616043417990E+03    0.28105E-03   -0.19613E-02  1428   0.324E-01    0.366E-02
RMM:   2    -0.616043440726E+03   -0.22736E-04   -0.33136E-04  1428   0.425E-02    0.204E-02
RMM:   3    -0.616043436518E+03    0.42077E-05   -0.13893E-05  1429   0.103E-02    0.108E-02
RMM:   4    -0.616043435631E+03    0.88755E-06   -0.56719E-06  1474   0.485E-03    0.191E-03
RMM:   5    -0.616043435578E+03    0.52831E-07   -0.28696E-07   977   0.130E-03
 312 F= -.62425681E+03 E0= -.62425681E+03  d E =-.452240E-04
       N       E                     dE             d eps       ncg     rms          rms(c)
DAV:   1    -0.616043280856E+03    0.15477E-03   -0.79412E-03  1440   0.208E-01    0.266E-02
RMM:   2    -0.616043289887E+03   -0.90305E-05   -0.15321E-04  1428   0.295E-02    0.151E-02
RMM:   3    -0.616043287467E+03    0.24198E-05   -0.74146E-06  1429   0.724E-03    0.732E-03
RMM:   4    -0.616043287077E+03    0.38953E-06   -0.26052E-06  1484   0.329E-03    0.136E-03
RMM:   5    -0.616043287062E+03    0.14868E-07   -0.14598E-07   900   0.923E-04
 313 F= -.62425684E+03 E0= -.62425684E+03  d E =-.331374E-04
       N       E                     dE             d eps       ncg     rms          rms(c)
DAV:   1    -0.616043050330E+03    0.23675E-03   -0.14047E-02  1428   0.276E-01    0.353E-02
RMM:   2    -0.616043066288E+03   -0.15958E-04   -0.27087E-04  1428   0.392E-02    0.201E-02
RMM:   3    -0.616043061957E+03    0.43312E-05   -0.13087E-05  1429   0.961E-03    0.974E-03
RMM:   4    -0.616043061221E+03    0.73604E-06   -0.45984E-06  1487   0.437E-03    0.180E-03
RMM:   5    -0.616043061191E+03    0.29737E-07   -0.26953E-07   963   0.121E-03
 314 F= -.62425685E+03 E0= -.62425685E+03  d E =-.490430E-04
       N       E                     dE             d eps       ncg     rms          rms(c)
DAV:   1    -0.616043023873E+03    0.37348E-04   -0.53503E-03  1440   0.168E-01    0.219E-02
RMM:   2    -0.616043029798E+03   -0.59247E-05   -0.10471E-04  1428   0.243E-02    0.128E-02
RMM:   3    -0.616043027965E+03    0.18328E-05   -0.53830E-06  1431   0.594E-03    0.615E-03
RMM:   4    -0.616043027702E+03    0.26313E-06   -0.19744E-06  1467   0.281E-03    0.118E-03
RMM:   5    -0.616043027698E+03    0.43328E-08   -0.12374E-07   899   0.863E-04
 315 F= -.62425689E+03 E0= -.62425689E+03  d E =-.303582E-04
       N       E                     dE             d eps       ncg     rms          rms(c)
DAV:   1    -0.616042852677E+03    0.17503E-03   -0.48131E-02  1428   0.504E-01    0.659E-02
RMM:   2    -0.616042905535E+03   -0.52858E-04   -0.94188E-04  1428   0.729E-02    0.384E-02
RMM:   3    -0.616042888390E+03    0.17145E-04   -0.48448E-05  1430   0.178E-02    0.184E-02
RMM:   4    -0.616042885578E+03    0.28118E-05   -0.17881E-05  1486   0.843E-03    0.356E-03
RMM:   5    -0.616042885484E+03    0.94868E-07   -0.13121E-06  1406   0.247E-03    0.166E-03
RMM:   6    -0.616042885496E+03   -0.12547E-07   -0.10144E-07   883   0.777E-04
 316 F= -.62425693E+03 E0= -.62425693E+03  d E =-.800351E-04
       N       E                     dE             d eps       ncg     rms          rms(c)
DAV:   1    -0.616042825162E+03    0.60322E-04   -0.46953E-03  1496   0.157E-01    0.206E-02
RMM:   2    -0.616042830294E+03   -0.51324E-05   -0.92150E-05  1428   0.228E-02    0.120E-02
RMM:   3    -0.616042828675E+03    0.16194E-05   -0.47317E-06  1430   0.556E-03    0.577E-03
RMM:   4    -0.616042828441E+03    0.23389E-06   -0.17703E-06  1458   0.266E-03    0.111E-03
RMM:   5    -0.616042828436E+03    0.45984E-08   -0.10966E-07   892   0.837E-04
 317 F= -.62425694E+03 E0= -.62425694E+03  d E =-.831128E-04
       N       E                     dE             d eps       ncg     rms          rms(c)
DAV:   1    -0.616042854824E+03   -0.26384E-04   -0.16892E-02  1428   0.300E-01    0.375E-02
RMM:   2    -0.616042875312E+03   -0.20488E-04   -0.32038E-04  1428   0.417E-02    0.212E-02
RMM:   3    -0.616042870079E+03    0.52336E-05   -0.14645E-05  1430   0.101E-02    0.102E-02
RMM:   4    -0.616042869178E+03    0.90092E-06   -0.55813E-06  1480   0.477E-03    0.177E-03
RMM:   5    -0.616042869145E+03    0.33033E-07   -0.26745E-07   952   0.128E-03
 318 F= -.62425699E+03 E0= -.62425699E+03  d E =-.502820E-04
       N       E                     dE             d eps       ncg     rms          rms(c)
DAV:   1    -0.616042875008E+03   -0.58302E-05   -0.50301E-03  1452   0.164E-01    0.205E-02
RMM:   2    -0.616042881143E+03   -0.61347E-05   -0.95896E-05  1428   0.228E-02    0.116E-02
RMM:   3    -0.616042879595E+03    0.15476E-05   -0.43931E-06  1431   0.551E-03    0.561E-03
RMM:   4    -0.616042879335E+03    0.25959E-06   -0.16667E-06  1448   0.261E-03    0.963E-04
RMM:   5    -0.616042879328E+03    0.77052E-08   -0.80296E-08   882   0.778E-04
 319 F= -.62425700E+03 E0= -.62425700E+03  d E =-.657457E-04
       N       E                     dE             d eps       ncg     rms          rms(c)
DAV:   1    -0.616042860175E+03    0.19161E-04   -0.20098E-02  1428   0.327E-01    0.409E-02
RMM:   2    -0.616042884578E+03   -0.24403E-04   -0.38170E-04  1428   0.455E-02    0.231E-02
RMM:   3    -0.616042878331E+03    0.62466E-05   -0.17456E-05  1430   0.110E-02    0.112E-02
RMM:   4    -0.616042877247E+03    0.10841E-05   -0.66718E-06  1480   0.521E-03    0.194E-03
RMM:   5    -0.616042877205E+03    0.41968E-07   -0.32947E-07   987   0.140E-03
 320 F= -.62425701E+03 E0= -.62425701E+03  d E =-.742343E-04
       N       E                     dE             d eps       ncg     rms          rms(c)
DAV:   1    -0.616042864484E+03    0.12764E-04   -0.98122E-03  1428   0.228E-01    0.270E-02
RMM:   2    -0.616042876222E+03   -0.11738E-04   -0.17729E-04  1428   0.305E-02    0.157E-02
RMM:   3    -0.616042873519E+03    0.27027E-05   -0.78551E-06  1429   0.739E-03    0.761E-03
RMM:   4    -0.616042873065E+03    0.45442E-06   -0.30389E-06  1481   0.352E-03    0.127E-03
RMM:   5    -0.616042873054E+03    0.10976E-07   -0.15077E-07   907   0.947E-04
 321 F= -.62425705E+03 E0= -.62425705E+03  d E =-.342886E-04
       N       E                     dE             d eps       ncg     rms          rms(c)
DAV:   1    -0.616042762067E+03    0.11100E-03   -0.88247E-02  1428   0.682E-01    0.808E-02
RMM:   2    -0.616042867726E+03   -0.10566E-03   -0.15913E-03  1428   0.915E-02    0.469E-02
RMM:   3    -0.616042843373E+03    0.24353E-04   -0.70316E-05  1429   0.221E-02    0.228E-02
RMM:   4    -0.616042839136E+03    0.42371E-05   -0.27345E-05  1481   0.105E-02    0.380E-03
RMM:   5    -0.616042838992E+03    0.14383E-06   -0.16098E-06  1435   0.286E-03    0.179E-03
RMM:   6    -0.616042839005E+03   -0.12922E-07   -0.14286E-07   892   0.890E-04
 322 F= -.62425713E+03 E0= -.62425713E+03  d E =-.115912E-03
       N       E                     dE             d eps       ncg     rms          rms(c)
DAV:   1    -0.616042329750E+03    0.50924E-03   -0.35294E-01  1428   0.136E+00    0.162E-01
RMM:   2    -0.616042752193E+03   -0.42244E-03   -0.63678E-03  1428   0.183E-01    0.939E-02
RMM:   3    -0.616042654559E+03    0.97634E-04   -0.28134E-04  1429   0.442E-02    0.456E-02
RMM:   4    -0.616042637436E+03    0.17122E-04   -0.11000E-04  1482   0.211E-02    0.762E-03
RMM:   5    -0.616042636773E+03    0.66379E-06   -0.64517E-06  1435   0.570E-03    0.358E-03
RMM:   6    -0.616042636812E+03   -0.39719E-07   -0.66433E-07  1246   0.177E-03
 323 F= -.62425716E+03 E0= -.62425716E+03  d E =-.146883E-03
       N       E                     dE             d eps       ncg     rms          rms(c)
DAV:   1    -0.616042691207E+03   -0.54435E-04   -0.45399E-02  1428   0.489E-01    0.579E-02
RMM:   2    -0.616042745560E+03   -0.54353E-04   -0.81387E-04  1428   0.655E-02    0.336E-02
RMM:   3    -0.616042733044E+03    0.12516E-04   -0.35862E-05  1429   0.158E-02    0.163E-02
RMM:   4    -0.616042730809E+03    0.22357E-05   -0.13850E-05  1481   0.750E-03    0.272E-03
RMM:   5    -0.616042730690E+03    0.11854E-06   -0.80941E-07  1306   0.204E-03    0.127E-03
RMM:   6    -0.616042730686E+03    0.37398E-08   -0.78778E-08   882   0.692E-04
 324 F= -.62425717E+03 E0= -.62425717E+03  d E =-.156810E-03
       N       E                     dE             d eps       ncg     rms          rms(c)
DAV:   1    -0.616042500152E+03    0.23054E-03   -0.37033E-02  1428   0.443E-01    0.531E-02
RMM:   2    -0.616042544320E+03   -0.44168E-04   -0.68413E-04  1428   0.607E-02    0.307E-02
RMM:   3    -0.616042533891E+03    0.10428E-04   -0.31068E-05  1430   0.148E-02    0.144E-02
RMM:   4    -0.616042532154E+03    0.17373E-05   -0.10777E-05  1484   0.666E-03    0.250E-03
RMM:   5    -0.616042532112E+03    0.41990E-07   -0.58276E-07  1155   0.179E-03
 325 F= -.62425724E+03 E0= -.62425724E+03  d E =-.753831E-04
       N       E                     dE             d eps       ncg     rms          rms(c)
DAV:   1    -0.616042029221E+03    0.50293E-03   -0.10639E-01  1428   0.750E-01    0.900E-02
RMM:   2    -0.616042157260E+03   -0.12804E-03   -0.19716E-03  1428   0.103E-01    0.520E-02
RMM:   3    -0.616042127548E+03    0.29712E-04   -0.89516E-05  1430   0.252E-02    0.245E-02
RMM:   4    -0.616042122552E+03    0.49967E-05   -0.31224E-05  1484   0.113E-02    0.424E-03
RMM:   5    -0.616042122409E+03    0.14255E-06   -0.17641E-06  1433   0.304E-03    0.200E-03
RMM:   6    -0.616042122439E+03   -0.29861E-07   -0.20331E-07   915   0.101E-03
 326 F= -.62425730E+03 E0= -.62425730E+03  d E =-.130377E-03
       N       E                     dE             d eps       ncg     rms          rms(c)
DAV:   1    -0.616041684021E+03    0.43839E-03   -0.29834E-02  1428   0.403E-01    0.516E-02
RMM:   2    -0.616041717612E+03   -0.33592E-04   -0.60573E-04  1428   0.587E-02    0.289E-02
RMM:   3    -0.616041708229E+03    0.93837E-05   -0.28441E-05  1428   0.143E-02    0.136E-02
RMM:   4    -0.616041706563E+03    0.16660E-05   -0.90850E-06  1485   0.624E-03    0.245E-03
RMM:   5    -0.616041706557E+03    0.59772E-08   -0.45467E-07  1063   0.162E-03
 327 F= -.62425737E+03 E0= -.62425737E+03  d E =-.659529E-04
       N       E                     dE             d eps       ncg     rms          rms(c)
DAV:   1    -0.616040807010E+03    0.89955E-03   -0.93441E-02  1428   0.713E-01    0.914E-02
RMM:   2    -0.616040912375E+03   -0.10537E-03   -0.18971E-03  1428   0.104E-01    0.512E-02
RMM:   3    -0.616040882862E+03    0.29514E-04   -0.89029E-05  1428   0.253E-02    0.241E-02
RMM:   4    -0.616040877400E+03    0.54618E-05   -0.28322E-05  1485   0.110E-02    0.432E-03
RMM:   5    -0.616040877335E+03    0.64505E-07   -0.15406E-06  1439   0.286E-03    0.208E-03
RMM:   6    -0.616040877357E+03   -0.21260E-07   -0.23823E-07   917   0.103E-03
 328 F= -.62425739E+03 E0= -.62425739E+03  d E =-.903478E-04
       N       E                     dE             d eps       ncg     rms          rms(c)
DAV:   1    -0.616041119677E+03   -0.24234E-03   -0.76115E-03  1464   0.204E-01    0.262E-02
RMM:   2    -0.616041128262E+03   -0.85851E-05   -0.15429E-04  1428   0.298E-02    0.146E-02
RMM:   3    -0.616041125741E+03    0.25213E-05   -0.71904E-06  1428   0.719E-03    0.688E-03
RMM:   4    -0.616041125190E+03    0.55014E-06   -0.22456E-06  1483   0.311E-03    0.121E-03
RMM:   5    -0.616041125162E+03    0.28842E-07   -0.97003E-08   883   0.808E-04
 329 F= -.62425739E+03 E0= -.62425739E+03  d E =-.942544E-04
       N       E                     dE             d eps       ncg     rms          rms(c)
DAV:   1    -0.616040619309E+03    0.50588E-03   -0.45063E-02  1428   0.493E-01    0.637E-02
RMM:   2    -0.616040670663E+03   -0.51354E-04   -0.91533E-04  1428   0.719E-02    0.355E-02
RMM:   3    -0.616040656244E+03    0.14419E-04   -0.43758E-05  1429   0.175E-02    0.168E-02
RMM:   4    -0.616040653806E+03    0.24374E-05   -0.13723E-05  1489   0.767E-03    0.306E-03
RMM:   5    -0.616040653797E+03    0.89458E-08   -0.78929E-07  1343   0.204E-03
 330 F= -.62425746E+03 E0= -.62425746E+03  d E =-.691219E-04
       N       E                     dE             d eps       ncg     rms          rms(c)
DAV:   1    -0.616039852809E+03    0.80100E-03   -0.89071E-02  1428   0.693E-01    0.894E-02
RMM:   2    -0.616039955258E+03   -0.10245E-03   -0.18117E-03  1428   0.101E-01    0.499E-02
RMM:   3    -0.616039926946E+03    0.28312E-04   -0.86815E-05  1429   0.247E-02    0.236E-02
RMM:   4    -0.616039922076E+03    0.48694E-05   -0.27217E-05  1490   0.108E-02    0.431E-03
RMM:   5    -0.616039922024E+03    0.52030E-07   -0.15828E-06  1449   0.287E-03    0.197E-03
RMM:   6    -0.616039922055E+03   -0.30974E-07   -0.20444E-07   896   0.968E-04
 331 F= -.62425749E+03 E0= -.62425749E+03  d E =-.976210E-04
       N       E                     dE             d eps       ncg     rms          rms(c)
DAV:   1    -0.616039531820E+03    0.39020E-03   -0.58271E-02  1428   0.558E-01    0.700E-02
RMM:   2    -0.616039595019E+03   -0.63199E-04   -0.10828E-03  1428   0.766E-02    0.398E-02
RMM:   3    -0.616039576501E+03    0.18518E-04   -0.53442E-05  1428   0.191E-02    0.183E-02
RMM:   4    -0.616039573743E+03    0.27573E-05   -0.16401E-05  1491   0.833E-03    0.342E-03
RMM:   5    -0.616039573697E+03    0.46039E-07   -0.99981E-07  1405   0.233E-03
 332 F= -.62425755E+03 E0= -.62425755E+03  d E =-.587859E-04
       N       E                     dE             d eps       ncg     rms          rms(c)
DAV:   1    -0.616039379129E+03    0.19461E-03   -0.13321E-02  1480   0.267E-01    0.334E-02
RMM:   2    -0.616039393665E+03   -0.14536E-04   -0.24811E-04  1428   0.367E-02    0.190E-02
RMM:   3    -0.616039389541E+03    0.41243E-05   -0.12265E-05  1428   0.916E-03    0.877E-03
RMM:   4    -0.616039388971E+03    0.56941E-06   -0.37585E-06  1491   0.400E-03    0.163E-03
RMM:   5    -0.616039388971E+03    0.56752E-09   -0.19187E-07   906   0.112E-03
 333 F= -.62425756E+03 E0= -.62425756E+03  d E =-.688378E-04
       N       E                     dE             d eps       ncg     rms          rms(c)
DAV:   1    -0.616039253558E+03    0.13541E-03   -0.24819E-02  1428   0.365E-01    0.461E-02
RMM:   2    -0.616039280053E+03   -0.26495E-04   -0.45443E-04  1428   0.494E-02    0.248E-02
RMM:   3    -0.616039272709E+03    0.73441E-05   -0.21480E-05  1433   0.121E-02    0.131E-02
RMM:   4    -0.616039271191E+03    0.15178E-05   -0.93776E-06  1472   0.603E-03    0.235E-03
RMM:   5    -0.616039271161E+03    0.30632E-07   -0.51233E-07  1121   0.172E-03
 334 F= -.62425762E+03 E0= -.62425762E+03  d E =-.635397E-04
       N       E                     dE             d eps       ncg     rms          rms(c)
DAV:   1    -0.616039083496E+03    0.18769E-03   -0.28281E-02  1428   0.389E-01    0.492E-02
RMM:   2    -0.616039113866E+03   -0.30370E-04   -0.51862E-04  1428   0.527E-02    0.266E-02
RMM:   3    -0.616039105513E+03    0.83532E-05   -0.24574E-05  1433   0.129E-02    0.140E-02
RMM:   4    -0.616039103785E+03    0.17283E-05   -0.10725E-05  1472   0.645E-03    0.251E-03
RMM:   5    -0.616039103746E+03    0.39036E-07   -0.59421E-07  1188   0.184E-03
 335 F= -.62425765E+03 E0= -.62425765E+03  d E =-.898961E-04
       N       E                     dE             d eps       ncg     rms          rms(c)
DAV:   1    -0.616038739872E+03    0.36391E-03   -0.30334E-02  1428   0.406E-01    0.538E-02
RMM:   2    -0.616038767576E+03   -0.27704E-04   -0.58513E-04  1428   0.571E-02    0.295E-02
RMM:   3    -0.616038756993E+03    0.10583E-04   -0.29418E-05  1429   0.143E-02    0.148E-02
RMM:   4    -0.616038754893E+03    0.21001E-05   -0.11449E-05  1475   0.679E-03    0.277E-03
RMM:   5    -0.616038754903E+03   -0.98771E-08   -0.71492E-07  1251   0.193E-03
 336 F= -.62425769E+03 E0= -.62425769E+03  d E =-.384069E-04
       N       E                     dE             d eps       ncg     rms          rms(c)
DAV:   1    -0.616038746426E+03    0.84669E-05   -0.14990E-05  1648   0.926E-03    0.136E-03
RMM:   2    -0.616038746446E+03   -0.20569E-07   -0.38481E-07  1029   0.161E-03    0.849E-04
RMM:   3    -0.616038746442E+03    0.47294E-08   -0.43404E-08   819   0.694E-04
 337 F= -.62425769E+03 E0= -.62425769E+03  d E =-.384344E-04
       N       E                     dE             d eps       ncg     rms          rms(c)
DAV:   1    -0.616038357303E+03    0.38914E-03   -0.89287E-03  1452   0.226E-01    0.370E-02
RMM:   2    -0.616038360931E+03   -0.36280E-05   -0.20816E-04  1428   0.366E-02    0.195E-02
RMM:   3    -0.616038356233E+03    0.46985E-05   -0.12622E-05  1428   0.884E-03    0.906E-03
RMM:   4    -0.616038355403E+03    0.82959E-06   -0.36054E-06  1484   0.387E-03    0.197E-03
RMM:   5    -0.616038355454E+03   -0.50426E-07   -0.21175E-07   925   0.114E-03
 338 F= -.62425772E+03 E0= -.62425772E+03  d E =-.302370E-04
       N       E                     dE             d eps       ncg     rms          rms(c)
DAV:   1    -0.616037937605E+03    0.41780E-03   -0.90530E-03  1428   0.227E-01    0.372E-02
RMM:   2    -0.616037941429E+03   -0.38234E-05   -0.21175E-04  1428   0.368E-02    0.196E-02
RMM:   3    -0.616037936683E+03    0.47454E-05   -0.12833E-05  1428   0.892E-03    0.913E-03
RMM:   4    -0.616037935845E+03    0.83847E-06   -0.36688E-06  1486   0.390E-03    0.200E-03
RMM:   5    -0.616037935895E+03   -0.49986E-07   -0.21812E-07   926   0.115E-03
 339 F= -.62425772E+03 E0= -.62425772E+03  d E =-.347988E-04
       N       E                     dE             d eps       ncg     rms          rms(c)
DAV:   1    -0.616037747650E+03    0.18820E-03   -0.26809E-03  1464   0.123E-01    0.191E-02
RMM:   2    -0.616037748511E+03   -0.86136E-06   -0.56865E-05  1428   0.193E-02    0.105E-02
RMM:   3    -0.616037747207E+03    0.13044E-05   -0.36957E-06  1429   0.464E-03    0.453E-03
RMM:   4    -0.616037747059E+03    0.14755E-06   -0.84298E-07  1401   0.198E-03    0.941E-04
RMM:   5    -0.616037747090E+03   -0.31108E-07   -0.64987E-08   882   0.713E-04
 340 F= -.62425774E+03 E0= -.62425774E+03  d E =-.170170E-04
       N       E                     dE             d eps       ncg     rms          rms(c)
DAV:   1    -0.616037118689E+03    0.62837E-03   -0.24117E-02  1428   0.368E-01    0.573E-02
RMM:   2    -0.616037126415E+03   -0.77268E-05   -0.51143E-04  1428   0.579E-02    0.316E-02
RMM:   3    -0.616037113722E+03    0.12694E-04   -0.33059E-05  1429   0.139E-02    0.136E-02
RMM:   4    -0.616037111820E+03    0.19020E-05   -0.77972E-06  1487   0.595E-03    0.288E-03
RMM:   5    -0.616037111894E+03   -0.74317E-07   -0.58962E-07  1206   0.173E-03
 341 F= -.62425772E+03 E0= -.62425772E+03  d E =0.440005E-06
       N       E                     dE             d eps       ncg     rms          rms(c)
DAV:   1    -0.616036904981E+03    0.20684E-03   -0.27401E-03  1512   0.124E-01    0.193E-02
RMM:   2    -0.616036905888E+03   -0.90645E-06   -0.58352E-05  1428   0.195E-02    0.107E-02
RMM:   3    -0.616036904577E+03    0.13104E-05   -0.37802E-06  1429   0.471E-03    0.460E-03
RMM:   4    -0.616036904429E+03    0.14831E-06   -0.87446E-07  1416   0.202E-03    0.950E-04
RMM:   5    -0.616036904461E+03   -0.31760E-07   -0.64860E-08   882   0.713E-04
 342 F= -.62425772E+03 E0= -.62425772E+03  d E =-.306833E-06
