Zn  P  H  C  N  O                       
   1.00000000000000     
     4.9245225970000002    0.0000391670000000    0.0003836070000000
    -2.4625538329999999   11.9384103879999994   -3.7503459609999998
     0.0015351510000000    0.0148337520000000   19.7073096630000002
   Zn   P    H    C    N    O 
     6     4    56    20     8    16
Direct
  0.0297707750196494  0.9999403423912625  0.0000446942817334
  0.9444485644406626  0.0000348664912337  0.4999920655239833
  0.6417300316875370  0.8928721208493755  0.7631961661526532
  0.7487691025691916  0.1071505431340185  0.2368595436624332
  0.3348874504651675  0.1048884822404403  0.7378536126550159
  0.2298623467279697  0.8949793751815207  0.2622348862659720
  0.7631615480455096  0.0284285612703314  0.6517756307417741
  0.7345156326403028  0.9715334666776556  0.3482598571167870
  0.2140882300542586  0.9690166320615532  0.8489685184103024
  0.2449203590325624  0.0308248177452768  0.1510799712634210
  0.8542256811960840  0.7577619548730823  0.6682967906387489
  0.0971397808654118  0.2422631760934237  0.3316070824588806
  0.9569145573934108  0.7522246284116818  0.7466892117412343
  0.2045953823296927  0.2477278632994455  0.2531449899880442
  0.3982846065406775  0.6516571045249577  0.6703937285744104
  0.7474370331429370  0.3485068638528404  0.3298397751042259
  0.4914246321605802  0.6392665091247736  0.7533373306881828
  0.8518279761963115  0.3607738235786968  0.2467800003188287
  0.8135468130009116  0.5160385389377495  0.6989655718372845
  0.2977442690655465  0.4839569710407119  0.3007605784965506
  0.7831382774104654  0.5456571620702135  0.6175237982576576
  0.2387839451134397  0.4544809434780746  0.3822789259599446
  0.2980765388375488  0.4269812031587037  0.6836769258128825
  0.8717051736305805  0.5731234899996807  0.3163347549854763
  0.2802213792498520  0.4579643850104915  0.6028315173343088
  0.8231179970473761  0.5420685088910560  0.3971647486604652
  0.6135535824787652  0.2950728731374070  0.6346954611468973
  0.3185832541109761  0.7053048670954425  0.3652865445319620
  0.6331887894883153  0.3352071756907051  0.5557846387506586
  0.2988331746220254  0.6650382773793382  0.4441503753003886
  0.1019400835129787  0.2244958412007918  0.6102653366714463
  0.8771882116330332  0.7755330108653808  0.3899411300067328
  0.1163279660253025  0.2644757470160002  0.5315875735717768
  0.8523727310734088  0.7355121078645155  0.4686087570942519
  0.4136217196876970  0.0965808589434900  0.5576384171145534
  0.3172357451720984  0.9034782559957648  0.4424624407634710
  0.3947815423125718  0.1264223629938712  0.4828505930130333
  0.2683183284436979  0.8737408062265644  0.5172779820851403
  0.5820094147780708  0.8794704964650037  0.0227517286234331
  0.7025537172246601  0.1203758124973859  0.9772734973478876
  0.5595213646790356  0.8986467391899140  0.9447723636946321
  0.6610664229444936  0.1013831453189127  0.0553139062862300
  0.8606172039815974  0.7390069645892794  0.9807275562478921
  0.1213978083084655  0.2609143148565138  0.0190833951600311
  0.8695670694830753  0.7670254100867453  0.8980747438051964
  0.1031167131679567  0.2330332144044647  0.1017823159237992
  0.3436592790072837  0.6653379326577920  0.9592484170394115
  0.6778782396243699  0.3344899035944096  0.0408332153837065
  0.3568229649531744  0.6952615485864300  0.8769413357947826
  0.6622948641917219  0.3047588808815931  0.1231967842675914
  0.6870258423697067  0.5648877967919148  0.8353078832521135
  0.1228192517475151  0.4352711537636722  0.1644577750365173
  0.6837714259012984  0.5372132217025651  0.9175906527035238
  0.1461515421939410  0.4628376615454286  0.0821322299948335
  0.1694895156246616  0.4797604020134543  0.8148170776817167
  0.6902877004696251  0.5201558738644394  0.1852987416288485
  0.1821772472555523  0.4472759909471336  0.8958305381875249
  0.7340223561093637  0.5525806900307231  0.1042352922847769
  0.5135046682016977  0.3618036417647588  0.7657895522348497
  0.1528801966458531  0.6381021668654014  0.2338231507544037
  0.5587826994121059  0.3370767613812120  0.8478909807263051
  0.2208132156249931  0.6630850180604000  0.1517002353395895
  0.0280334570955674  0.2511393131885242  0.7573752485889713
  0.7770152372484560  0.7484879839425460  0.2428814942680120
  0.1003491172688840  0.2296276152272867  0.8330571135998852
  0.8695675774963973  0.7703961243498938  0.1672434481152933
  0.5729082953923168  0.6429696537622647  0.7019105656197766
  0.9303048411413144  0.3571271843671582  0.2981494543132399
  0.6671920454108786  0.5344537785618826  0.6637111231265180
  0.1334723162859888  0.4656480987575904  0.3361707091834205
  0.4205711131299026  0.4365068321489858  0.6381277057053936
  0.9847888891632621  0.5636021513980722  0.3618538198333496
  0.4966220349251813  0.3247139685969316  0.5987650985701549
  0.1723646549999316  0.6754652666852365  0.4012263697903862
  0.2368468408970870  0.2360267692317350  0.5673743081006606
  0.0009887431406170  0.7640171776157487  0.4327530496427343
  0.7372213295603558  0.7615670912750829  0.9424892377067380
  0.9758180988953526  0.2384136452488832  0.0574258658439675
  0.4772690760411464  0.6707860985470333  0.9149121397059119
  0.8066604974938940  0.3291657865783293  0.0850870142223528
  0.5536787453136398  0.5574999226133457  0.8794434899720329
  0.9962766344950680  0.4425249973674070  0.1203979487003366
  0.3075959697849697  0.4599129028426603  0.8513675782504819
  0.8476027509892390  0.5400235323829108  0.1485971437626930
  0.4048451717612380  0.3520521589827936  0.8130776024260911
  0.0528001444376685  0.6479420436711081  0.1867300324025507
  0.7839982714987030  0.7463165896239445  0.7149618543190641
  0.0378562041942203  0.2537005363417535  0.2849851327201876
  0.2890763699160814  0.1255051270587231  0.5276456772865998
  0.1636504787718636  0.8745984538762883  0.4724578930732264
  0.6854322953808349  0.8741399213762548  0.9769635996030175
  0.8113835171464103  0.1257969932767296  0.0230615442196935
  0.1888346655371436  0.2496286071124416  0.7903494422365327
  0.9389114732413901  0.7502507380954100  0.2097932048077666
  0.5917623651535777  0.9324205877364733  0.6766455193029728
  0.6589555051134894  0.0674777876535302  0.3233618579812330
  0.6989873881252535  0.1431283060669415  0.6982836705481148
  0.5556994631108196  0.8567925845562527  0.3017943869765105
  0.6713987213485595  0.0080352909321775  0.5726873815167721
  0.6631245154996463  0.9919733283671235  0.4273591337567311
  0.0778600041514466  0.0309761429347546  0.6560069134739592
  0.0467006091777549  0.9690615917415926  0.3440260709251817
  0.3052045893602440  0.9885799735671625  0.9279257364443509
  0.3165150870811360  0.0111495595101943  0.0721048845515853
  0.2763846132118104  0.8540622250615399  0.8024830919880372
  0.4222674168163323  0.1457952511943716  0.1975170996587607
  0.3885661081588410  0.0646474853315482  0.8242399219676244
  0.3236022138198749  0.9352065001080021  0.1758374858650811
  0.9003104007648517  0.9682898744424122  0.8448868434630228
  0.9319094059859268  0.0316651556157623  0.1551783502564064
 
  0.00000000E+00  0.00000000E+00  0.00000000E+00
  0.00000000E+00  0.00000000E+00  0.00000000E+00
  0.00000000E+00  0.00000000E+00  0.00000000E+00
  0.00000000E+00  0.00000000E+00  0.00000000E+00
  0.00000000E+00  0.00000000E+00  0.00000000E+00
  0.00000000E+00  0.00000000E+00  0.00000000E+00
  0.00000000E+00  0.00000000E+00  0.00000000E+00
  0.00000000E+00  0.00000000E+00  0.00000000E+00
  0.00000000E+00  0.00000000E+00  0.00000000E+00
  0.00000000E+00  0.00000000E+00  0.00000000E+00
  0.00000000E+00  0.00000000E+00  0.00000000E+00
  0.00000000E+00  0.00000000E+00  0.00000000E+00
  0.00000000E+00  0.00000000E+00  0.00000000E+00
  0.00000000E+00  0.00000000E+00  0.00000000E+00
  0.00000000E+00  0.00000000E+00  0.00000000E+00
  0.00000000E+00  0.00000000E+00  0.00000000E+00
  0.00000000E+00  0.00000000E+00  0.00000000E+00
  0.00000000E+00  0.00000000E+00  0.00000000E+00
  0.00000000E+00  0.00000000E+00  0.00000000E+00
  0.00000000E+00  0.00000000E+00  0.00000000E+00
  0.00000000E+00  0.00000000E+00  0.00000000E+00
  0.00000000E+00  0.00000000E+00  0.00000000E+00
  0.00000000E+00  0.00000000E+00  0.00000000E+00
  0.00000000E+00  0.00000000E+00  0.00000000E+00
  0.00000000E+00  0.00000000E+00  0.00000000E+00
  0.00000000E+00  0.00000000E+00  0.00000000E+00
  0.00000000E+00  0.00000000E+00  0.00000000E+00
  0.00000000E+00  0.00000000E+00  0.00000000E+00
  0.00000000E+00  0.00000000E+00  0.00000000E+00
  0.00000000E+00  0.00000000E+00  0.00000000E+00
  0.00000000E+00  0.00000000E+00  0.00000000E+00
  0.00000000E+00  0.00000000E+00  0.00000000E+00
  0.00000000E+00  0.00000000E+00  0.00000000E+00
  0.00000000E+00  0.00000000E+00  0.00000000E+00
  0.00000000E+00  0.00000000E+00  0.00000000E+00
  0.00000000E+00  0.00000000E+00  0.00000000E+00
  0.00000000E+00  0.00000000E+00  0.00000000E+00
  0.00000000E+00  0.00000000E+00  0.00000000E+00
  0.00000000E+00  0.00000000E+00  0.00000000E+00
  0.00000000E+00  0.00000000E+00  0.00000000E+00
  0.00000000E+00  0.00000000E+00  0.00000000E+00
  0.00000000E+00  0.00000000E+00  0.00000000E+00
  0.00000000E+00  0.00000000E+00  0.00000000E+00
  0.00000000E+00  0.00000000E+00  0.00000000E+00
  0.00000000E+00  0.00000000E+00  0.00000000E+00
  0.00000000E+00  0.00000000E+00  0.00000000E+00
  0.00000000E+00  0.00000000E+00  0.00000000E+00
  0.00000000E+00  0.00000000E+00  0.00000000E+00
  0.00000000E+00  0.00000000E+00  0.00000000E+00
  0.00000000E+00  0.00000000E+00  0.00000000E+00
  0.00000000E+00  0.00000000E+00  0.00000000E+00
  0.00000000E+00  0.00000000E+00  0.00000000E+00
  0.00000000E+00  0.00000000E+00  0.00000000E+00
  0.00000000E+00  0.00000000E+00  0.00000000E+00
  0.00000000E+00  0.00000000E+00  0.00000000E+00
  0.00000000E+00  0.00000000E+00  0.00000000E+00
  0.00000000E+00  0.00000000E+00  0.00000000E+00
  0.00000000E+00  0.00000000E+00  0.00000000E+00
  0.00000000E+00  0.00000000E+00  0.00000000E+00
  0.00000000E+00  0.00000000E+00  0.00000000E+00
  0.00000000E+00  0.00000000E+00  0.00000000E+00
  0.00000000E+00  0.00000000E+00  0.00000000E+00
  0.00000000E+00  0.00000000E+00  0.00000000E+00
  0.00000000E+00  0.00000000E+00  0.00000000E+00
  0.00000000E+00  0.00000000E+00  0.00000000E+00
  0.00000000E+00  0.00000000E+00  0.00000000E+00
  0.00000000E+00  0.00000000E+00  0.00000000E+00
  0.00000000E+00  0.00000000E+00  0.00000000E+00
  0.00000000E+00  0.00000000E+00  0.00000000E+00
  0.00000000E+00  0.00000000E+00  0.00000000E+00
  0.00000000E+00  0.00000000E+00  0.00000000E+00
  0.00000000E+00  0.00000000E+00  0.00000000E+00
  0.00000000E+00  0.00000000E+00  0.00000000E+00
  0.00000000E+00  0.00000000E+00  0.00000000E+00
  0.00000000E+00  0.00000000E+00  0.00000000E+00
  0.00000000E+00  0.00000000E+00  0.00000000E+00
  0.00000000E+00  0.00000000E+00  0.00000000E+00
  0.00000000E+00  0.00000000E+00  0.00000000E+00
  0.00000000E+00  0.00000000E+00  0.00000000E+00
  0.00000000E+00  0.00000000E+00  0.00000000E+00
  0.00000000E+00  0.00000000E+00  0.00000000E+00
  0.00000000E+00  0.00000000E+00  0.00000000E+00
  0.00000000E+00  0.00000000E+00  0.00000000E+00
  0.00000000E+00  0.00000000E+00  0.00000000E+00
  0.00000000E+00  0.00000000E+00  0.00000000E+00
  0.00000000E+00  0.00000000E+00  0.00000000E+00
  0.00000000E+00  0.00000000E+00  0.00000000E+00
  0.00000000E+00  0.00000000E+00  0.00000000E+00
  0.00000000E+00  0.00000000E+00  0.00000000E+00
  0.00000000E+00  0.00000000E+00  0.00000000E+00
  0.00000000E+00  0.00000000E+00  0.00000000E+00
  0.00000000E+00  0.00000000E+00  0.00000000E+00
  0.00000000E+00  0.00000000E+00  0.00000000E+00
  0.00000000E+00  0.00000000E+00  0.00000000E+00
  0.00000000E+00  0.00000000E+00  0.00000000E+00
  0.00000000E+00  0.00000000E+00  0.00000000E+00
  0.00000000E+00  0.00000000E+00  0.00000000E+00
  0.00000000E+00  0.00000000E+00  0.00000000E+00
  0.00000000E+00  0.00000000E+00  0.00000000E+00
  0.00000000E+00  0.00000000E+00  0.00000000E+00
  0.00000000E+00  0.00000000E+00  0.00000000E+00
  0.00000000E+00  0.00000000E+00  0.00000000E+00
  0.00000000E+00  0.00000000E+00  0.00000000E+00
  0.00000000E+00  0.00000000E+00  0.00000000E+00
  0.00000000E+00  0.00000000E+00  0.00000000E+00
  0.00000000E+00  0.00000000E+00  0.00000000E+00
  0.00000000E+00  0.00000000E+00  0.00000000E+00
  0.00000000E+00  0.00000000E+00  0.00000000E+00
  0.00000000E+00  0.00000000E+00  0.00000000E+00
  0.00000000E+00  0.00000000E+00  0.00000000E+00
