Zn6 P4 H56 C20 N8 O16
1.0
   0.0000000000000003   -4.9245229999999998   -0.0000000000000003
 -11.9412482670681879    2.4622614999999999    3.7411762022746289
   0.0000000000000000    0.0000000000000000  -19.7073199999999993
C H N O P Zn
20 56 8 16 4 6
direct
   0.5731256999999998    0.6431870000000000    0.7018928000000000 C
   0.9299387000000001    0.3568130000000002    0.2981072000000000 C
   0.6674093999999999    0.5346712000000000    0.6636934000000000 C
   0.1327381999999999    0.4653288000000000    0.3363066000000000 C
   0.4207885000000001    0.4367242000000001    0.6381100000000000 C
   0.9840643000000000    0.5632758000000000    0.3618900000000000 C
   0.4968394000000000    0.3249314000000002    0.5987474000000000 C
   0.1719079999999999    0.6750686000000000    0.4012526000000000 C
   0.2370642000000001    0.2362442000000000    0.5673566000000000 C
   0.0008200000000000    0.7637558000000000    0.4326434000000000 C
   0.7374387000000000    0.7617844000000000    0.9424715000000000 C
   0.9756543000000000    0.2382156000000000    0.0575285000000000 C
   0.4774864000000001    0.6710034000000000    0.9148944000000000 C
   0.8064830000000001    0.3289966000000000    0.0851056000000001 C
   0.5538961000000000    0.5577172000000000    0.8794257000000000 C
   0.9961789000000001    0.4422828000000001    0.1205743000000000 C
   0.3078133000000001    0.4601302000000000    0.8513498000000000 C
   0.8476831000000000    0.5398698000000000    0.1486502000000000 C
   0.4050626000000002    0.3522696000000002    0.8130598999999999 C
   0.0527930000000001    0.6477303999999999    0.1869401000000001 C
   0.8544431000000001    0.7579794000000000    0.6682790000000000 H
   0.0964637000000002    0.2420206000000000    0.3317210000000000 H
   0.9571319000000000    0.7524420000000001    0.7466715000000000 H
   0.2046899000000000    0.2475579999999999    0.2533285000000000 H
   0.3985019000000001    0.6518744000000001    0.6703760000000000 H
   0.7466275000000000    0.3481255999999999    0.3296240000000000 H
   0.4916420000000001    0.6394838000000000    0.7533196000000000 H
   0.8521581999999999    0.3605162000000000    0.2466804000000000 H
   0.8137641000000002    0.5162558000000002    0.6989478000000000 H
   0.2975083000000001    0.4837442000000000    0.3010522000000000 H
   0.7833557000000000    0.5458746000000000    0.6175060999999999 H
   0.2374811000000001    0.4541254000000001    0.3824939000000001 H
   0.2982939000000000    0.4271986000000001    0.6836592000000000 H
   0.8710952999999999    0.5728014000000000    0.3163408000000001 H
   0.2804387999999999    0.4581818000000000    0.6028138000000000 H
   0.8222570000000000    0.5418182000000000    0.3971862000000000 H
   0.6137709000000000    0.2952902000000001    0.6346777000000001 H
   0.3184807000000001    0.7047098000000001    0.3653223000000000 H
   0.6334062000000000    0.3354246000000002    0.5557669000000001 H
   0.2979816000000000    0.6645753999999999    0.4442331000000000 H
   0.1021574000000001    0.2247132000000001    0.6102476000000000 H
   0.8774442000000000    0.7752867999999999    0.3897524000000000 H
   0.1165454000000000    0.2646932000000000    0.5315698000000000 H
   0.8518522000000002    0.7353068000000000    0.4684302000000000 H
   0.4138391000000001    0.0967982000000001    0.5576207000000000 H
   0.3170409000000000    0.9032017999999999    0.4423793000000000 H
   0.3949988999999999    0.1266398000000000    0.4828328000000000 H
   0.2683590999999999    0.8733602000000000    0.5171672000000000 H
   0.5822267000000001    0.8796878000000001    0.0227340000000000 H
   0.7025389000000001    0.1203122000000000    0.9772660000000000 H
   0.5597387000000000    0.8988640000000001    0.9447546000000000 H
   0.6608746999999999    0.1011360000000000    0.0552454000000000 H
   0.8608346000000000    0.7392244000000000    0.9807098000000000 H
   0.1216102000000000    0.2607756000000002    0.0192902000000000 H
   0.8697843999999999    0.7672428000000000    0.8980570000000000 H
   0.1025415999999999    0.2327572000000000    0.1019430000000000 H
   0.3438766000000000    0.6655552000000000    0.9592307000000000 H
   0.6783214000000000    0.3344448000000000    0.0407693000000000 H
   0.3570403999999998    0.6954790000000000    0.8769236000000000 H
   0.6615614000000001    0.3045210000000000    0.1230764000000000 H
   0.6872432000000001    0.5651052000000001    0.8352901000000000 H
   0.1221380000000000    0.4348947999999999    0.1647099000000000 H
   0.6839888000000000    0.5374306000000000    0.9175729000000000 H
   0.1465582000000001    0.4625694000000000    0.0824271000000000 H
   0.1697069000000000    0.4799777999999999    0.8147993000000000 H
   0.6897291000000001    0.5200222000000001    0.1852007000000000 H
   0.1823946000000000    0.4474934000000000    0.8958128000000000 H
   0.7349011999999999    0.5525066000000001    0.1041872000000000 H
   0.5137220000000000    0.3620209999999999    0.7657718000000000 H
   0.1517010000000001    0.6379790000000001    0.2342282000000000 H
   0.5590001000000000    0.3372942000000002    0.8478732000000000 H
   0.2217058999999999    0.6627057999999999    0.1521268000000000 H
   0.0282508000000000    0.2513566000000002    0.7573575000000000 H
   0.7768942000000001    0.7486434000000000    0.2426425000000000 H
   0.1005665000000000    0.2298450000000002    0.8330394000000000 H
   0.8707214999999999    0.7701550000000000    0.1669606000000000 H
   0.7842157000000000    0.7465340000000000    0.7149441000000000 N
   0.0376817000000000    0.2534660000000001    0.2850559000000000 N
   0.2892937000000000    0.1257224000000000    0.5276279000000000 N
   0.1635713000000001    0.8742776000000001    0.4723721000000000 N
   0.6856496000000000    0.8743571999999999    0.9769459000000000 N
   0.8112924000000001    0.1256428000000002    0.0230541000000000 N
   0.1890519999999999    0.2498460000000000    0.7903317000000000 N
   0.9392060000000000    0.7501540000000000    0.2096683000000000 N
   0.5919797999999998    0.9326379999999999    0.6766278000000000 O
   0.6593418000000000    0.0673620000000001    0.3233722000000000 O
   0.6992046999999999    0.1433456000000000    0.6982659000000000 O
   0.5558590999999999    0.8566544000000000    0.3017341000000000 O
   0.6716161000000002    0.0082526000000002    0.5726696000000000 O
   0.6633635000000000    0.9917473999999999    0.4273304000000000 O
   0.0780773000000000    0.0311934000000000    0.6559892000000001 O
   0.0468839000000000    0.9688066000000000    0.3440107999999999 O
   0.3054220000000001    0.9887974000000002    0.9279080000000000 O
   0.3166245999999999    0.0112025999999998    0.0720920000000000 O
   0.2766020000000000    0.8542795999999999    0.8024653000000000 O
   0.4223224000000002    0.1457204000000002    0.1975347000000000 O
   0.3887834000000000    0.0648648000000002    0.8242222000000000 O
   0.3239186000000001    0.9351351999999999    0.1757778000000001 O
   0.9005276999999999    0.9685072000000000    0.8448691000000000 O
   0.9320204999999999    0.0314928000000002    0.1551309000000000 O
   0.7633789000000000    0.0286460000000001    0.6517579000000000 P
   0.7347329000000000    0.9713540000000001    0.3482421000000000 P
   0.2143056000000001    0.9692340000000002    0.8489508000000000 P
   0.2450715999999999    0.0307659999999998    0.1510491999999999 P
   0.0299093000000000    1.0000000000000000    1.0000000000000000 Zn
   0.9445398000000000    1.0000000000000000    0.5000000000000000 Zn
   0.6419473000000000    0.8930894000000000    0.7631784000000000 Zn
   0.7488579000000000    0.1069106000000000    0.2368216000000000 Zn
   0.3351048000000000    0.1051058000000001    0.7378359000000000 Zn
   0.2299990000000001    0.8948942000000000    0.2621641000000000 Zn
