submit directory /gpfs/home3/srinidhi/BEC_work/highthroughput/mof_calcs/02-02-2022_Zn/TAXHUX_FSR
 running on  128 total cores
 distrk:  each k-point on   32 cores,    4 groups
 distr:  one band on   16 cores,    2 groups
 using from now: INCAR     
 vasp.5.4.4.18Apr17-6-g9f103f2a35 (build Oct 14 2021 09:59:43) complex           
 POSCAR found type information on POSCAR  C  H  N  O  P  Zn
 POSCAR found :  6 types and     110 ions
 scaLAPACK will be used

 ----------------------------------------------------------------------------- 
|                                                                             |
|           W    W    AA    RRRRR   N    N  II  N    N   GGGG   !!!           |
|           W    W   A  A   R    R  NN   N  II  NN   N  G    G  !!!           |
|           W    W  A    A  R    R  N N  N  II  N N  N  G       !!!           |
|           W WW W  AAAAAA  RRRRR   N  N N  II  N  N N  G  GGG   !            |
|           WW  WW  A    A  R   R   N   NN  II  N   NN  G    G                |
|           W    W  A    A  R    R  N    N  II  N    N   GGGG   !!!           |
|                                                                             |
|      You have enabled k-point parallelism (KPAR>1).                         |
|      This developmental code was originally  written by Paul Kent at ORNL,  |
|      and carefully double checked in Vienna.                                |
|      GW as well as linear response parallelism added by Martijn Marsman     |
|      and Georg Kresse.                                                      |
|      Carefully verify results versus KPAR=1.                                |
|      Report problems to Paul Kent and Vienna.                               |
|                                                                             |
 ----------------------------------------------------------------------------- 


 ----------------------------------------------------------------------------- 
|                                                                             |
|  ADVICE TO THIS USER RUNNING 'VASP/VAMP'   (HEAR YOUR MASTER'S VOICE ...):  |
|                                                                             |
|      You have a (more or less) 'large supercell' and for larger cells       |
|      it might be more efficient to use real space projection opertators     |
|      So try LREAL= Auto  in the INCAR   file.                               |
|      Mind:          For very  accurate calculation you might also keep the  |
|      reciprocal projection scheme          (i.e. LREAL=.FALSE.)             |
|                                                                             |
 ----------------------------------------------------------------------------- 

 LDA part: xc-table for Pade appr. of Perdew


 VERY BAD NEWS! internal error in subroutine IBZKPT:
 Reciprocal lattice and k-lattice belong to different class of lattices. Often results are still useful...     168


 VERY BAD NEWS! internal error in subroutine IBZKPT:
 Reciprocal lattice and k-lattice belong to different class of lattices. Often results are still useful...     168


 VERY BAD NEWS! internal error in subroutine IBZKPT:
 Reciprocal lattice and k-lattice belong to different class of lattices. Often results are still useful...     168


 VERY BAD NEWS! internal error in subroutine IBZKPT:
 Reciprocal lattice and k-lattice belong to different class of lattices. Often results are still useful...     168


 VERY BAD NEWS! internal error in subroutine IBZKPT:
 Reciprocal lattice and k-lattice belong to different class of lattices. Often results are still useful...     168


 VERY BAD NEWS! internal error in subroutine IBZKPT:
 Reciprocal lattice and k-lattice belong to different class of lattices. Often results are still useful...     168


 VERY BAD NEWS! internal error in subroutine IBZKPT:
 Reciprocal lattice and k-lattice belong to different class of lattices. Often results are still useful...     168


 VERY BAD NEWS! internal error in subroutine IBZKPT:
 Reciprocal lattice and k-lattice belong to different class of lattices. Often results are still useful...     168


 VERY BAD NEWS! internal error in subroutine IBZKPT:
 Reciprocal lattice and k-lattice belong to different class of lattices. Often results are still useful...     168


 VERY BAD NEWS! internal error in subroutine IBZKPT:
 Reciprocal lattice and k-lattice belong to different class of lattices. Often results are still useful...     168


 VERY BAD NEWS! internal error in subroutine IBZKPT:
 Reciprocal lattice and k-lattice belong to different class of lattices. Often results are still useful...     168


 VERY BAD NEWS! internal error in subroutine IBZKPT:
 Reciprocal lattice and k-lattice belong to different class of lattices. Often results are still useful...     168


 VERY BAD NEWS! internal error in subroutine IBZKPT:
 Reciprocal lattice and k-lattice belong to different class of lattices. Often results are still useful...     168


 VERY BAD NEWS! internal error in subroutine IBZKPT:
 Reciprocal lattice and k-lattice belong to different class of lattices. Often results are still useful...     168


 VERY BAD NEWS! internal error in subroutine IBZKPT:
 Reciprocal lattice and k-lattice belong to different class of lattices. Often results are still useful...     168


 VERY BAD NEWS! internal error in subroutine IBZKPT:
 Reciprocal lattice and k-lattice belong to different class of lattices. Often results are still useful...     168


 VERY BAD NEWS! internal error in subroutine IBZKPT:
 Reciprocal lattice and k-lattice belong to different class of lattices. Often results are still useful...     168


 VERY BAD NEWS! internal error in subroutine IBZKPT:
 Reciprocal lattice and k-lattice belong to different class of lattices. Often results are still useful...     168


 VERY BAD NEWS! internal error in subroutine IBZKPT:
 Reciprocal lattice and k-lattice belong to different class of lattices. Often results are still useful...     168


 VERY BAD NEWS! internal error in subroutine IBZKPT:
 Reciprocal lattice and k-lattice belong to different class of lattices. Often results are still useful...     168


 VERY BAD NEWS! internal error in subroutine IBZKPT:
 Reciprocal lattice and k-lattice belong to different class of lattices. Often results are still useful...     168


 VERY BAD NEWS! internal error in subroutine IBZKPT:
 Reciprocal lattice and k-lattice belong to different class of lattices. Often results are still useful...     168


 VERY BAD NEWS! internal error in subroutine IBZKPT:
 Reciprocal lattice and k-lattice belong to different class of lattices. Often results are still useful...     168


 VERY BAD NEWS! internal error in subroutine IBZKPT:
 Reciprocal lattice and k-lattice belong to different class of lattices. Often results are still useful...     168


 VERY BAD NEWS! internal error in subroutine IBZKPT:
 Reciprocal lattice and k-lattice belong to different class of lattices. Often results are still useful...     168


 VERY BAD NEWS! internal error in subroutine IBZKPT:
 Reciprocal lattice and k-lattice belong to different class of lattices. Often results are still useful...     168


 VERY BAD NEWS! internal error in subroutine IBZKPT:
 Reciprocal lattice and k-lattice belong to different class of lattices. Often results are still useful...     168


 VERY BAD NEWS! internal error in subroutine IBZKPT:
 Reciprocal lattice and k-lattice belong to different class of lattices. Often results are still useful...     168


 VERY BAD NEWS! internal error in subroutine IBZKPT:
 Reciprocal lattice and k-lattice belong to different class of lattices. Often results are still useful...     168


 VERY BAD NEWS! internal error in subroutine IBZKPT:
 Reciprocal lattice and k-lattice belong to different class of lattices. Often results are still useful...     168


 VERY BAD NEWS! internal error in subroutine IBZKPT:
 Reciprocal lattice and k-lattice belong to different class of lattices. Often results are still useful...     168


 VERY BAD NEWS! internal error in subroutine IBZKPT:
 Reciprocal lattice and k-lattice belong to different class of lattices. Often results are still useful...     168


 VERY BAD NEWS! internal error in subroutine IBZKPT:
 Reciprocal lattice and k-lattice belong to different class of lattices. Often results are still useful...     168


 VERY BAD NEWS! internal error in subroutine IBZKPT:
 Reciprocal lattice and k-lattice belong to different class of lattices. Often results are still useful...     168


 VERY BAD NEWS! internal error in subroutine IBZKPT:
 Reciprocal lattice and k-lattice belong to different class of lattices. Often results are still useful...     168


 VERY BAD NEWS! internal error in subroutine IBZKPT:
 Reciprocal lattice and k-lattice belong to different class of lattices. Often results are still useful...     168


 VERY BAD NEWS! internal error in subroutine IBZKPT:
 Reciprocal lattice and k-lattice belong to different class of lattices. Often results are still useful...     168


 VERY BAD NEWS! internal error in subroutine IBZKPT:
 Reciprocal lattice and k-lattice belong to different class of lattices. Often results are still useful...     168


 VERY BAD NEWS! internal error in subroutine IBZKPT:
 Reciprocal lattice and k-lattice belong to different class of lattices. Often results are still useful...     168


 VERY BAD NEWS! internal error in subroutine IBZKPT:
 Reciprocal lattice and k-lattice belong to different class of lattices. Often results are still useful...     168


 VERY BAD NEWS! internal error in subroutine IBZKPT:
 Reciprocal lattice and k-lattice belong to different class of lattices. Often results are still useful...     168


 VERY BAD NEWS! internal error in subroutine IBZKPT:
 Reciprocal lattice and k-lattice belong to different class of lattices. Often results are still useful...     168


 VERY BAD NEWS! internal error in subroutine IBZKPT:
 Reciprocal lattice and k-lattice belong to different class of lattices. Often results are still useful...     168


 VERY BAD NEWS! internal error in subroutine IBZKPT:
 Reciprocal lattice and k-lattice belong to different class of lattices. Often results are still useful...     168


 VERY BAD NEWS! internal error in subroutine IBZKPT:
 Reciprocal lattice and k-lattice belong to different class of lattices. Often results are still useful...     168


 VERY BAD NEWS! internal error in subroutine IBZKPT:
 Reciprocal lattice and k-lattice belong to different class of lattices. Often results are still useful...     168


 VERY BAD NEWS! internal error in subroutine IBZKPT:
 Reciprocal lattice and k-lattice belong to different class of lattices. Often results are still useful...     168


 VERY BAD NEWS! internal error in subroutine IBZKPT:
 Reciprocal lattice and k-lattice belong to different class of lattices. Often results are still useful...     168


 VERY BAD NEWS! internal error in subroutine IBZKPT:
 Reciprocal lattice and k-lattice belong to different class of lattices. Often results are still useful...     168


 VERY BAD NEWS! internal error in subroutine IBZKPT:
 Reciprocal lattice and k-lattice belong to different class of lattices. Often results are still useful...     168


 VERY BAD NEWS! internal error in subroutine IBZKPT:
 Reciprocal lattice and k-lattice belong to different class of lattices. Often results are still useful...     168


 VERY BAD NEWS! internal error in subroutine IBZKPT:
 Reciprocal lattice and k-lattice belong to different class of lattices. Often results are still useful...     168


 VERY BAD NEWS! internal error in subroutine IBZKPT:
 Reciprocal lattice and k-lattice belong to different class of lattices. Often results are still useful...     168


 VERY BAD NEWS! internal error in subroutine IBZKPT:
 Reciprocal lattice and k-lattice belong to different class of lattices. Often results are still useful...     168


 VERY BAD NEWS! internal error in subroutine IBZKPT:
 Reciprocal lattice and k-lattice belong to different class of lattices. Often results are still useful...     168


 VERY BAD NEWS! internal error in subroutine IBZKPT:
 Reciprocal lattice and k-lattice belong to different class of lattices. Often results are still useful...     168


 VERY BAD NEWS! internal error in subroutine IBZKPT:
 Reciprocal lattice and k-lattice belong to different class of lattices. Often results are still useful...     168


 VERY BAD NEWS! internal error in subroutine IBZKPT:
 Reciprocal lattice and k-lattice belong to different class of lattices. Often results are still useful...     168


 VERY BAD NEWS! internal error in subroutine IBZKPT:
 Reciprocal lattice and k-lattice belong to different class of lattices. Often results are still useful...     168


 VERY BAD NEWS! internal error in subroutine IBZKPT:
 Reciprocal lattice and k-lattice belong to different class of lattices. Often results are still useful...     168


 VERY BAD NEWS! internal error in subroutine IBZKPT:
 Reciprocal lattice and k-lattice belong to different class of lattices. Often results are still useful...     168


 VERY BAD NEWS! internal error in subroutine IBZKPT:
 Reciprocal lattice and k-lattice belong to different class of lattices. Often results are still useful...     168


 VERY BAD NEWS! internal error in subroutine IBZKPT:
 Reciprocal lattice and k-lattice belong to different class of lattices. Often results are still useful...     168


 VERY BAD NEWS! internal error in subroutine IBZKPT:
 Reciprocal lattice and k-lattice belong to different class of lattices. Often results are still useful...     168


 VERY BAD NEWS! internal error in subroutine IBZKPT:
 Reciprocal lattice and k-lattice belong to different class of lattices. Often results are still useful...     168


 VERY BAD NEWS! internal error in subroutine IBZKPT:
 Reciprocal lattice and k-lattice belong to different class of lattices. Often results are still useful...     168


 VERY BAD NEWS! internal error in subroutine IBZKPT:
 Reciprocal lattice and k-lattice belong to different class of lattices. Often results are still useful...     168


 VERY BAD NEWS! internal error in subroutine IBZKPT:
 Reciprocal lattice and k-lattice belong to different class of lattices. Often results are still useful...     168


 VERY BAD NEWS! internal error in subroutine IBZKPT:
 Reciprocal lattice and k-lattice belong to different class of lattices. Often results are still useful...     168


 VERY BAD NEWS! internal error in subroutine IBZKPT:
 Reciprocal lattice and k-lattice belong to different class of lattices. Often results are still useful...     168


 VERY BAD NEWS! internal error in subroutine IBZKPT:
 Reciprocal lattice and k-lattice belong to different class of lattices. Often results are still useful...     168


 VERY BAD NEWS! internal error in subroutine IBZKPT:
 Reciprocal lattice and k-lattice belong to different class of lattices. Often results are still useful...     168


 VERY BAD NEWS! internal error in subroutine IBZKPT:
 Reciprocal lattice and k-lattice belong to different class of lattices. Often results are still useful...     168


 VERY BAD NEWS! internal error in subroutine IBZKPT:
 Reciprocal lattice and k-lattice belong to different class of lattices. Often results are still useful...     168


 VERY BAD NEWS! internal error in subroutine IBZKPT:
 Reciprocal lattice and k-lattice belong to different class of lattices. Often results are still useful...     168


 VERY BAD NEWS! internal error in subroutine IBZKPT:
 Reciprocal lattice and k-lattice belong to different class of lattices. Often results are still useful...     168


 VERY BAD NEWS! internal error in subroutine IBZKPT:
 Reciprocal lattice and k-lattice belong to different class of lattices. Often results are still useful...     168


 VERY BAD NEWS! internal error in subroutine IBZKPT:
 Reciprocal lattice and k-lattice belong to different class of lattices. Often results are still useful...     168


 VERY BAD NEWS! internal error in subroutine IBZKPT:
 Reciprocal lattice and k-lattice belong to different class of lattices. Often results are still useful...     168


 VERY BAD NEWS! internal error in subroutine IBZKPT:
 Reciprocal lattice and k-lattice belong to different class of lattices. Often results are still useful...     168


 VERY BAD NEWS! internal error in subroutine IBZKPT:
 Reciprocal lattice and k-lattice belong to different class of lattices. Often results are still useful...     168


 VERY BAD NEWS! internal error in subroutine IBZKPT:
 Reciprocal lattice and k-lattice belong to different class of lattices. Often results are still useful...     168


 VERY BAD NEWS! internal error in subroutine IBZKPT:
 Reciprocal lattice and k-lattice belong to different class of lattices. Often results are still useful...     168


 VERY BAD NEWS! internal error in subroutine IBZKPT:
 Reciprocal lattice and k-lattice belong to different class of lattices. Often results are still useful...     168


 VERY BAD NEWS! internal error in subroutine IBZKPT:
 Reciprocal lattice and k-lattice belong to different class of lattices. Often results are still useful...     168


 VERY BAD NEWS! internal error in subroutine IBZKPT:
 Reciprocal lattice and k-lattice belong to different class of lattices. Often results are still useful...     168


 VERY BAD NEWS! internal error in subroutine IBZKPT:
 Reciprocal lattice and k-lattice belong to different class of lattices. Often results are still useful...     168


 VERY BAD NEWS! internal error in subroutine IBZKPT:
 Reciprocal lattice and k-lattice belong to different class of lattices. Often results are still useful...     168


 VERY BAD NEWS! internal error in subroutine IBZKPT:
 Reciprocal lattice and k-lattice belong to different class of lattices. Often results are still useful...     168


 VERY BAD NEWS! internal error in subroutine IBZKPT:
 Reciprocal lattice and k-lattice belong to different class of lattices. Often results are still useful...     168


 VERY BAD NEWS! internal error in subroutine IBZKPT:
 Reciprocal lattice and k-lattice belong to different class of lattices. Often results are still useful...     168


 VERY BAD NEWS! internal error in subroutine IBZKPT:
 Reciprocal lattice and k-lattice belong to different class of lattices. Often results are still useful...     168


 VERY BAD NEWS! internal error in subroutine IBZKPT:
 Reciprocal lattice and k-lattice belong to different class of lattices. Often results are still useful...     168


 VERY BAD NEWS! internal error in subroutine IBZKPT:
 Reciprocal lattice and k-lattice belong to different class of lattices. Often results are still useful...     168


 VERY BAD NEWS! internal error in subroutine IBZKPT:
 Reciprocal lattice and k-lattice belong to different class of lattices. Often results are still useful...     168


 VERY BAD NEWS! internal error in subroutine IBZKPT:
 Reciprocal lattice and k-lattice belong to different class of lattices. Often results are still useful...     168


 VERY BAD NEWS! internal error in subroutine IBZKPT:
 Reciprocal lattice and k-lattice belong to different class of lattices. Often results are still useful...     168


 VERY BAD NEWS! internal error in subroutine IBZKPT:
 Reciprocal lattice and k-lattice belong to different class of lattices. Often results are still useful...     168


 VERY BAD NEWS! internal error in subroutine IBZKPT:
 Reciprocal lattice and k-lattice belong to different class of lattices. Often results are still useful...     168


 VERY BAD NEWS! internal error in subroutine IBZKPT:
 Reciprocal lattice and k-lattice belong to different class of lattices. Often results are still useful...     168


 VERY BAD NEWS! internal error in subroutine IBZKPT:
 Reciprocal lattice and k-lattice belong to different class of lattices. Often results are still useful...     168


 VERY BAD NEWS! internal error in subroutine IBZKPT:
 Reciprocal lattice and k-lattice belong to different class of lattices. Often results are still useful...     168


 VERY BAD NEWS! internal error in subroutine IBZKPT:
 Reciprocal lattice and k-lattice belong to different class of lattices. Often results are still useful...     168


 VERY BAD NEWS! internal error in subroutine IBZKPT:
 Reciprocal lattice and k-lattice belong to different class of lattices. Often results are still useful...     168


 VERY BAD NEWS! internal error in subroutine IBZKPT:
 Reciprocal lattice and k-lattice belong to different class of lattices. Often results are still useful...     168


 VERY BAD NEWS! internal error in subroutine IBZKPT:
 Reciprocal lattice and k-lattice belong to different class of lattices. Often results are still useful...     168


 VERY BAD NEWS! internal error in subroutine IBZKPT:
 Reciprocal lattice and k-lattice belong to different class of lattices. Often results are still useful...     168


 VERY BAD NEWS! internal error in subroutine IBZKPT:
 Reciprocal lattice and k-lattice belong to different class of lattices. Often results are still useful...     168


 VERY BAD NEWS! internal error in subroutine IBZKPT:
 Reciprocal lattice and k-lattice belong to different class of lattices. Often results are still useful...     168


 VERY BAD NEWS! internal error in subroutine IBZKPT:
 Reciprocal lattice and k-lattice belong to different class of lattices. Often results are still useful...     168


 VERY BAD NEWS! internal error in subroutine IBZKPT:
 Reciprocal lattice and k-lattice belong to different class of lattices. Often results are still useful...     168


 VERY BAD NEWS! internal error in subroutine IBZKPT:
 Reciprocal lattice and k-lattice belong to different class of lattices. Often results are still useful...     168


 VERY BAD NEWS! internal error in subroutine IBZKPT:
 Reciprocal lattice and k-lattice belong to different class of lattices. Often results are still useful...     168


 VERY BAD NEWS! internal error in subroutine IBZKPT:
 Reciprocal lattice and k-lattice belong to different class of lattices. Often results are still useful...     168


 VERY BAD NEWS! internal error in subroutine IBZKPT:
 Reciprocal lattice and k-lattice belong to different class of lattices. Often results are still useful...     168


 VERY BAD NEWS! internal error in subroutine IBZKPT:
 Reciprocal lattice and k-lattice belong to different class of lattices. Often results are still useful...     168


 VERY BAD NEWS! internal error in subroutine IBZKPT:
 Reciprocal lattice and k-lattice belong to different class of lattices. Often results are still useful...     168


 VERY BAD NEWS! internal error in subroutine IBZKPT:
 Reciprocal lattice and k-lattice belong to different class of lattices. Often results are still useful...     168


 VERY BAD NEWS! internal error in subroutine IBZKPT:
 Reciprocal lattice and k-lattice belong to different class of lattices. Often results are still useful...     168


 VERY BAD NEWS! internal error in subroutine IBZKPT:
 Reciprocal lattice and k-lattice belong to different class of lattices. Often results are still useful...     168


 VERY BAD NEWS! internal error in subroutine IBZKPT:
 Reciprocal lattice and k-lattice belong to different class of lattices. Often results are still useful...     168


 VERY BAD NEWS! internal error in subroutine IBZKPT:
 Reciprocal lattice and k-lattice belong to different class of lattices. Often results are still useful...     168


 VERY BAD NEWS! internal error in subroutine IBZKPT:
 Reciprocal lattice and k-lattice belong to different class of lattices. Often results are still useful...     168


 VERY BAD NEWS! internal error in subroutine IBZKPT:
 Reciprocal lattice and k-lattice belong to different class of lattices. Often results are still useful...     168


 VERY BAD NEWS! internal error in subroutine IBZKPT:
 Reciprocal lattice and k-lattice belong to different class of lattices. Often results are still useful...     168


 VERY BAD NEWS! internal error in subroutine IBZKPT:
 Reciprocal lattice and k-lattice belong to different class of lattices. Often results are still useful...     168


 VERY BAD NEWS! internal error in subroutine IBZKPT:
 Reciprocal lattice and k-lattice belong to different class of lattices. Often results are still useful...     168


 VERY BAD NEWS! internal error in subroutine IBZKPT:
 Reciprocal lattice and k-lattice belong to different class of lattices. Often results are still useful...     168
 POSCAR, INCAR and KPOINTS ok, starting setup
 FFT: planning ...
 WAVECAR not read
 entering main loop
       N       E                     dE             d eps       ncg     rms          rms(c)
DAV:   1     0.308552927402E+04    0.30855E+04   -0.16351E+05  1428   0.146E+03
DAV:   2    -0.169710403345E+03   -0.32552E+04   -0.30559E+04  1676   0.364E+02
DAV:   3    -0.660359648150E+03   -0.49065E+03   -0.48581E+03  1622   0.160E+02
DAV:   4    -0.683077875714E+03   -0.22718E+02   -0.22594E+02  1728   0.397E+01
DAV:   5    -0.683799539066E+03   -0.72166E+00   -0.72055E+00  1912   0.676E+00    0.596E+01
RMM:   6    -0.623276052603E+03    0.60523E+02   -0.17994E+02  1428   0.224E+01    0.297E+01
RMM:   7    -0.617153194142E+03    0.61229E+01   -0.23633E+01  1439   0.863E+00    0.143E+01
RMM:   8    -0.615998380570E+03    0.11548E+01   -0.37584E+00  1463   0.449E+00    0.235E+00
RMM:   9    -0.615936593023E+03    0.61788E-01   -0.38861E-01  1446   0.142E+00    0.100E+00
RMM:  10    -0.615934244085E+03    0.23489E-02   -0.61712E-02  1477   0.440E-01    0.618E-01
RMM:  11    -0.615929386514E+03    0.48576E-02   -0.55518E-02  1428   0.448E-01    0.264E-01
RMM:  12    -0.615923029587E+03    0.63569E-02   -0.19150E-02  1428   0.248E-01    0.147E-01
RMM:  13    -0.615919837498E+03    0.31921E-02   -0.10691E-02  1428   0.160E-01    0.690E-02
RMM:  14    -0.615919407237E+03    0.43026E-03   -0.21052E-03  1482   0.700E-02    0.470E-02
RMM:  15    -0.615919401215E+03    0.60217E-05   -0.38923E-04  1455   0.404E-02    0.220E-02
RMM:  16    -0.615919391896E+03    0.93193E-05   -0.66091E-05  1458   0.139E-02    0.118E-02
RMM:  17    -0.615919388957E+03    0.29387E-05   -0.19587E-05  1429   0.904E-03    0.392E-03
RMM:  18    -0.615919388493E+03    0.46437E-06   -0.40934E-06  1450   0.372E-03    0.181E-03
RMM:  19    -0.615919388469E+03    0.24011E-07   -0.77763E-07  1323   0.184E-03
   1 F= -.62360141E+03 E0= -.62360141E+03  d E =-.623601E+03
 curvature:   0.00 expect dE= 0.000E+00 dE for cont linesearch  0.000E+00
 trial: gam= 0.00000 g(F)=  0.792E-03 g(S)=  0.122E-03 ort = 0.000E+00 (trialstep = 0.100E+01)
 search vector abs. value=  0.914E-03
 bond charge predicted
       N       E                     dE             d eps       ncg     rms          rms(c)
DAV:   1    -0.615917768948E+03    0.16195E-02   -0.96317E-02  1562   0.791E-01    0.143E-01
RMM:   2    -0.615917779035E+03   -0.10088E-04   -0.34997E-03  1428   0.144E-01    0.637E-02
RMM:   3    -0.615917741160E+03    0.37875E-04   -0.21507E-04  1430   0.382E-02    0.343E-02
RMM:   4    -0.615917731751E+03    0.94099E-05   -0.58623E-05  1493   0.151E-02    0.112E-02
RMM:   5    -0.615917731878E+03   -0.12696E-06   -0.39679E-06  1441   0.438E-03    0.441E-03
RMM:   6    -0.615917732003E+03   -0.12538E-06   -0.13575E-06  1382   0.205E-03    0.158E-03
RMM:   7    -0.615917732073E+03   -0.69667E-07   -0.19227E-07   917   0.106E-03
   2 F= -.62360187E+03 E0= -.62360187E+03  d E =-.458275E-03
 trial-energy change:   -0.000458  1 .order   -0.000468   -0.000914   -0.000022
 step:   1.0260(harm=  1.0243)  dis= 0.00087  next Energy=  -623.601867 (dE=-0.459E-03)
 bond charge predicted
       N       E                     dE             d eps       ncg     rms          rms(c)
DAV:   1    -0.615917677150E+03    0.54853E-04   -0.65280E-05  1648   0.203E-02    0.369E-03
RMM:   2    -0.615917677171E+03   -0.21293E-07   -0.23017E-06  1428   0.363E-03    0.165E-03
RMM:   3    -0.615917677193E+03   -0.22468E-07   -0.11817E-07   848   0.987E-04
   3 F= -.62360187E+03 E0= -.62360187E+03  d E =-.458355E-03
 curvature:  -0.51 expect dE=-0.715E-03 dE for cont linesearch -0.599E-08
 trial: gam= 1.53891 g(F)=  0.136E-02 g(S)=  0.398E-04 ort =-0.328E-05 (trialstep = 0.258E+00)
 search vector abs. value=  0.356E-02
 bond charge predicted
       N       E                     dE             d eps       ncg     rms          rms(c)
DAV:   1    -0.615917298799E+03    0.37837E-03   -0.20897E-02  1560   0.356E-01    0.529E-02
RMM:   2    -0.615917316116E+03   -0.17317E-04   -0.62688E-04  1428   0.596E-02    0.247E-02
RMM:   3    -0.615917310347E+03    0.57688E-05   -0.33368E-05  1430   0.156E-02    0.135E-02
RMM:   4    -0.615917308927E+03    0.14198E-05   -0.92140E-06  1487   0.653E-03    0.371E-03
RMM:   5    -0.615917308991E+03   -0.63377E-07   -0.74953E-07  1291   0.179E-03
   4 F= -.62360218E+03 E0= -.62360218E+03  d E =-.309283E-03
 trial-energy change:   -0.000309  1 .order   -0.000311   -0.000361   -0.000260
 step:   0.9253(harm=  0.9253)  dis= 0.00185  next Energy=  -623.602514 (dE=-0.647E-03)
 bond charge predicted
       N       E                     dE             d eps       ncg     rms          rms(c)
DAV:   1    -0.615915822010E+03    0.14869E-02   -0.13953E-01  1512   0.919E-01    0.136E-01
RMM:   2    -0.615915938220E+03   -0.11621E-03   -0.41700E-03  1428   0.153E-01    0.638E-02
RMM:   3    -0.615915897061E+03    0.41159E-04   -0.22173E-04  1429   0.404E-02    0.349E-02
RMM:   4    -0.615915885370E+03    0.11691E-04   -0.61433E-05  1487   0.169E-02    0.961E-03
RMM:   5    -0.615915885134E+03    0.23591E-06   -0.51590E-06  1451   0.465E-03    0.383E-03
RMM:   6    -0.615915885205E+03   -0.70620E-07   -0.96190E-07  1326   0.187E-03
   5 F= -.62360250E+03 E0= -.62360250E+03  d E =-.636623E-03
 curvature:  -1.18 expect dE=-0.302E-02 dE for cont linesearch -0.145E-06
 trial: gam= 1.83968 g(F)=  0.242E-02 g(S)=  0.147E-03 ort =-0.209E-04 (trialstep = 0.959E-01)
 search vector abs. value=  0.145E-01
 bond charge predicted
       N       E                     dE             d eps       ncg     rms          rms(c)
DAV:   1    -0.615915903935E+03   -0.18801E-04   -0.11710E-02  1512   0.254E-01    0.297E-02
RMM:   2    -0.615915922928E+03   -0.18994E-04   -0.29616E-04  1428   0.389E-02    0.153E-02
RMM:   3    -0.615915920176E+03    0.27521E-05   -0.13263E-05  1433   0.102E-02    0.841E-03
RMM:   4    -0.615915919502E+03    0.67391E-06   -0.42501E-06  1482   0.457E-03    0.196E-03
RMM:   5    -0.615915919476E+03    0.26572E-07   -0.22046E-07   924   0.109E-03
   6 F= -.62360274E+03 E0= -.62360274E+03  d E =-.238447E-03
 ZBRENT: can't locate minimum, use default step
 trial-energy change:   -0.000238  1 .order   -0.000237   -0.000243   -0.000232
 step:   0.3835(harm=  2.2566)  dis= 0.00167  next Energy=  -623.605358 (dE=-0.285E-02)
 bond charge predicted
       N       E                     dE             d eps       ncg     rms          rms(c)
DAV:   1    -0.615915809325E+03    0.11018E-03   -0.10525E-01  1464   0.759E-01    0.891E-02
RMM:   2    -0.615915981075E+03   -0.17175E-03   -0.26537E-03  1428   0.116E-01    0.462E-02
RMM:   3    -0.615915955586E+03    0.25489E-04   -0.11803E-04  1432   0.305E-02    0.254E-02
RMM:   4    -0.615915948795E+03    0.67909E-05   -0.38360E-05  1482   0.137E-02    0.595E-03
RMM:   5    -0.615915948591E+03    0.20457E-06   -0.23755E-06  1453   0.332E-03    0.254E-03
RMM:   6    -0.615915948568E+03    0.22243E-07   -0.45720E-07  1121   0.136E-03
   7 F= -.62360338E+03 E0= -.62360338E+03  d E =-.880439E-03
 curvature:  -1.61 expect dE=-0.329E-02 dE for cont linesearch -0.467E-03
 ZBRENT: increasing intervall
 opt :   0.9588  next Energy=  -623.604352 (dE=-0.185E-02)
 bond charge predicted
       N       E                     dE             d eps       ncg     rms          rms(c)
DAV:   1    -0.615915144982E+03    0.80361E-03   -0.42102E-01  1464   0.152E+00    0.179E-01
RMM:   2    -0.615915829259E+03   -0.68428E-03   -0.10622E-02  1428   0.233E-01    0.923E-02
RMM:   3    -0.615915727140E+03    0.10212E-03   -0.47217E-04  1432   0.611E-02    0.507E-02
RMM:   4    -0.615915699140E+03    0.28000E-04   -0.15390E-04  1483   0.274E-02    0.119E-02
RMM:   5    -0.615915698355E+03    0.78494E-06   -0.94060E-06  1453   0.660E-03    0.512E-03
RMM:   6    -0.615915698278E+03    0.76980E-07   -0.20090E-06  1452   0.275E-03    0.235E-03
RMM:   7    -0.615915698310E+03   -0.32192E-07   -0.54529E-07  1210   0.167E-03
   8 F= -.62360436E+03 E0= -.62360436E+03  d E =-.185815E-02
 curvature:  -3.34 expect dE=-0.934E-02 dE for cont linesearch -0.416E-03
 ZBRENT: increasing intervall
 opt :   2.1095  next Energy=  -623.605095 (dE=-0.259E-02)
 bond charge predicted
       N       E                     dE             d eps       ncg     rms          rms(c)
DAV:   1    -0.615911745060E+03    0.39532E-02   -0.16838E+00  1452   0.304E+00    0.357E-01
RMM:   2    -0.615914479257E+03   -0.27342E-02   -0.42492E-02  1428   0.464E-01    0.185E-01
RMM:   3    -0.615914068897E+03    0.41036E-03   -0.18881E-03  1432   0.122E-01    0.101E-01
RMM:   4    -0.615913955070E+03    0.11383E-03   -0.61795E-04  1483   0.550E-02    0.239E-02
RMM:   5    -0.615913951952E+03    0.31180E-05   -0.37632E-05  1453   0.132E-02    0.103E-02
RMM:   6    -0.615913951663E+03    0.28822E-06   -0.80871E-06  1477   0.550E-03    0.474E-03
RMM:   7    -0.615913951725E+03   -0.61395E-07   -0.22321E-06  1421   0.332E-03    0.174E-03
RMM:   8    -0.615913951628E+03    0.96908E-07   -0.40806E-07  1102   0.151E-03
   9 F= -.62360508E+03 E0= -.62360508E+03  d E =-.257495E-02
 curvature:  -5.89 expect dE=-0.586E-01 dE for cont linesearch -0.382E-05
 trial: gam= 3.86505 g(F)=  0.965E-02 g(S)=  0.287E-03 ort =-0.971E-04 (trialstep = 0.320E-01)
 search vector abs. value=  0.226E+00
 bond charge predicted
       N       E                     dE             d eps       ncg     rms          rms(c)
DAV:   1    -0.615914089288E+03   -0.13756E-03   -0.19283E-02  1560   0.321E-01    0.360E-02
RMM:   2    -0.615914122346E+03   -0.33058E-04   -0.46980E-04  1428   0.475E-02    0.194E-02
RMM:   3    -0.615914117572E+03    0.47741E-05   -0.19744E-05  1431   0.124E-02    0.108E-02
RMM:   4    -0.615914116297E+03    0.12744E-05   -0.70538E-06  1471   0.567E-03    0.228E-03
RMM:   5    -0.615914116262E+03    0.35830E-07   -0.36681E-07  1038   0.139E-03
  10 F= -.62360538E+03 E0= -.62360538E+03  d E =-.297680E-03
 ZBRENT: can't locate minimum, use default step
 trial-energy change:   -0.000298  1 .order   -0.000300   -0.000306   -0.000293
 step:   0.1281(harm=  0.7225)  dis= 0.00226  next Energy=  -623.608534 (dE=-0.346E-02)
 bond charge predicted
       N       E                     dE             d eps       ncg     rms          rms(c)
DAV:   1    -0.615914283285E+03   -0.16699E-03   -0.17361E-01  1464   0.963E-01    0.108E-01
RMM:   2    -0.615914583412E+03   -0.30013E-03   -0.42416E-03  1428   0.143E-01    0.582E-02
RMM:   3    -0.615914541137E+03    0.42274E-04   -0.17766E-04  1431   0.374E-02    0.324E-02
RMM:   4    -0.615914529554E+03    0.11584E-04   -0.63843E-05  1471   0.170E-02    0.688E-03
RMM:   5    -0.615914529230E+03    0.32372E-06   -0.36345E-06  1461   0.416E-03    0.306E-03
RMM:   6    -0.615914529252E+03   -0.22283E-07   -0.57513E-07  1199   0.149E-03
  11 F= -.62360619E+03 E0= -.62360619E+03  d E =-.111053E-02
 curvature:  -2.21 expect dE=-0.154E-01 dE for cont linesearch -0.589E-03
 ZBRENT: increasing intervall
 opt :   0.3202  next Energy=  -623.607415 (dE=-0.234E-02)
 bond charge predicted
       N       E                     dE             d eps       ncg     rms          rms(c)
DAV:   1    -0.615913971214E+03    0.55802E-03   -0.69442E-01  1440   0.193E+00    0.216E-01
RMM:   2    -0.615915170123E+03   -0.11989E-02   -0.16977E-02  1428   0.285E-01    0.116E-01
RMM:   3    -0.615915001597E+03    0.16853E-03   -0.71101E-04  1431   0.748E-02    0.648E-02
RMM:   4    -0.615914954844E+03    0.46753E-04   -0.25617E-04  1470   0.341E-02    0.137E-02
RMM:   5    -0.615914953532E+03    0.13123E-05   -0.14484E-05  1462   0.834E-03    0.617E-03
RMM:   6    -0.615914953578E+03   -0.46624E-07   -0.25017E-06  1478   0.301E-03    0.297E-03
RMM:   7    -0.615914953614E+03   -0.36078E-07   -0.73833E-07  1279   0.176E-03
  12 F= -.62360742E+03 E0= -.62360742E+03  d E =-.233749E-02
 curvature:  -4.60 expect dE=-0.203E-01 dE for cont linesearch -0.526E-03
 ZBRENT: increasing intervall
 opt :   0.7045  next Energy=  -623.608340 (dE=-0.326E-02)
 bond charge predicted
       N       E                     dE             d eps       ncg     rms          rms(c)
DAV:   1    -0.615910311409E+03    0.46422E-02   -0.27768E+00  1440   0.385E+00    0.433E-01
RMM:   2    -0.615915105755E+03   -0.47943E-02   -0.67986E-02  1428   0.570E-01    0.233E-01
RMM:   3    -0.615914431347E+03    0.67441E-03   -0.28455E-03  1431   0.150E-01    0.130E-01
RMM:   4    -0.615914243144E+03    0.18820E-03   -0.10313E-03  1471   0.681E-02    0.277E-02
RMM:   5    -0.615914237671E+03    0.54733E-05   -0.58453E-05  1461   0.167E-02    0.124E-02
RMM:   6    -0.615914237794E+03   -0.12360E-06   -0.98931E-06  1487   0.595E-03    0.599E-03
RMM:   7    -0.615914237881E+03   -0.86489E-07   -0.30277E-06  1429   0.348E-03    0.205E-03
RMM:   8    -0.615914237787E+03    0.93696E-07   -0.59594E-07  1177   0.158E-03
  13 F= -.62360832E+03 E0= -.62360832E+03  d E =-.323882E-02
 curvature:  -8.09 expect dE=-0.508E-01 dE for cont linesearch -0.394E-05
 trial: gam= 0.59737 g(F)=  0.618E-02 g(S)=  0.964E-04 ort =-0.332E-03 (trialstep = 0.167E+00)
 search vector abs. value=  0.866E-01
 bond charge predicted
       N       E                     dE             d eps       ncg     rms          rms(c)
DAV:   1    -0.615914463826E+03   -0.22594E-03   -0.21088E-01  1480   0.106E+00    0.117E-01
RMM:   2    -0.615914835627E+03   -0.37180E-03   -0.50397E-03  1428   0.155E-01    0.620E-02
RMM:   3    -0.615914787156E+03    0.48471E-04   -0.20752E-04  1437   0.406E-02    0.358E-02
RMM:   4    -0.615914774055E+03    0.13101E-04   -0.88042E-05  1477   0.192E-02    0.784E-03
RMM:   5    -0.615914773341E+03    0.71427E-06   -0.45706E-06  1448   0.461E-03    0.362E-03
RMM:   6    -0.615914773350E+03   -0.89931E-08   -0.11198E-06  1385   0.192E-03    0.165E-03
RMM:   7    -0.615914773360E+03   -0.10055E-07   -0.21325E-07   931   0.107E-03
  14 F= -.62360923E+03 E0= -.62360923E+03  d E =-.912564E-03
 ZBRENT: can't locate minimum, use default step
 trial-energy change:   -0.000913  1 .order   -0.000916   -0.001012   -0.000820
 step:   0.6660(harm=  0.8784)  dis= 0.00687  next Energy=  -623.610987 (dE=-0.267E-02)
 bond charge predicted
       N       E                     dE             d eps       ncg     rms          rms(c)
DAV:   1    -0.615912431924E+03    0.23414E-02   -0.18983E+00  1440   0.319E+00    0.351E-01
RMM:   2    -0.615915785410E+03   -0.33535E-02   -0.45510E-02  1428   0.465E-01    0.186E-01
RMM:   3    -0.615915349958E+03    0.43545E-03   -0.18728E-03  1437   0.122E-01    0.108E-01
RMM:   4    -0.615915230495E+03    0.11946E-03   -0.80212E-04  1478   0.577E-02    0.238E-02
RMM:   5    -0.615915223286E+03    0.72088E-05   -0.41785E-05  1447   0.139E-02    0.109E-02
RMM:   6    -0.615915222936E+03    0.34981E-06   -0.10211E-05  1477   0.573E-03    0.500E-03
RMM:   7    -0.615915222860E+03    0.76529E-07   -0.21339E-06  1410   0.307E-03    0.181E-03
RMM:   8    -0.615915222809E+03    0.50695E-07   -0.41218E-07  1094   0.126E-03
  15 F= -.62361082E+03 E0= -.62361082E+03  d E =-.249920E-02
 curvature:  -5.70 expect dE=-0.263E-01 dE for cont linesearch -0.138E-03
 ZBRENT: extrapolating
 opt :   0.8741  next Energy=  -623.610967 (dE=-0.265E-02)
 bond charge predicted
       N       E                     dE             d eps       ncg     rms          rms(c)
DAV:   1    -0.615914414613E+03    0.80825E-03   -0.32930E-01  1440   0.133E+00    0.146E-01
RMM:   2    -0.615914994784E+03   -0.58017E-03   -0.78740E-03  1428   0.194E-01    0.775E-02
RMM:   3    -0.615914918921E+03    0.75863E-04   -0.32457E-04  1436   0.509E-02    0.447E-02
RMM:   4    -0.615914898368E+03    0.20553E-04   -0.13778E-04  1479   0.240E-02    0.982E-03
RMM:   5    -0.615914897214E+03    0.11537E-05   -0.71640E-06  1446   0.575E-03    0.451E-03
RMM:   6    -0.615914897208E+03    0.58280E-08   -0.17680E-06  1456   0.239E-03    0.206E-03
RMM:   7    -0.615914897212E+03   -0.39727E-08   -0.34675E-07  1014   0.130E-03
  16 F= -.62361097E+03 E0= -.62361097E+03  d E =-.265003E-02
 curvature:  -6.22 expect dE=-0.448E-01 dE for cont linesearch -0.271E-09
 trial: gam= 1.11392 g(F)=  0.694E-02 g(S)=  0.269E-03 ort =-0.194E-05 (trialstep = 0.233E+00)
 search vector abs. value=  0.115E+00
 bond charge predicted
       N       E                     dE             d eps       ncg     rms          rms(c)
DAV:   1    -0.615914324044E+03    0.57316E-03   -0.53632E-01  1440   0.171E+00    0.201E-01
RMM:   2    -0.615915174859E+03   -0.85082E-03   -0.12858E-02  1428   0.255E-01    0.104E-01
RMM:   3    -0.615915054764E+03    0.12010E-03   -0.58047E-04  1436   0.678E-02    0.580E-02
RMM:   4    -0.615915022323E+03    0.32441E-04   -0.19208E-04  1480   0.303E-02    0.132E-02
RMM:   5    -0.615915021032E+03    0.12906E-05   -0.11420E-05  1450   0.747E-03    0.566E-03
RMM:   6    -0.615915020996E+03    0.36023E-07   -0.24880E-06  1470   0.303E-03    0.262E-03
RMM:   7    -0.615915021044E+03   -0.47767E-07   -0.69669E-07  1267   0.183E-03
  17 F= -.62361239E+03 E0= -.62361239E+03  d E =-.142563E-02
 trial-energy change:   -0.001426  1 .order   -0.001430   -0.001676   -0.001183
 step:   0.9268(harm=  0.7910)  dis= 0.01039  next Energy=  -623.614051 (dE=-0.308E-02)
 bond charge predicted
       N       E                     dE             d eps       ncg     rms          rms(c)
DAV:   1    -0.615906249279E+03    0.87717E-02   -0.47720E+00  1428   0.511E+00    0.603E-01
RMM:   2    -0.615913813823E+03   -0.75645E-02   -0.11491E-01  1428   0.760E-01    0.309E-01
RMM:   3    -0.615912744837E+03    0.10690E-02   -0.51821E-03  1435   0.203E-01    0.173E-01
RMM:   4    -0.615912447672E+03    0.29716E-03   -0.17205E-03  1477   0.910E-02    0.396E-02
RMM:   5    -0.615912436224E+03    0.11448E-04   -0.10255E-04  1453   0.225E-02    0.173E-02
RMM:   6    -0.615912435415E+03    0.80920E-06   -0.23021E-05  1486   0.921E-03    0.790E-03
RMM:   7    -0.615912435307E+03    0.10798E-06   -0.63656E-06  1429   0.549E-03    0.310E-03
RMM:   8    -0.615912435053E+03    0.25389E-06   -0.13789E-06  1343   0.256E-03    0.125E-03
RMM:   9    -0.615912434977E+03    0.75866E-07   -0.32078E-07  1020   0.110E-03
  18 F= -.62361371E+03 E0= -.62361371E+03  d E =-.274146E-02
 curvature:  -5.92 expect dE=-0.546E-01 dE for cont linesearch -0.800E-04
 ZBRENT: interpolating
 opt :   0.7903  next Energy=  -623.613794 (dE=-0.283E-02)
 bond charge predicted
       N       E                     dE             d eps       ncg     rms          rms(c)
DAV:   1    -0.615913055891E+03   -0.62084E-03   -0.18458E-01  1452   0.101E+00    0.118E-01
RMM:   2    -0.615913349385E+03   -0.29349E-03   -0.44236E-03  1428   0.150E-01    0.611E-02
RMM:   3    -0.615913306927E+03    0.42457E-04   -0.19986E-04  1436   0.396E-02    0.341E-02
RMM:   4    -0.615913294758E+03    0.12169E-04   -0.65767E-05  1479   0.177E-02    0.773E-03
RMM:   5    -0.615913294265E+03    0.49278E-06   -0.39859E-06  1450   0.441E-03    0.324E-03
RMM:   6    -0.615913294199E+03    0.65931E-07   -0.79063E-07  1350   0.172E-03
  19 F= -.62361380E+03 E0= -.62361380E+03  d E =-.283161E-02
 curvature:  -6.29 expect dE=-0.408E-01 dE for cont linesearch -0.548E-07
 trial: gam= 0.92972 g(F)=  0.624E-02 g(S)=  0.255E-03 ort = 0.316E-04 (trialstep = 0.344E+00)
 search vector abs. value=  0.106E+00
 bond charge predicted
       N       E                     dE             d eps       ncg     rms          rms(c)
DAV:   1    -0.615911974439E+03    0.13198E-02   -0.10154E+00  1440   0.236E+00    0.277E-01
RMM:   2    -0.615913596601E+03   -0.16222E-02   -0.24306E-02  1428   0.351E-01    0.144E-01
RMM:   3    -0.615913361335E+03    0.23527E-03   -0.10996E-03  1430   0.934E-02    0.796E-02
RMM:   4    -0.615913299368E+03    0.61967E-04   -0.38477E-04  1483   0.426E-02    0.188E-02
RMM:   5    -0.615913295881E+03    0.34871E-05   -0.26111E-05  1449   0.108E-02    0.744E-03
RMM:   6    -0.615913295639E+03    0.24209E-06   -0.43325E-06  1493   0.397E-03    0.379E-03
RMM:   7    -0.615913295552E+03    0.86809E-07   -0.15818E-06  1370   0.254E-03    0.161E-03
RMM:   8    -0.615913295458E+03    0.93554E-07   -0.45896E-07  1087   0.139E-03
  20 F= -.62361557E+03 E0= -.62361557E+03  d E =-.177286E-02
 trial-energy change:   -0.001773  1 .order   -0.001782   -0.002244   -0.001320
 step:   0.9336(harm=  0.8363)  dis= 0.01050  next Energy=  -623.616656 (dE=-0.286E-02)
 bond charge predicted
       N       E                     dE             d eps       ncg     rms          rms(c)
DAV:   1    -0.615907316393E+03    0.59792E-02   -0.29774E+00  1428   0.404E+00    0.476E-01
RMM:   2    -0.615912065016E+03   -0.47486E-02   -0.71418E-02  1428   0.601E-01    0.246E-01
RMM:   3    -0.615911378637E+03    0.68638E-03   -0.32324E-03  1429   0.160E-01    0.136E-01
RMM:   4    -0.615911195904E+03    0.18273E-03   -0.11300E-03  1482   0.732E-02    0.322E-02
RMM:   5    -0.615911186261E+03    0.96432E-05   -0.76753E-05  1451   0.186E-02    0.129E-02
RMM:   6    -0.615911185581E+03    0.67957E-06   -0.13109E-05  1495   0.688E-03    0.652E-03
RMM:   7    -0.615911185322E+03    0.25921E-06   -0.46822E-06  1430   0.440E-03    0.276E-03
RMM:   8    -0.615911185109E+03    0.21284E-06   -0.13979E-06  1341   0.236E-03    0.136E-03
RMM:   9    -0.615911185065E+03    0.44507E-07   -0.22345E-07   920   0.105E-03
  21 F= -.62361651E+03 E0= -.62361651E+03  d E =-.270840E-02
 curvature:  -6.51 expect dE=-0.659E-01 dE for cont linesearch -0.243E-04
 trial: gam= 1.65834 g(F)=  0.955E-02 g(S)=  0.565E-03 ort =-0.627E-03 (trialstep = 0.163E+00)
 search vector abs. value=  0.299E+00
 bond charge predicted
       N       E                     dE             d eps       ncg     rms          rms(c)
DAV:   1    -0.615911117620E+03    0.67489E-04   -0.65748E-01  1428   0.188E+00    0.206E-01
RMM:   2    -0.615912247450E+03   -0.11298E-02   -0.15465E-02  1428   0.275E-01    0.115E-01
RMM:   3    -0.615912094560E+03    0.15289E-03   -0.67350E-04  1439   0.727E-02    0.652E-02
RMM:   4    -0.615912054600E+03    0.39960E-04   -0.27140E-04  1478   0.337E-02    0.153E-02
RMM:   5    -0.615912051563E+03    0.30370E-05   -0.19593E-05  1437   0.911E-03    0.569E-03
RMM:   6    -0.615912051640E+03   -0.77351E-07   -0.18917E-06  1487   0.289E-03    0.305E-03
RMM:   7    -0.615912051662E+03   -0.22013E-07   -0.98832E-07  1339   0.174E-03
  22 F= -.62361786E+03 E0= -.62361786E+03  d E =-.135549E-02
 ZBRENT: can't locate minimum, use default step
 trial-energy change:   -0.001355  1 .order   -0.001358   -0.001483   -0.001232
 step:   0.6540(harm=  0.9662)  dis= 0.01196  next Energy=  -623.620891 (dE=-0.438E-02)
 bond charge predicted
       N       E                     dE             d eps       ncg     rms          rms(c)
DAV:   1    -0.615904733084E+03    0.73186E-02   -0.59165E+00  1428   0.564E+00    0.621E-01
RMM:   2    -0.615914929752E+03   -0.10197E-01   -0.13990E-01  1428   0.825E-01    0.346E-01
RMM:   3    -0.615913554050E+03    0.13757E-02   -0.60965E-03  1439   0.219E-01    0.197E-01
RMM:   4    -0.615913189770E+03    0.36428E-03   -0.24832E-03  1476   0.101E-01    0.465E-02
RMM:   5    -0.615913161105E+03    0.28665E-04   -0.18310E-04  1439   0.279E-02    0.174E-02
RMM:   6    -0.615913161442E+03   -0.33663E-06   -0.17074E-05  1502   0.872E-03    0.930E-03
RMM:   7    -0.615913161554E+03   -0.11204E-06   -0.90219E-06  1429   0.519E-03    0.394E-03
RMM:   8    -0.615913161331E+03    0.22301E-06   -0.27550E-06  1369   0.295E-03    0.190E-03
RMM:   9    -0.615913161200E+03    0.13143E-06   -0.44843E-07  1156   0.141E-03    0.613E-04
RMM:  10    -0.615913161193E+03    0.70577E-08   -0.86473E-08   882   0.706E-04
  23 F= -.62362046E+03 E0= -.62362046E+03  d E =-.395017E-02
 curvature: -13.50 expect dE=-0.101E+00 dE for cont linesearch -0.436E-03
 ZBRENT: increasing intervall
 opt :   1.6350  next Energy=  -623.619159 (dE=-0.265E-02)
 bond charge predicted
       N       E                     dE             d eps       ncg     rms          rms(c)
DAV:   1    -0.615874932615E+03    0.38229E-01   -0.23653E+01  1428   0.113E+01    0.125E+00
RMM:   2    -0.615915832778E+03   -0.40900E-01   -0.56435E-01  1428   0.165E+00    0.694E-01
RMM:   3    -0.615910378850E+03    0.54539E-02   -0.24559E-02  1438   0.441E-01    0.397E-01
RMM:   4    -0.615908895397E+03    0.14835E-02   -0.10186E-02  1474   0.204E-01    0.949E-02
RMM:   5    -0.615908775139E+03    0.12026E-03   -0.76077E-04  1440   0.572E-02    0.358E-02
RMM:   6    -0.615908776207E+03   -0.10680E-05   -0.70343E-05  1501   0.177E-02    0.190E-02
RMM:   7    -0.615908776577E+03   -0.36968E-06   -0.36905E-05  1429   0.105E-02    0.797E-03
RMM:   8    -0.615908775668E+03    0.90823E-06   -0.11083E-05  1438   0.592E-03    0.376E-03
RMM:   9    -0.615908775210E+03    0.45804E-06   -0.19081E-06  1415   0.282E-03    0.123E-03
RMM:  10    -0.615908775179E+03    0.31319E-07   -0.29225E-07   987   0.108E-03
  24 F= -.62361912E+03 E0= -.62361912E+03  d E =-.261663E-02
 curvature:  40.21 expect dE= 0.117E+01 dE for cont linesearch  0.445E-02
 ZBRENT: bracketing found
 ZBRENT: interpolating
 opt :   0.9980  next Energy=  -623.620992 (dE=-0.448E-02)
 bond charge predicted
       N       E                     dE             d eps       ncg     rms          rms(c)
DAV:   1    -0.615898413426E+03    0.10362E-01   -0.99865E+00  1428   0.734E+00    0.803E-01
RMM:   2    -0.615915615570E+03   -0.17202E-01   -0.23380E-01  1428   0.108E+00    0.449E-01
RMM:   3    -0.615913269668E+03    0.23459E-02   -0.10209E-02  1439   0.281E-01    0.253E-01
RMM:   4    -0.615912662754E+03    0.60691E-03   -0.40212E-03  1478   0.130E-01    0.589E-02
RMM:   5    -0.615912616610E+03    0.46144E-04   -0.29764E-04  1438   0.355E-02    0.215E-02
RMM:   6    -0.615912616495E+03    0.11502E-06   -0.27430E-05  1501   0.111E-02    0.117E-02
RMM:   7    -0.615912616525E+03   -0.30872E-07   -0.14482E-05  1428   0.662E-03    0.497E-03
RMM:   8    -0.615912616258E+03    0.26727E-06   -0.45431E-06  1404   0.379E-03    0.254E-03
RMM:   9    -0.615912616098E+03    0.16035E-06   -0.73434E-07  1306   0.178E-03    0.723E-04
RMM:  10    -0.615912616069E+03    0.28336E-07   -0.13389E-07   905   0.744E-04
  25 F= -.62362098E+03 E0= -.62362098E+03  d E =-.446775E-02
 curvature:  -4.82 expect dE=-0.556E-01 dE for cont linesearch -0.959E-08
 trial: gam= 0.85689 g(F)=  0.111E-01 g(S)=  0.449E-03 ort = 0.244E-04 (trialstep = 0.330E+00)
 search vector abs. value=  0.231E+00
 bond charge predicted
       N       E                     dE             d eps       ncg     rms          rms(c)
DAV:   1    -0.615912645824E+03   -0.29727E-04   -0.20741E+00  1428   0.334E+00    0.368E-01
RMM:   2    -0.615916409334E+03   -0.37635E-02   -0.49675E-02  1428   0.493E-01    0.207E-01
RMM:   3    -0.615915898940E+03    0.51039E-03   -0.21018E-03  1436   0.127E-01    0.120E-01
RMM:   4    -0.615915769297E+03    0.12964E-03   -0.97815E-04  1476   0.621E-02    0.294E-02
RMM:   5    -0.615915755109E+03    0.14188E-04   -0.86382E-05  1438   0.185E-02    0.111E-02
RMM:   6    -0.615915754881E+03    0.22880E-06   -0.58200E-06  1473   0.555E-03    0.561E-03
RMM:   7    -0.615915754899E+03   -0.18277E-07   -0.34730E-06  1411   0.312E-03    0.234E-03
RMM:   8    -0.615915754858E+03    0.41291E-07   -0.11099E-06  1287   0.189E-03    0.143E-03
RMM:   9    -0.615915754738E+03    0.11953E-06   -0.25141E-07   974   0.102E-03    0.434E-04
RMM:  10    -0.615915754751E+03   -0.13220E-07   -0.53395E-08   882   0.623E-04
  26 F= -.62362402E+03 E0= -.62362402E+03  d E =-.304245E-02
 trial-energy change:   -0.003042  1 .order   -0.003057   -0.003816   -0.002298
 step:   0.9255(harm=  0.8307)  dis= 0.01469  next Energy=  -623.626003 (dE=-0.503E-02)
 bond charge predicted
       N       E                     dE             d eps       ncg     rms          rms(c)
DAV:   1    -0.615907441887E+03    0.83129E-02   -0.67259E+00  1428   0.601E+00    0.663E-01
RMM:   2    -0.615919677525E+03   -0.12236E-01   -0.16180E-01  1428   0.888E-01    0.374E-01
RMM:   3    -0.615918032044E+03    0.16455E-02   -0.68319E-03  1434   0.230E-01    0.217E-01
RMM:   4    -0.615917609588E+03    0.42246E-03   -0.32231E-03  1473   0.113E-01    0.536E-02
RMM:   5    -0.615917561207E+03    0.48381E-04   -0.28982E-04  1440   0.340E-02    0.203E-02
RMM:   6    -0.615917560033E+03    0.11733E-05   -0.19270E-05  1473   0.101E-02    0.103E-02
RMM:   7    -0.615917559900E+03    0.13370E-06   -0.11509E-05  1430   0.567E-03    0.424E-03
RMM:   8    -0.615917559734E+03    0.16603E-06   -0.36062E-06  1364   0.340E-03    0.256E-03
RMM:   9    -0.615917559430E+03    0.30360E-06   -0.89742E-07  1329   0.178E-03    0.735E-04
RMM:  10    -0.615917559452E+03   -0.21904E-07   -0.13218E-07   899   0.733E-04
  27 F= -.62362567E+03 E0= -.62362567E+03  d E =-.469812E-02
 curvature:  -8.00 expect dE=-0.844E-01 dE for cont linesearch -0.589E-04
 trial: gam= 1.08846 g(F)=  0.931E-02 g(S)=  0.124E-02 ort =-0.130E-02 (trialstep = 0.369E+00)
 search vector abs. value=  0.281E+00
 bond charge predicted
       N       E                     dE             d eps       ncg     rms          rms(c)
DAV:   1    -0.615913080283E+03    0.44791E-02   -0.30719E+00  1428   0.411E+00    0.485E-01
RMM:   2    -0.615917974833E+03   -0.48946E-02   -0.76226E-02  1428   0.617E-01    0.256E-01
RMM:   3    -0.615917192449E+03    0.78238E-03   -0.35128E-03  1433   0.168E-01    0.142E-01
RMM:   4    -0.615916988697E+03    0.20375E-03   -0.12243E-03  1483   0.749E-02    0.364E-02
RMM:   5    -0.615916976771E+03    0.11927E-04   -0.86581E-05  1450   0.198E-02    0.135E-02
RMM:   6    -0.615916976381E+03    0.38908E-06   -0.12228E-05  1495   0.669E-03    0.666E-03
RMM:   7    -0.615916976141E+03    0.24061E-06   -0.48279E-06  1429   0.420E-03    0.278E-03
RMM:   8    -0.615916975934E+03    0.20713E-06   -0.15682E-06  1347   0.234E-03    0.151E-03
RMM:   9    -0.615916975834E+03    0.99386E-07   -0.31722E-07  1020   0.117E-03
  28 F= -.62362825E+03 E0= -.62362825E+03  d E =-.257829E-02
 trial-energy change:   -0.002578  1 .order   -0.002603   -0.003368   -0.001838
 step:   0.9646(harm=  0.8123)  dis= 0.01691  next Energy=  -623.629631 (dE=-0.396E-02)
 bond charge predicted
       N       E                     dE             d eps       ncg     rms          rms(c)
DAV:   1    -0.615902595975E+03    0.14380E-01   -0.80059E+00  1428   0.663E+00    0.786E-01
RMM:   2    -0.615915339245E+03   -0.12743E-01   -0.19931E-01  1428   0.996E-01    0.412E-01
RMM:   3    -0.615913309953E+03    0.20293E-02   -0.91895E-03  1433   0.272E-01    0.229E-01
RMM:   4    -0.615912775229E+03    0.53472E-03   -0.32085E-03  1482   0.121E-01    0.590E-02
RMM:   5    -0.615912744466E+03    0.30763E-04   -0.22442E-04  1450   0.321E-02    0.222E-02
RMM:   6    -0.615912743365E+03    0.11004E-05   -0.32937E-05  1493   0.109E-02    0.108E-02
RMM:   7    -0.615912742703E+03    0.66242E-06   -0.12845E-05  1429   0.685E-03    0.453E-03
RMM:   8    -0.615912742204E+03    0.49904E-06   -0.41783E-06  1416   0.383E-03    0.246E-03
RMM:   9    -0.615912741940E+03    0.26361E-06   -0.88840E-07  1320   0.188E-03    0.760E-04
RMM:  10    -0.615912741928E+03    0.12100E-07   -0.35703E-07  1004   0.940E-04
  29 F= -.62362916E+03 E0= -.62362916E+03  d E =-.348321E-02
 curvature: -11.03 expect dE=-0.142E+00 dE for cont linesearch -0.125E-03
 trial: gam= 1.10339 g(F)=  0.114E-01 g(S)=  0.154E-02 ort =-0.179E-02 (trialstep = 0.391E+00)
 search vector abs. value=  0.351E+00
 bond charge predicted
       N       E                     dE             d eps       ncg     rms          rms(c)
DAV:   1    -0.615904611184E+03    0.81308E-02   -0.42213E+00  1428   0.494E+00    0.681E-01
RMM:   2    -0.615909440005E+03   -0.48288E-02   -0.11460E-01  1428   0.785E-01    0.323E-01
RMM:   3    -0.615908273417E+03    0.11666E-02   -0.59939E-03  1429   0.215E-01    0.170E-01
RMM:   4    -0.615907973019E+03    0.30040E-03   -0.15081E-03  1492   0.878E-02    0.489E-02
RMM:   5    -0.615907956371E+03    0.16648E-04   -0.12619E-04  1447   0.238E-02    0.173E-02
RMM:   6    -0.615907955474E+03    0.89732E-06   -0.18597E-05  1486   0.843E-03    0.806E-03
RMM:   7    -0.615907954973E+03    0.50135E-06   -0.59922E-06  1431   0.518E-03    0.260E-03
RMM:   8    -0.615907954646E+03    0.32646E-06   -0.11566E-06  1335   0.219E-03    0.135E-03
RMM:   9    -0.615907954481E+03    0.16467E-06   -0.53638E-07  1232   0.134E-03    0.589E-04
RMM:  10    -0.615907954493E+03   -0.11758E-07   -0.17331E-07   936   0.746E-04
  30 F= -.62363211E+03 E0= -.62363211E+03  d E =-.295264E-02
 trial-energy change:   -0.002953  1 .order   -0.002993   -0.004268   -0.001717
 step:   0.7077(harm=  0.6538)  dis= 0.01406  next Energy=  -623.632785 (dE=-0.363E-02)
 bond charge predicted
       N       E                     dE             d eps       ncg     rms          rms(c)
DAV:   1    -0.615899973431E+03    0.79811E-02   -0.27804E+00  1428   0.401E+00    0.552E-01
RMM:   2    -0.615903151709E+03   -0.31783E-02   -0.75424E-02  1428   0.637E-01    0.262E-01
RMM:   3    -0.615902379249E+03    0.77246E-03   -0.39530E-03  1430   0.174E-01    0.138E-01
RMM:   4    -0.615902181706E+03    0.19754E-03   -0.98816E-04  1490   0.710E-02    0.396E-02
RMM:   5    -0.615902170795E+03    0.10911E-04   -0.83337E-05  1448   0.194E-02    0.139E-02
RMM:   6    -0.615902170264E+03    0.53157E-06   -0.12086E-05  1487   0.677E-03    0.652E-03
RMM:   7    -0.615902169979E+03    0.28479E-06   -0.39300E-06  1430   0.418E-03    0.211E-03
RMM:   8    -0.615902169754E+03    0.22510E-06   -0.75199E-07  1245   0.177E-03    0.109E-03
RMM:   9    -0.615902169647E+03    0.10667E-06   -0.33520E-07  1046   0.111E-03    0.502E-04
RMM:  10    -0.615902169652E+03   -0.51587E-08   -0.13304E-07   900   0.712E-04
  31 F= -.62363263E+03 E0= -.62363263E+03  d E =-.347201E-02
 curvature: -10.07 expect dE=-0.112E+00 dE for cont linesearch -0.254E-04
 trial: gam= 0.76272 g(F)=  0.107E-01 g(S)=  0.422E-03 ort =-0.942E-03 (trialstep = 0.454E+00)
 search vector abs. value=  0.214E+00
 bond charge predicted
       N       E                     dE             d eps       ncg     rms          rms(c)
DAV:   1    -0.615895940100E+03    0.62295E-02   -0.35394E+00  1428   0.454E+00    0.639E-01
RMM:   2    -0.615899035682E+03   -0.30956E-02   -0.98624E-02  1428   0.728E-01    0.296E-01
RMM:   3    -0.615897959797E+03    0.10759E-02   -0.52590E-03  1428   0.203E-01    0.159E-01
RMM:   4    -0.615897674407E+03    0.28539E-03   -0.14477E-03  1493   0.843E-02    0.489E-02
RMM:   5    -0.615897657583E+03    0.16825E-04   -0.12040E-04  1448   0.228E-02    0.191E-02
RMM:   6    -0.615897654934E+03    0.26487E-05   -0.23273E-05  1471   0.918E-03    0.800E-03
RMM:   7    -0.615897653976E+03    0.95777E-06   -0.68909E-06  1435   0.598E-03    0.258E-03
RMM:   8    -0.615897653453E+03    0.52360E-06   -0.13798E-06  1323   0.236E-03    0.148E-03
RMM:   9    -0.615897653160E+03    0.29239E-06   -0.74350E-07  1284   0.144E-03    0.785E-04
RMM:  10    -0.615897653153E+03    0.75634E-08   -0.30133E-07   998   0.120E-03
  32 F= -.62363607E+03 E0= -.62363607E+03  d E =-.344482E-02
 trial-energy change:   -0.003445  1 .order   -0.003492   -0.004745   -0.002238
 step:   0.9903(harm=  0.8593)  dis= 0.01449  next Energy=  -623.637318 (dE=-0.469E-02)
 bond charge predicted
       N       E                     dE             d eps       ncg     rms          rms(c)
DAV:   1    -0.615886657196E+03    0.10996E-01   -0.49357E+00  1428   0.536E+00    0.756E-01
RMM:   2    -0.615890947071E+03   -0.42899E-02   -0.13770E-01  1428   0.859E-01    0.350E-01
RMM:   3    -0.615889446799E+03    0.15003E-02   -0.73495E-03  1428   0.240E-01    0.187E-01
RMM:   4    -0.615889047949E+03    0.39885E-03   -0.20249E-03  1493   0.998E-02    0.579E-02
RMM:   5    -0.615889024162E+03    0.23787E-04   -0.16790E-04  1448   0.270E-02    0.227E-02
RMM:   6    -0.615889020248E+03    0.39144E-05   -0.32942E-05  1470   0.109E-02    0.947E-03
RMM:   7    -0.615889018808E+03    0.14398E-05   -0.95910E-06  1438   0.706E-03    0.305E-03
RMM:   8    -0.615889018101E+03    0.70661E-06   -0.19305E-06  1386   0.279E-03    0.175E-03
RMM:   9    -0.615889017694E+03    0.40752E-06   -0.10391E-06  1318   0.169E-03    0.911E-04
RMM:  10    -0.615889017673E+03    0.21282E-07   -0.42727E-07  1131   0.137E-03
  33 F= -.62363688E+03 E0= -.62363688E+03  d E =-.424685E-02
 curvature:  -7.88 expect dE=-0.138E+00 dE for cont linesearch -0.100E-03
 trial: gam= 1.73914 g(F)=  0.172E-01 g(S)=  0.329E-03 ort =-0.165E-02 (trialstep = 0.182E+00)
 search vector abs. value=  0.659E+00
 bond charge predicted
       N       E                     dE             d eps       ncg     rms          rms(c)
DAV:   1    -0.615885222469E+03    0.37952E-02   -0.17374E+00  1440   0.317E+00    0.446E-01
RMM:   2    -0.615886751508E+03   -0.15290E-02   -0.47667E-02  1428   0.502E-01    0.209E-01
RMM:   3    -0.615886216968E+03    0.53454E-03   -0.25531E-03  1428   0.141E-01    0.110E-01
RMM:   4    -0.615886082483E+03    0.13449E-03   -0.67487E-04  1496   0.581E-02    0.342E-02
RMM:   5    -0.615886075263E+03    0.72194E-05   -0.53910E-05  1443   0.157E-02    0.132E-02
RMM:   6    -0.615886074562E+03    0.70113E-06   -0.10049E-05  1467   0.613E-03    0.546E-03
RMM:   7    -0.615886074363E+03    0.19903E-06   -0.28119E-06  1426   0.383E-03    0.168E-03
RMM:   8    -0.615886074112E+03    0.25101E-06   -0.49737E-07  1135   0.150E-03    0.913E-04
RMM:   9    -0.615886073991E+03    0.12120E-06   -0.35823E-07  1070   0.112E-03    0.527E-04
RMM:  10    -0.615886073996E+03   -0.47876E-08   -0.10906E-07   885   0.634E-04
  34 F= -.62363923E+03 E0= -.62363923E+03  d E =-.235870E-02
 ZBRENT: can't locate minimum, use default step
 trial-energy change:   -0.002359  1 .order   -0.002400   -0.002671   -0.002128
 step:   0.7291(harm=  0.8959)  dis= 0.01821  next Energy=  -623.643441 (dE=-0.657E-02)
 bond charge predicted
       N       E                     dE             d eps       ncg     rms          rms(c)
DAV:   1    -0.615866382899E+03    0.19691E-01   -0.15630E+01  1428   0.949E+00    0.135E+00
RMM:   2    -0.615880047247E+03   -0.13664E-01   -0.43509E-01  1428   0.151E+00    0.626E-01
RMM:   3    -0.615875313964E+03    0.47333E-02   -0.23147E-02  1428   0.430E-01    0.334E-01
RMM:   4    -0.615874069045E+03    0.12449E-02   -0.62896E-03  1496   0.178E-01    0.105E-01
RMM:   5    -0.615873997542E+03    0.71503E-04   -0.48715E-04  1442   0.472E-02    0.423E-02
RMM:   6    -0.615873986393E+03    0.11149E-04   -0.10271E-04  1467   0.197E-02    0.168E-02
RMM:   7    -0.615873982340E+03    0.40524E-05   -0.26198E-05  1438   0.119E-02    0.524E-03
RMM:   8    -0.615873980517E+03    0.18237E-05   -0.51588E-06  1457   0.472E-03    0.285E-03
RMM:   9    -0.615873979359E+03    0.11572E-05   -0.29101E-06  1427   0.284E-03    0.158E-03
RMM:  10    -0.615873979249E+03    0.11038E-06   -0.11748E-06  1325   0.221E-03    0.157E-03
RMM:  11    -0.615873979122E+03    0.12738E-06   -0.64067E-07  1207   0.183E-03    0.792E-04
RMM:  12    -0.615873979141E+03   -0.19339E-07   -0.97475E-08   882   0.691E-04
  35 F= -.62364313E+03 E0= -.62364313E+03  d E =-.625670E-02
 curvature: -19.05 expect dE=-0.323E+00 dE for cont linesearch -0.241E-03
 trial: gam= 0.50822 g(F)=  0.162E-01 g(S)=  0.711E-03 ort = 0.289E-02 (trialstep = 0.292E+00)
 search vector abs. value=  0.190E+00
 bond charge predicted
       N       E                     dE             d eps       ncg     rms          rms(c)
DAV:   1    -0.615873581488E+03    0.39763E-03   -0.12819E+00  1452   0.271E+00    0.380E-01
RMM:   2    -0.615874973735E+03   -0.13922E-02   -0.33783E-02  1428   0.430E-01    0.185E-01
RMM:   3    -0.615874569979E+03    0.40376E-03   -0.18620E-03  1430   0.117E-01    0.939E-02
RMM:   4    -0.615874477521E+03    0.92458E-04   -0.45487E-04  1497   0.478E-02    0.262E-02
RMM:   5    -0.615874472324E+03    0.51974E-05   -0.37560E-05  1439   0.135E-02    0.900E-03
RMM:   6    -0.615874472037E+03    0.28680E-06   -0.56830E-06  1491   0.451E-03    0.416E-03
RMM:   7    -0.615874471931E+03    0.10624E-06   -0.11965E-06  1401   0.228E-03    0.154E-03
RMM:   8    -0.615874471855E+03    0.76030E-07   -0.23644E-07   950   0.100E-03
  36 F= -.62364751E+03 E0= -.62364751E+03  d E =-.437887E-02
 trial-energy change:   -0.004379  1 .order   -0.004352   -0.005372   -0.003333
 step:   0.6937(harm=  0.7681)  dis= 0.00887  next Energy=  -623.649878 (dE=-0.675E-02)
 bond charge predicted
       N       E                     dE             d eps       ncg     rms          rms(c)
DAV:   1    -0.615870065499E+03    0.44064E-02   -0.24369E+00  1428   0.373E+00    0.525E-01
RMM:   2    -0.615872702586E+03   -0.26371E-02   -0.64350E-02  1428   0.593E-01    0.255E-01
RMM:   3    -0.615871935181E+03    0.76740E-03   -0.35427E-03  1430   0.162E-01    0.130E-01
RMM:   4    -0.615871757787E+03    0.17739E-03   -0.86840E-04  1496   0.662E-02    0.362E-02
RMM:   5    -0.615871747824E+03    0.99629E-05   -0.71444E-05  1441   0.187E-02    0.125E-02
RMM:   6    -0.615871747214E+03    0.61068E-06   -0.10974E-05  1497   0.624E-03    0.578E-03
RMM:   7    -0.615871746990E+03    0.22374E-06   -0.23091E-06  1431   0.315E-03    0.214E-03
RMM:   8    -0.615871746851E+03    0.13932E-06   -0.48812E-07  1161   0.137E-03    0.900E-04
RMM:   9    -0.615871746805E+03    0.45758E-07   -0.15883E-07   883   0.904E-04
  37 F= -.62365016E+03 E0= -.62365016E+03  d E =-.702929E-02
 curvature:  -3.87 expect dE=-0.283E-01 dE for cont linesearch -0.710E-04
 ZBRENT: extrapolating
 opt :   0.7723  next Energy=  -623.650235 (dE=-0.710E-02)
 bond charge predicted
       N       E                     dE             d eps       ncg     rms          rms(c)
DAV:   1    -0.615870695126E+03    0.10517E-02   -0.93050E-02  1512   0.729E-01    0.102E-01
RMM:   2    -0.615870795774E+03   -0.10065E-03   -0.24463E-03  1428   0.116E-01    0.499E-02
RMM:   3    -0.615870766244E+03    0.29530E-04   -0.13489E-04  1430   0.316E-02    0.253E-02
RMM:   4    -0.615870759732E+03    0.65115E-05   -0.32950E-05  1496   0.128E-02    0.703E-03
RMM:   5    -0.615870759386E+03    0.34668E-06   -0.27471E-06  1441   0.366E-03    0.240E-03
RMM:   6    -0.615870759363E+03    0.22323E-07   -0.35964E-07  1052   0.121E-03
  38 F= -.62365023E+03 E0= -.62365023E+03  d E =-.709456E-02
 curvature:  -4.00 expect dE=-0.382E-01 dE for cont linesearch -0.614E-07
 trial: gam= 0.74475 g(F)=  0.920E-02 g(S)=  0.351E-03 ort =-0.540E-04 (trialstep = 0.388E+00)
 search vector abs. value=  0.115E+00
 bond charge predicted
       N       E                     dE             d eps       ncg     rms          rms(c)
DAV:   1    -0.615869277722E+03    0.14817E-02   -0.13093E+00  1428   0.271E+00    0.378E-01
RMM:   2    -0.615870550188E+03   -0.12725E-02   -0.33799E-02  1428   0.425E-01    0.191E-01
RMM:   3    -0.615870095532E+03    0.45466E-03   -0.18569E-03  1429   0.118E-01    0.973E-02
RMM:   4    -0.615869985711E+03    0.10982E-03   -0.50136E-04  1496   0.494E-02    0.256E-02
RMM:   5    -0.615869981327E+03    0.43840E-05   -0.39799E-05  1445   0.136E-02    0.990E-03
RMM:   6    -0.615869980937E+03    0.39058E-06   -0.64785E-06  1477   0.471E-03    0.442E-03
RMM:   7    -0.615869980772E+03    0.16505E-06   -0.15655E-06  1427   0.257E-03    0.148E-03
RMM:   8    -0.615869980651E+03    0.12108E-06   -0.29966E-07   992   0.106E-03    0.695E-04
RMM:   9    -0.615869980595E+03    0.55868E-07   -0.15015E-07   885   0.818E-04
  39 F= -.62365287E+03 E0= -.62365287E+03  d E =-.264238E-02
 trial-energy change:   -0.002642  1 .order   -0.002668   -0.003687   -0.001649
 step:   0.7550(harm=  0.7013)  dis= 0.00758  next Energy=  -623.653628 (dE=-0.340E-02)
 bond charge predicted
       N       E                     dE             d eps       ncg     rms          rms(c)
DAV:   1    -0.615866721120E+03    0.32595E-02   -0.11744E+00  1428   0.257E+00    0.358E-01
RMM:   2    -0.615867858545E+03   -0.11374E-02   -0.30310E-02  1428   0.403E-01    0.181E-01
RMM:   3    -0.615867449844E+03    0.40870E-03   -0.16659E-03  1429   0.112E-01    0.922E-02
RMM:   4    -0.615867351136E+03    0.98708E-04   -0.44932E-04  1497   0.468E-02    0.242E-02
RMM:   5    -0.615867347189E+03    0.39462E-05   -0.35658E-05  1444   0.129E-02    0.936E-03
RMM:   6    -0.615867346840E+03    0.34890E-06   -0.58136E-06  1478   0.447E-03    0.418E-03
RMM:   7    -0.615867346692E+03    0.14821E-06   -0.14055E-06  1418   0.244E-03    0.140E-03
RMM:   8    -0.615867346582E+03    0.11070E-06   -0.26855E-07   971   0.101E-03    0.660E-04
RMM:   9    -0.615867346532E+03    0.49869E-07   -0.13808E-07   883   0.788E-04
  40 F= -.62365349E+03 E0= -.62365349E+03  d E =-.325892E-02
 curvature:  -4.12 expect dE=-0.474E-01 dE for cont linesearch -0.204E-04
 trial: gam= 1.19708 g(F)=  0.111E-01 g(S)=  0.443E-03 ort =-0.754E-03 (trialstep = 0.304E+00)
 search vector abs. value=  0.174E+00
 bond charge predicted
       N       E                     dE             d eps       ncg     rms          rms(c)
DAV:   1    -0.615865434437E+03    0.19121E-02   -0.12333E+00  1428   0.267E+00    0.401E-01
RMM:   2    -0.615866230089E+03   -0.79565E-03   -0.33770E-02  1428   0.430E-01    0.193E-01
RMM:   3    -0.615865740851E+03    0.48924E-03   -0.19360E-03  1432   0.119E-01    0.995E-02
RMM:   4    -0.615865614881E+03    0.12597E-03   -0.53767E-04  1495   0.497E-02    0.281E-02
RMM:   5    -0.615865609488E+03    0.53927E-05   -0.36995E-05  1442   0.134E-02    0.120E-02
RMM:   6    -0.615865608586E+03    0.90219E-06   -0.92711E-06  1445   0.549E-03    0.434E-03
RMM:   7    -0.615865608326E+03    0.25984E-06   -0.16279E-06  1430   0.278E-03    0.155E-03
RMM:   8    -0.615865608104E+03    0.22143E-06   -0.35101E-07  1060   0.104E-03    0.767E-04
RMM:   9    -0.615865608005E+03    0.98888E-07   -0.18861E-07   907   0.794E-04
  41 F= -.62365610E+03 E0= -.62365610E+03  d E =-.261161E-02
 trial-energy change:   -0.002612  1 .order   -0.002638   -0.003228   -0.002048
 step:   0.8318(harm=  0.8318)  dis= 0.00959  next Energy=  -623.657903 (dE=-0.442E-02)
 bond charge predicted
       N       E                     dE             d eps       ncg     rms          rms(c)
DAV:   1    -0.615859260869E+03    0.63472E-02   -0.37199E+00  1428   0.463E+00    0.697E-01
RMM:   2    -0.615861647536E+03   -0.23867E-02   -0.10233E-01  1428   0.746E-01    0.336E-01
RMM:   3    -0.615860173544E+03    0.14740E-02   -0.58530E-03  1432   0.208E-01    0.173E-01
RMM:   4    -0.615859789229E+03    0.38431E-03   -0.16416E-03  1494   0.870E-02    0.491E-02
RMM:   5    -0.615859771495E+03    0.17735E-04   -0.11192E-04  1443   0.233E-02    0.212E-02
RMM:   6    -0.615859767832E+03    0.36632E-05   -0.28925E-05  1446   0.970E-03    0.758E-03
RMM:   7    -0.615859766740E+03    0.10917E-05   -0.49599E-06  1461   0.490E-03    0.272E-03
RMM:   8    -0.615859766087E+03    0.65319E-06   -0.11698E-06  1362   0.180E-03    0.134E-03
RMM:   9    -0.615859765750E+03    0.33716E-06   -0.58055E-07  1184   0.122E-03    0.728E-04
RMM:  10    -0.615859765685E+03    0.65062E-07   -0.26015E-07   976   0.901E-04
  42 F= -.62365784E+03 E0= -.62365784E+03  d E =-.435367E-02
 curvature:  -6.83 expect dE=-0.800E-01 dE for cont linesearch -0.748E-07
 trial: gam= 0.83322 g(F)=  0.112E-01 g(S)=  0.500E-03 ort = 0.437E-04 (trialstep = 0.409E+00)
 search vector abs. value=  0.133E+00
 bond charge predicted
       N       E                     dE             d eps       ncg     rms          rms(c)
DAV:   1    -0.615856540105E+03    0.32256E-02   -0.16160E+00  1440   0.316E+00    0.501E-01
RMM:   2    -0.615856695292E+03   -0.15519E-03   -0.48417E-02  1428   0.540E-01    0.239E-01
RMM:   3    -0.615856036618E+03    0.65867E-03   -0.30314E-03  1429   0.141E-01    0.121E-01
RMM:   4    -0.615855844453E+03    0.19216E-03   -0.63902E-04  1493   0.541E-02    0.334E-02
RMM:   5    -0.615855836710E+03    0.77424E-05   -0.52879E-05  1442   0.163E-02    0.135E-02
RMM:   6    -0.615855835539E+03    0.11711E-05   -0.10766E-05  1456   0.590E-03    0.540E-03
RMM:   7    -0.615855835034E+03    0.50581E-06   -0.22813E-06  1438   0.303E-03    0.158E-03
RMM:   8    -0.615855834752E+03    0.28139E-06   -0.45017E-07  1119   0.123E-03    0.893E-04
RMM:   9    -0.615855834552E+03    0.19981E-06   -0.38145E-07  1088   0.101E-03    0.491E-04
RMM:  10    -0.615855834556E+03   -0.33106E-08   -0.73901E-08   882   0.604E-04
  43 F= -.62366117E+03 E0= -.62366117E+03  d E =-.333302E-02
 trial-energy change:   -0.003333  1 .order   -0.003365   -0.004812   -0.001918
 step:   0.7165(harm=  0.6809)  dis= 0.00725  next Energy=  -623.661878 (dE=-0.404E-02)
 bond charge predicted
       N       E                     dE             d eps       ncg     rms          rms(c)
DAV:   1    -0.615851379380E+03    0.44552E-02   -0.90856E-01  1452   0.237E+00    0.376E-01
RMM:   2    -0.615851463970E+03   -0.84591E-04   -0.27220E-02  1428   0.405E-01    0.179E-01
RMM:   3    -0.615851093229E+03    0.37074E-03   -0.17074E-03  1429   0.106E-01    0.904E-02
RMM:   4    -0.615850985666E+03    0.10756E-03   -0.35783E-04  1493   0.405E-02    0.251E-02
RMM:   5    -0.615850981588E+03    0.40779E-05   -0.29726E-05  1441   0.123E-02    0.101E-02
RMM:   6    -0.615850981051E+03    0.53754E-06   -0.60744E-06  1457   0.442E-03    0.405E-03
RMM:   7    -0.615850980808E+03    0.24244E-06   -0.12841E-06  1407   0.228E-03    0.118E-03
RMM:   8    -0.615850980649E+03    0.15920E-06   -0.23114E-07   944   0.930E-04    0.690E-04
RMM:   9    -0.615850980531E+03    0.11779E-06   -0.24167E-07   947   0.901E-04    0.506E-04
RMM:  10    -0.615850980543E+03   -0.11758E-07   -0.63718E-08   882   0.668E-04
  44 F= -.62366178E+03 E0= -.62366178E+03  d E =-.393941E-02
 curvature:  -3.78 expect dE=-0.357E-01 dE for cont linesearch -0.105E-04
 trial: gam= 0.90769 g(F)=  0.936E-02 g(S)=  0.634E-04 ort =-0.607E-03 (trialstep = 0.471E+00)
 search vector abs. value=  0.118E+00
 bond charge predicted
       N       E                     dE             d eps       ncg     rms          rms(c)
DAV:   1    -0.615847256497E+03    0.37240E-02   -0.19795E+00  1428   0.343E+00    0.523E-01
RMM:   2    -0.615848337618E+03   -0.10811E-02   -0.55354E-02  1428   0.571E-01    0.250E-01
RMM:   3    -0.615847606867E+03    0.73075E-03   -0.31739E-03  1430   0.146E-01    0.128E-01
RMM:   4    -0.615847389398E+03    0.21747E-03   -0.76681E-04  1489   0.591E-02    0.314E-02
RMM:   5    -0.615847379966E+03    0.94316E-05   -0.58869E-05  1442   0.171E-02    0.124E-02
RMM:   6    -0.615847378180E+03    0.17858E-05   -0.10175E-05  1477   0.576E-03    0.583E-03
RMM:   7    -0.615847377121E+03    0.10590E-05   -0.31469E-06  1430   0.339E-03    0.186E-03
RMM:   8    -0.615847376751E+03    0.37053E-06   -0.72066E-07  1250   0.149E-03    0.107E-03
RMM:   9    -0.615847376498E+03    0.25222E-06   -0.65958E-07  1236   0.131E-03    0.582E-04
RMM:  10    -0.615847376487E+03    0.11241E-07   -0.14804E-07   904   0.674E-04
  45 F= -.62366480E+03 E0= -.62366480E+03  d E =-.302288E-02
 trial-energy change:   -0.003023  1 .order   -0.003052   -0.004179   -0.001925
 step:   0.9462(harm=  0.8729)  dis= 0.00941  next Energy=  -623.665743 (dE=-0.396E-02)
 bond charge predicted
       N       E                     dE             d eps       ncg     rms          rms(c)
DAV:   1    -0.615841337888E+03    0.60386E-02   -0.20172E+00  1428   0.346E+00    0.528E-01
RMM:   2    -0.615842429137E+03   -0.10912E-02   -0.56438E-02  1428   0.577E-01    0.253E-01
RMM:   3    -0.615841682494E+03    0.74664E-03   -0.32403E-03  1430   0.147E-01    0.129E-01
RMM:   4    -0.615841460601E+03    0.22189E-03   -0.78219E-04  1491   0.596E-02    0.318E-02
RMM:   5    -0.615841450911E+03    0.96900E-05   -0.59859E-05  1441   0.172E-02    0.125E-02
RMM:   6    -0.615841449084E+03    0.18271E-05   -0.10335E-05  1476   0.580E-03    0.589E-03
RMM:   7    -0.615841448001E+03    0.10824E-05   -0.31979E-06  1430   0.342E-03    0.187E-03
RMM:   8    -0.615841447622E+03    0.37894E-06   -0.73623E-07  1254   0.150E-03    0.108E-03
RMM:   9    -0.615841447365E+03    0.25684E-06   -0.67704E-07  1245   0.132E-03    0.588E-04
RMM:  10    -0.615841447355E+03    0.10801E-07   -0.14811E-07   904   0.672E-04
  46 F= -.62366558E+03 E0= -.62366558E+03  d E =-.380422E-02
 curvature:  -5.60 expect dE=-0.501E-01 dE for cont linesearch -0.252E-04
 trial: gam= 0.89682 g(F)=  0.717E-02 g(S)=  0.176E-02 ort =-0.728E-03 (trialstep = 0.566E+00)
 search vector abs. value=  0.102E+00
 bond charge predicted
       N       E                     dE             d eps       ncg     rms          rms(c)
DAV:   1    -0.615841332334E+03    0.11503E-03   -0.25327E+00  1428   0.369E+00    0.468E-01
RMM:   2    -0.615844593614E+03   -0.32613E-02   -0.58793E-02  1428   0.551E-01    0.265E-01
RMM:   3    -0.615843631693E+03    0.96192E-03   -0.28463E-03  1433   0.144E-01    0.137E-01
RMM:   4    -0.615843386768E+03    0.24492E-03   -0.11208E-03  1474   0.677E-02    0.301E-02
RMM:   5    -0.615843373640E+03    0.13128E-04   -0.82204E-05  1437   0.201E-02    0.130E-02
RMM:   6    -0.615843372293E+03    0.13467E-05   -0.12141E-05  1515   0.664E-03    0.676E-03
RMM:   7    -0.615843371365E+03    0.92866E-06   -0.44902E-06  1428   0.380E-03    0.280E-03
RMM:   8    -0.615843371000E+03    0.36474E-06   -0.14456E-06  1356   0.211E-03    0.154E-03
RMM:   9    -0.615843370741E+03    0.25841E-06   -0.64035E-07  1236   0.134E-03    0.634E-04
RMM:  10    -0.615843370706E+03    0.35270E-07   -0.25054E-07   975   0.830E-04
  47 F= -.62366823E+03 E0= -.62366823E+03  d E =-.264349E-02
 trial-energy change:   -0.002643  1 .order   -0.002664   -0.004686   -0.000641
 step:   0.6589(harm=  0.6557)  dis= 0.00614  next Energy=  -623.668279 (dE=-0.270E-02)
 bond charge predicted
       N       E                     dE             d eps       ncg     rms          rms(c)
DAV:   1    -0.615843244641E+03    0.12610E-03   -0.68359E-02  1512   0.607E-01    0.769E-02
RMM:   2    -0.615843332041E+03   -0.87400E-04   -0.15872E-03  1428   0.906E-02    0.435E-02
RMM:   3    -0.615843305534E+03    0.26506E-04   -0.76947E-05  1433   0.235E-02    0.225E-02
RMM:   4    -0.615843298819E+03    0.67150E-05   -0.30137E-05  1475   0.111E-02    0.495E-03
RMM:   5    -0.615843298545E+03    0.27403E-06   -0.22581E-06  1437   0.331E-03    0.211E-03
RMM:   6    -0.615843298541E+03    0.47075E-08   -0.26540E-07   957   0.109E-03
  48 F= -.62366827E+03 E0= -.62366827E+03  d E =-.269149E-02
 curvature:  -4.05 expect dE=-0.291E-01 dE for cont linesearch -0.933E-07
 trial: gam= 0.72778 g(F)=  0.643E-02 g(S)=  0.765E-03 ort =-0.486E-04 (trialstep = 0.585E+00)
 search vector abs. value=  0.614E-01
 bond charge predicted
       N       E                     dE             d eps       ncg     rms          rms(c)
DAV:   1    -0.615848527462E+03   -0.52289E-02   -0.15461E+00  1428   0.292E+00    0.398E-01
RMM:   2    -0.615850380165E+03   -0.18527E-02   -0.36445E-02  1428   0.445E-01    0.223E-01
RMM:   3    -0.615849748503E+03    0.63166E-03   -0.17044E-03  1429   0.108E-01    0.117E-01
RMM:   4    -0.615849573432E+03    0.17507E-03   -0.70656E-04  1466   0.537E-02    0.230E-02
RMM:   5    -0.615849565905E+03    0.75272E-05   -0.51372E-05  1438   0.159E-02    0.978E-03
RMM:   6    -0.615849565426E+03    0.47922E-06   -0.78265E-06  1537   0.539E-03    0.567E-03
RMM:   7    -0.615849564961E+03    0.46463E-06   -0.37922E-06  1425   0.337E-03    0.269E-03
RMM:   8    -0.615849564790E+03    0.17107E-06   -0.11441E-06  1341   0.190E-03    0.118E-03
RMM:   9    -0.615849564674E+03    0.11557E-06   -0.29333E-07   997   0.102E-03    0.535E-04
RMM:  10    -0.615849564663E+03    0.10972E-07   -0.11417E-07   885   0.703E-04
  49 F= -.62367083E+03 E0= -.62367083E+03  d E =-.255839E-02
 trial-energy change:   -0.002558  1 .order   -0.002561   -0.004188   -0.000935
 step:   0.7525(harm=  0.7525)  dis= 0.00561  next Energy=  -623.670970 (dE=-0.270E-02)
 bond charge predicted
       N       E                     dE             d eps       ncg     rms          rms(c)
DAV:   1    -0.615850676042E+03   -0.11114E-02   -0.12761E-01  1464   0.839E-01    0.114E-01
RMM:   2    -0.615850827410E+03   -0.15137E-03   -0.30093E-03  1428   0.128E-01    0.639E-02
RMM:   3    -0.615850773938E+03    0.53472E-04   -0.14046E-04  1429   0.311E-02    0.336E-02
RMM:   4    -0.615850758615E+03    0.15323E-04   -0.58247E-05  1464   0.154E-02    0.660E-03
RMM:   5    -0.615850758047E+03    0.56835E-06   -0.42685E-06  1439   0.459E-03    0.281E-03
RMM:   6    -0.615850758005E+03    0.42211E-07   -0.58125E-07  1209   0.155E-03
  50 F= -.62367096E+03 E0= -.62367096E+03  d E =-.268945E-02
 curvature:  -3.22 expect dE=-0.183E-01 dE for cont linesearch -0.226E-07
 trial: gam= 0.83470 g(F)=  0.540E-02 g(S)=  0.263E-03 ort =-0.207E-04 (trialstep = 0.618E+00)
 search vector abs. value=  0.484E-01
 bond charge predicted
       N       E                     dE             d eps       ncg     rms          rms(c)
DAV:   1    -0.615853933852E+03   -0.31758E-02   -0.13878E+00  1428   0.273E+00    0.372E-01
RMM:   2    -0.615855565415E+03   -0.16316E-02   -0.32375E-02  1428   0.417E-01    0.212E-01
RMM:   3    -0.615854956450E+03    0.60897E-03   -0.16405E-03  1430   0.105E-01    0.109E-01
RMM:   4    -0.615854810860E+03    0.14559E-03   -0.67629E-04  1467   0.524E-02    0.241E-02
RMM:   5    -0.615854801755E+03    0.91051E-05   -0.58999E-05  1433   0.165E-02    0.995E-03
RMM:   6    -0.615854801066E+03    0.68954E-06   -0.69684E-06  1519   0.534E-03    0.558E-03
RMM:   7    -0.615854800708E+03    0.35792E-06   -0.30879E-06  1418   0.307E-03    0.237E-03
RMM:   8    -0.615854800572E+03    0.13572E-06   -0.82990E-07  1297   0.164E-03    0.114E-03
RMM:   9    -0.615854800561E+03    0.11180E-07   -0.30808E-07  1018   0.105E-03
  51 F= -.62367312E+03 E0= -.62367312E+03  d E =-.215116E-02
 trial-energy change:   -0.002151  1 .order   -0.002147   -0.003491   -0.000803
 step:   0.8029(harm=  0.8029)  dis= 0.00505  next Energy=  -623.673231 (dE=-0.227E-02)
 bond charge predicted
       N       E                     dE             d eps       ncg     rms          rms(c)
DAV:   1    -0.615855405091E+03   -0.60452E-03   -0.12398E-01  1464   0.816E-01    0.111E-01
RMM:   2    -0.615855551467E+03   -0.14638E-03   -0.29016E-03  1428   0.125E-01    0.633E-02
RMM:   3    -0.615855496545E+03    0.54922E-04   -0.14647E-04  1430   0.314E-02    0.327E-02
RMM:   4    -0.615855483077E+03    0.13468E-04   -0.60739E-05  1467   0.157E-02    0.725E-03
RMM:   5    -0.615855482155E+03    0.92217E-06   -0.53731E-06  1433   0.497E-03    0.298E-03
RMM:   6    -0.615855482044E+03    0.11125E-06   -0.57392E-07  1220   0.160E-03    0.165E-03
RMM:   7    -0.615855482001E+03    0.42626E-07   -0.28876E-07   984   0.109E-03
  52 F= -.62367323E+03 E0= -.62367323E+03  d E =-.226983E-02
 curvature:  -3.44 expect dE=-0.204E-01 dE for cont linesearch -0.995E-08
 trial: gam= 1.05139 g(F)=  0.574E-02 g(S)=  0.198E-03 ort =-0.118E-04 (trialstep = 0.534E+00)
 search vector abs. value=  0.594E-01
 bond charge predicted
       N       E                     dE             d eps       ncg     rms          rms(c)
DAV:   1    -0.615857201609E+03   -0.17196E-02   -0.12473E+00  1428   0.259E+00    0.348E-01
RMM:   2    -0.615858563016E+03   -0.13614E-02   -0.28535E-02  1428   0.398E-01    0.199E-01
RMM:   3    -0.615858009329E+03    0.55369E-03   -0.14641E-03  1428   0.974E-02    0.987E-02
RMM:   4    -0.615857880747E+03    0.12858E-03   -0.52638E-04  1470   0.474E-02    0.208E-02
RMM:   5    -0.615857875670E+03    0.50771E-05   -0.40791E-05  1441   0.139E-02    0.891E-03
RMM:   6    -0.615857875270E+03    0.39926E-06   -0.47726E-06  1510   0.448E-03    0.485E-03
RMM:   7    -0.615857875130E+03    0.14063E-06   -0.21746E-06  1405   0.257E-03    0.182E-03
RMM:   8    -0.615857875041E+03    0.88319E-07   -0.54653E-07  1113   0.136E-03
  53 F= -.62367547E+03 E0= -.62367547E+03  d E =-.223419E-02
 trial-energy change:   -0.002234  1 .order   -0.002234   -0.003161   -0.001307
 step:   0.9096(harm=  0.9096)  dis= 0.00669  next Energy=  -623.675928 (dE=-0.269E-02)
 bond charge predicted
       N       E                     dE             d eps       ncg     rms          rms(c)
DAV:   1    -0.615858110212E+03   -0.23508E-03   -0.61927E-01  1428   0.183E+00    0.245E-01
RMM:   2    -0.615858783852E+03   -0.67364E-03   -0.14139E-02  1428   0.281E-01    0.140E-01
RMM:   3    -0.615858509761E+03    0.27409E-03   -0.72667E-04  1428   0.685E-02    0.695E-02
RMM:   4    -0.615858446072E+03    0.63689E-04   -0.25982E-04  1470   0.334E-02    0.146E-02
RMM:   5    -0.615858443507E+03    0.25647E-05   -0.19961E-05  1443   0.971E-03    0.628E-03
RMM:   6    -0.615858443267E+03    0.23984E-06   -0.23652E-06  1494   0.314E-03    0.340E-03
RMM:   7    -0.615858443189E+03    0.78129E-07   -0.10796E-06  1343   0.183E-03    0.127E-03
RMM:   8    -0.615858443144E+03    0.44776E-07   -0.26430E-07   992   0.974E-04
  54 F= -.62367593E+03 E0= -.62367593E+03  d E =-.269730E-02
 curvature:  -4.56 expect dE=-0.306E-01 dE for cont linesearch -0.570E-08
 trial: gam= 1.13196 g(F)=  0.660E-02 g(S)=  0.119E-03 ort =-0.862E-05 (trialstep = 0.437E+00)
 search vector abs. value=  0.828E-01
 bond charge predicted
       N       E                     dE             d eps       ncg     rms          rms(c)
DAV:   1    -0.615861006712E+03   -0.25635E-02   -0.11819E+00  1428   0.251E+00    0.331E-01
RMM:   2    -0.615862384565E+03   -0.13779E-02   -0.26420E-02  1428   0.377E-01    0.188E-01
RMM:   3    -0.615861868032E+03    0.51653E-03   -0.13046E-03  1428   0.933E-02    0.938E-02
RMM:   4    -0.615861752152E+03    0.11588E-03   -0.49200E-04  1468   0.448E-02    0.197E-02
RMM:   5    -0.615861747212E+03    0.49398E-05   -0.35658E-05  1439   0.132E-02    0.866E-03
RMM:   6    -0.615861746756E+03    0.45645E-06   -0.46324E-06  1494   0.430E-03    0.442E-03
RMM:   7    -0.615861746574E+03    0.18230E-06   -0.17070E-06  1409   0.236E-03    0.171E-03
RMM:   8    -0.615861746459E+03    0.11488E-06   -0.51208E-07  1129   0.131E-03    0.999E-04
RMM:   9    -0.615861746378E+03    0.80639E-07   -0.33462E-07  1036   0.993E-04
  55 F= -.62367792E+03 E0= -.62367792E+03  d E =-.199148E-02
 trial-energy change:   -0.001991  1 .order   -0.001991   -0.002928   -0.001054
 step:   0.6823(harm=  0.6823)  dis= 0.00590  next Energy=  -623.678218 (dE=-0.229E-02)
 bond charge predicted
       N       E                     dE             d eps       ncg     rms          rms(c)
DAV:   1    -0.615862535782E+03   -0.78932E-03   -0.37375E-01  1440   0.141E+00    0.187E-01
RMM:   2    -0.615862971589E+03   -0.43581E-03   -0.83599E-03  1428   0.212E-01    0.106E-01
RMM:   3    -0.615862808021E+03    0.16357E-03   -0.41245E-04  1428   0.525E-02    0.528E-02
RMM:   4    -0.615862771192E+03    0.36829E-04   -0.15603E-04  1468   0.252E-02    0.111E-02
RMM:   5    -0.615862769621E+03    0.15712E-05   -0.11349E-05  1438   0.743E-03    0.487E-03
RMM:   6    -0.615862769499E+03    0.12162E-06   -0.14665E-06  1478   0.242E-03    0.250E-03
RMM:   7    -0.615862769466E+03    0.32818E-07   -0.53803E-07  1126   0.136E-03
  56 F= -.62367821E+03 E0= -.62367821E+03  d E =-.228160E-02
 curvature:  -4.21 expect dE=-0.164E-01 dE for cont linesearch -0.988E-09
 trial: gam= 0.57885 g(F)=  0.365E-02 g(S)=  0.238E-03 ort =-0.441E-05 (trialstep = 0.486E+00)
 search vector abs. value=  0.316E-01
 bond charge predicted
       N       E                     dE             d eps       ncg     rms          rms(c)
DAV:   1    -0.615866131660E+03   -0.33622E-02   -0.58495E-01  1428   0.178E+00    0.233E-01
RMM:   2    -0.615866781327E+03   -0.64967E-03   -0.12912E-02  1428   0.267E-01    0.130E-01
RMM:   3    -0.615866540921E+03    0.24041E-03   -0.62840E-04  1428   0.654E-02    0.646E-02
RMM:   4    -0.615866482820E+03    0.58101E-04   -0.21588E-04  1474   0.299E-02    0.126E-02
RMM:   5    -0.615866480869E+03    0.19505E-05   -0.14804E-05  1445   0.859E-03    0.553E-03
RMM:   6    -0.615866480642E+03    0.22782E-06   -0.21099E-06  1489   0.279E-03    0.286E-03
RMM:   7    -0.615866480547E+03    0.94340E-07   -0.73945E-07  1286   0.156E-03
  57 F= -.62367951E+03 E0= -.62367951E+03  d E =-.129984E-02
 trial-energy change:   -0.001300  1 .order   -0.001293   -0.001887   -0.000699
 step:   0.7571(harm=  0.7718)  dis= 0.00397  next Energy=  -623.679709 (dE=-0.150E-02)
 bond charge predicted
       N       E                     dE             d eps       ncg     rms          rms(c)
DAV:   1    -0.615867925789E+03   -0.14451E-02   -0.18240E-01  1464   0.993E-01    0.130E-01
RMM:   2    -0.615868128454E+03   -0.20267E-03   -0.40315E-03  1428   0.149E-01    0.726E-02
RMM:   3    -0.615868052629E+03    0.75825E-04   -0.19643E-04  1428   0.366E-02    0.361E-02
RMM:   4    -0.615868034003E+03    0.18626E-04   -0.67707E-05  1476   0.167E-02    0.708E-03
RMM:   5    -0.615868033349E+03    0.65425E-06   -0.46949E-06  1443   0.481E-03    0.310E-03
RMM:   6    -0.615868033262E+03    0.86988E-07   -0.62819E-07  1260   0.157E-03
  58 F= -.62367972E+03 E0= -.62367972E+03  d E =-.150869E-02
 curvature:  -3.13 expect dE=-0.128E-01 dE for cont linesearch -0.534E-06
 trial: gam= 1.03182 g(F)=  0.407E-02 g(S)=  0.154E-04 ort = 0.734E-04 (trialstep = 0.451E+00)
 search vector abs. value=  0.379E-01
 bond charge predicted
       N       E                     dE             d eps       ncg     rms          rms(c)
DAV:   1    -0.615871329080E+03   -0.32957E-02   -0.60473E-01  1428   0.180E+00    0.240E-01
RMM:   2    -0.615872025895E+03   -0.69682E-03   -0.13390E-02  1428   0.269E-01    0.130E-01
RMM:   3    -0.615871790641E+03    0.23525E-03   -0.63547E-04  1428   0.662E-02    0.680E-02
RMM:   4    -0.615871730794E+03    0.59846E-04   -0.26092E-04  1472   0.319E-02    0.140E-02
RMM:   5    -0.615871727615E+03    0.31793E-05   -0.15854E-05  1443   0.911E-03    0.627E-03
RMM:   6    -0.615871726944E+03    0.67149E-06   -0.27449E-06  1470   0.312E-03    0.293E-03
RMM:   7    -0.615871726723E+03    0.22026E-06   -0.84320E-07  1310   0.168E-03    0.120E-03
RMM:   8    -0.615871726670E+03    0.52998E-07   -0.22284E-07   953   0.903E-04
  59 F= -.62368105E+03 E0= -.62368105E+03  d E =-.133018E-02
 trial-energy change:   -0.001330  1 .order   -0.001330   -0.001874   -0.000786
 step:   0.7766(harm=  0.7766)  dis= 0.00476  next Energy=  -623.681336 (dE=-0.161E-02)
 bond charge predicted
       N       E                     dE             d eps       ncg     rms          rms(c)
DAV:   1    -0.615873508813E+03   -0.17821E-02   -0.31618E-01  1440   0.130E+00    0.174E-01
RMM:   2    -0.615873872102E+03   -0.36329E-03   -0.69875E-03  1428   0.195E-01    0.941E-02
RMM:   3    -0.615873748640E+03    0.12346E-03   -0.33154E-04  1428   0.478E-02    0.491E-02
RMM:   4    -0.615873716849E+03    0.31791E-04   -0.13587E-04  1471   0.230E-02    0.101E-02
RMM:   5    -0.615873715073E+03    0.17762E-05   -0.83251E-06  1444   0.659E-03    0.453E-03
RMM:   6    -0.615873714652E+03    0.42029E-06   -0.14188E-06  1441   0.225E-03    0.211E-03
RMM:   7    -0.615873714512E+03    0.13995E-06   -0.41944E-07  1031   0.123E-03    0.861E-04
RMM:   8    -0.615873714487E+03    0.25793E-07   -0.12319E-07   882   0.788E-04
  60 F= -.62368133E+03 E0= -.62368133E+03  d E =-.161266E-02
 curvature:  -3.54 expect dE=-0.990E-02 dE for cont linesearch -0.515E-08
 trial: gam= 0.72568 g(F)=  0.257E-02 g(S)=  0.226E-03 ort =-0.743E-05 (trialstep = 0.516E+00)
 search vector abs. value=  0.227E-01
 bond charge predicted
       N       E                     dE             d eps       ncg     rms          rms(c)
DAV:   1    -0.615875011054E+03   -0.12965E-02   -0.41018E-01  1428   0.148E+00    0.198E-01
RMM:   2    -0.615875544924E+03   -0.53387E-03   -0.93134E-03  1428   0.221E-01    0.109E-01
RMM:   3    -0.615875392551E+03    0.15237E-03   -0.43424E-04  1428   0.548E-02    0.567E-02
RMM:   4    -0.615875355507E+03    0.37043E-04   -0.18842E-04  1468   0.277E-02    0.128E-02
RMM:   5    -0.615875352382E+03    0.31252E-05   -0.18979E-05  1433   0.902E-03    0.508E-03
RMM:   6    -0.615875352005E+03    0.37722E-06   -0.14210E-06  1458   0.272E-03    0.289E-03
RMM:   7    -0.615875351845E+03    0.15987E-06   -0.10723E-06  1313   0.168E-03    0.137E-03
RMM:   8    -0.615875351797E+03    0.48032E-07   -0.31621E-07   999   0.104E-03
  61 F= -.62368230E+03 E0= -.62368230E+03  d E =-.968614E-03
 trial-energy change:   -0.000969  1 .order   -0.000970   -0.001440   -0.000499
 step:   0.7895(harm=  0.7895)  dis= 0.00363  next Energy=  -623.682436 (dE=-0.110E-02)
 bond charge predicted
       N       E                     dE             d eps       ncg     rms          rms(c)
DAV:   1    -0.615875742177E+03   -0.39033E-03   -0.11543E-01  1464   0.787E-01    0.105E-01
RMM:   2    -0.615875892249E+03   -0.15007E-03   -0.26157E-03  1428   0.117E-01    0.576E-02
RMM:   3    -0.615875849489E+03    0.42760E-04   -0.12196E-04  1428   0.290E-02    0.300E-02
RMM:   4    -0.615875838921E+03    0.10567E-04   -0.52671E-05  1468   0.147E-02    0.676E-03
RMM:   5    -0.615875837949E+03    0.97271E-06   -0.52583E-06  1433   0.475E-03    0.269E-03
RMM:   6    -0.615875837805E+03    0.14385E-06   -0.34921E-07  1005   0.144E-03    0.152E-03
RMM:   7    -0.615875837738E+03    0.66524E-07   -0.34383E-07  1008   0.110E-03
  62 F= -.62368244E+03 E0= -.62368244E+03  d E =-.110109E-02
 curvature:  -3.22 expect dE=-0.121E-01 dE for cont linesearch -0.175E-08
 trial: gam= 1.32595 g(F)=  0.358E-02 g(S)=  0.178E-03 ort =-0.352E-05 (trialstep = 0.297E+00)
 search vector abs. value=  0.437E-01
 bond charge predicted
       N       E                     dE             d eps       ncg     rms          rms(c)
DAV:   1    -0.615876628378E+03   -0.79057E-03   -0.24969E-01  1428   0.116E+00    0.158E-01
RMM:   2    -0.615876910340E+03   -0.28196E-03   -0.57406E-03  1428   0.173E-01    0.866E-02
RMM:   3    -0.615876814104E+03    0.96235E-04   -0.27014E-04  1428   0.439E-02    0.463E-02
RMM:   4    -0.615876789121E+03    0.24983E-04   -0.12619E-04  1475   0.223E-02    0.107E-02
RMM:   5    -0.615876787519E+03    0.16026E-05   -0.11164E-05  1437   0.680E-03    0.412E-03
RMM:   6    -0.615876787462E+03    0.56865E-07   -0.93052E-07  1384   0.211E-03
  63 F= -.62368343E+03 E0= -.62368343E+03  d E =-.995481E-03
 ZBRENT: can't locate minimum, use default step
 trial-energy change:   -0.000995  1 .order   -0.000993   -0.001112   -0.000875
 step:   1.1870(harm=  1.3872)  dis= 0.00793  next Energy=  -623.684823 (dE=-0.239E-02)
 bond charge predicted
       N       E                     dE             d eps       ncg     rms          rms(c)
DAV:   1    -0.615876794598E+03   -0.70795E-05   -0.22475E+00  1428   0.349E+00    0.475E-01
RMM:   2    -0.615879316371E+03   -0.25218E-02   -0.51661E-02  1428   0.519E-01    0.260E-01
RMM:   3    -0.615878452313E+03    0.86406E-03   -0.24323E-03  1428   0.132E-01    0.139E-01
RMM:   4    -0.615878225800E+03    0.22651E-03   -0.11371E-03  1476   0.671E-02    0.319E-02
RMM:   5    -0.615878211437E+03    0.14362E-04   -0.98109E-05  1438   0.202E-02    0.125E-02
RMM:   6    -0.615878210674E+03    0.76322E-06   -0.86379E-06  1488   0.629E-03    0.703E-03
RMM:   7    -0.615878210491E+03    0.18364E-06   -0.59330E-06  1427   0.401E-03    0.316E-03
RMM:   8    -0.615878210273E+03    0.21793E-06   -0.15671E-06  1329   0.221E-03    0.143E-03
RMM:   9    -0.615878210163E+03    0.10957E-06   -0.36253E-07  1071   0.115E-03    0.499E-04
RMM:  10    -0.615878210151E+03    0.12376E-07   -0.12299E-07   894   0.721E-04
  64 F= -.62368500E+03 E0= -.62368500E+03  d E =-.256837E-02
 curvature:  -7.82 expect dE=-0.335E-01 dE for cont linesearch -0.638E-04
 trial: gam= 0.98561 g(F)=  0.421E-02 g(S)=  0.849E-04 ort = 0.598E-03 (trialstep = 0.433E+00)
 search vector abs. value=  0.480E-01
 bond charge predicted
       N       E                     dE             d eps       ncg     rms          rms(c)
DAV:   1    -0.615879375746E+03   -0.11656E-02   -0.63121E-01  1428   0.184E+00    0.237E-01
RMM:   2    -0.615880146408E+03   -0.77066E-03   -0.13928E-02  1428   0.271E-01    0.134E-01
RMM:   3    -0.615879913363E+03    0.23305E-03   -0.65735E-04  1428   0.689E-02    0.693E-02
RMM:   4    -0.615879861760E+03    0.51603E-04   -0.29113E-04  1479   0.334E-02    0.161E-02
RMM:   5    -0.615879858047E+03    0.37125E-05   -0.23631E-05  1433   0.103E-02    0.665E-03
RMM:   6    -0.615879857877E+03    0.17000E-06   -0.26362E-06  1470   0.337E-03    0.337E-03
RMM:   7    -0.615879857857E+03    0.20053E-07   -0.10551E-06  1341   0.185E-03    0.133E-03
RMM:   8    -0.615879857838E+03    0.19383E-07   -0.25246E-07   973   0.968E-04
  65 F= -.62368648E+03 E0= -.62368648E+03  d E =-.147866E-02
 trial-energy change:   -0.001479  1 .order   -0.001485   -0.002113   -0.000857
 step:   0.7453(harm=  0.7287)  dis= 0.00575  next Energy=  -623.686789 (dE=-0.179E-02)
 bond charge predicted
       N       E                     dE             d eps       ncg     rms          rms(c)
DAV:   1    -0.615880015753E+03   -0.15790E-03   -0.32829E-01  1428   0.132E+00    0.171E-01
RMM:   2    -0.615880415246E+03   -0.39949E-03   -0.72246E-03  1428   0.195E-01    0.968E-02
RMM:   3    -0.615880294291E+03    0.12096E-03   -0.34160E-04  1428   0.496E-02    0.499E-02
RMM:   4    -0.615880267553E+03    0.26739E-04   -0.15018E-04  1479   0.240E-02    0.115E-02
RMM:   5    -0.615880265717E+03    0.18353E-05   -0.12070E-05  1433   0.739E-03    0.478E-03
RMM:   6    -0.615880265659E+03    0.58582E-07   -0.13679E-06  1434   0.242E-03    0.242E-03
RMM:   7    -0.615880265662E+03   -0.38272E-08   -0.53387E-07  1145   0.134E-03
  66 F= -.62368677E+03 E0= -.62368677E+03  d E =-.176767E-02
 curvature:  -3.57 expect dE=-0.165E-01 dE for cont linesearch -0.889E-06
 trial: gam= 1.32387 g(F)=  0.459E-02 g(S)=  0.429E-04 ort =-0.109E-03 (trialstep = 0.269E+00)
 search vector abs. value=  0.884E-01
 bond charge predicted
       N       E                     dE             d eps       ncg     rms          rms(c)
DAV:   1    -0.615880826104E+03   -0.56045E-03   -0.41736E-01  1428   0.149E+00    0.193E-01
RMM:   2    -0.615881249057E+03   -0.42295E-03   -0.88263E-03  1428   0.220E-01    0.109E-01
RMM:   3    -0.615881091542E+03    0.15752E-03   -0.44317E-04  1428   0.551E-02    0.525E-02
RMM:   4    -0.615881058978E+03    0.32564E-04   -0.15064E-04  1479   0.251E-02    0.107E-02
RMM:   5    -0.615881057717E+03    0.12609E-05   -0.97795E-06  1447   0.708E-03    0.489E-03
RMM:   6    -0.615881057510E+03    0.20718E-06   -0.15405E-06  1437   0.236E-03    0.234E-03
RMM:   7    -0.615881057433E+03    0.76987E-07   -0.47062E-07  1099   0.126E-03
  67 F= -.62368774E+03 E0= -.62368774E+03  d E =-.973251E-03
 ZBRENT: can't locate minimum, use default step
 trial-energy change:   -0.000973  1 .order   -0.001056   -0.001205   -0.000908
 step:   1.0753(harm=  1.0880)  dis= 0.01118  next Energy=  -623.689211 (dE=-0.244E-02)
 bond charge predicted
       N       E                     dE             d eps       ncg     rms          rms(c)
DAV:   1    -0.615879791955E+03    0.12656E-02   -0.37557E+00  1428   0.448E+00    0.582E-01
RMM:   2    -0.615883576132E+03   -0.37842E-02   -0.79535E-02  1428   0.660E-01    0.326E-01
RMM:   3    -0.615882163307E+03    0.14128E-02   -0.39870E-03  1428   0.166E-01    0.158E-01
RMM:   4    -0.615881869836E+03    0.29347E-03   -0.13609E-03  1479   0.754E-02    0.322E-02
RMM:   5    -0.615881858707E+03    0.11129E-04   -0.86445E-05  1447   0.211E-02    0.148E-02
RMM:   6    -0.615881856807E+03    0.19002E-05   -0.14091E-05  1475   0.707E-03    0.697E-03
RMM:   7    -0.615881856163E+03    0.64458E-06   -0.42322E-06  1436   0.369E-03    0.265E-03
RMM:   8    -0.615881855905E+03    0.25798E-06   -0.10814E-06  1344   0.188E-03    0.137E-03
RMM:   9    -0.615881855792E+03    0.11230E-06   -0.48152E-07  1151   0.119E-03    0.578E-04
RMM:  10    -0.615881855772E+03    0.20253E-07   -0.14398E-07   904   0.704E-04
  68 F= -.62368911E+03 E0= -.62368911E+03  d E =-.233937E-02
 curvature: -10.72 expect dE=-0.931E-01 dE for cont linesearch -0.356E-06
 trial: gam= 1.46215 g(F)=  0.861E-02 g(S)=  0.775E-04 ort = 0.542E-04 (trialstep = 0.192E+00)
 search vector abs. value=  0.198E+00
 bond charge predicted
       N       E                     dE             d eps       ncg     rms          rms(c)
DAV:   1    -0.615882584921E+03   -0.72913E-03   -0.44957E-01  1440   0.156E+00    0.209E-01
RMM:   2    -0.615882987209E+03   -0.40229E-03   -0.95615E-03  1428   0.232E-01    0.116E-01
RMM:   3    -0.615882811679E+03    0.17553E-03   -0.51412E-04  1428   0.578E-02    0.541E-02
RMM:   4    -0.615882777701E+03    0.33978E-04   -0.14437E-04  1480   0.251E-02    0.107E-02
RMM:   5    -0.615882776639E+03    0.10616E-05   -0.95308E-06  1447   0.709E-03    0.479E-03
RMM:   6    -0.615882776490E+03    0.14975E-06   -0.15832E-06  1427   0.239E-03    0.227E-03
RMM:   7    -0.615882776430E+03    0.60194E-07   -0.34389E-07  1028   0.120E-03
  69 F= -.62369058E+03 E0= -.62369058E+03  d E =-.146758E-02
 ZBRENT: can't locate minimum, use default step
 trial-energy change:   -0.001468  1 .order   -0.001479   -0.001685   -0.001274
 step:   0.7688(harm=  0.7871)  dis= 0.01248  next Energy=  -623.692561 (dE=-0.345E-02)
 bond charge predicted
       N       E                     dE             d eps       ncg     rms          rms(c)
DAV:   1    -0.615881378696E+03    0.13978E-02   -0.40461E+00  1428   0.467E+00    0.629E-01
RMM:   2    -0.615884968127E+03   -0.35894E-02   -0.86131E-02  1428   0.693E-01    0.349E-01
RMM:   3    -0.615883391278E+03    0.15768E-02   -0.46283E-03  1428   0.174E-01    0.162E-01
RMM:   4    -0.615883085225E+03    0.30605E-03   -0.13064E-03  1482   0.756E-02    0.322E-02
RMM:   5    -0.615883076453E+03    0.87718E-05   -0.84190E-05  1447   0.211E-02    0.145E-02
RMM:   6    -0.615883075447E+03    0.10060E-05   -0.14458E-05  1474   0.713E-03    0.680E-03
RMM:   7    -0.615883075120E+03    0.32717E-06   -0.32410E-06  1439   0.353E-03    0.260E-03
RMM:   8    -0.615883074982E+03    0.13812E-06   -0.82343E-07  1318   0.170E-03    0.116E-03
RMM:   9    -0.615883074957E+03    0.25222E-07   -0.27684E-07   993   0.989E-04
  70 F= -.62369255E+03 E0= -.62369255E+03  d E =-.343469E-02
 curvature:  -8.87 expect dE=-0.708E-01 dE for cont linesearch -0.340E-05
 trial: gam= 0.93384 g(F)=  0.784E-02 g(S)=  0.145E-03 ort = 0.275E-03 (trialstep = 0.308E+00)
 search vector abs. value=  0.181E+00
 bond charge predicted
       N       E                     dE             d eps       ncg     rms          rms(c)
DAV:   1    -0.615883683979E+03   -0.60900E-03   -0.11475E+00  1428   0.248E+00    0.319E-01
RMM:   2    -0.615884751931E+03   -0.10680E-02   -0.23925E-02  1428   0.364E-01    0.178E-01
RMM:   3    -0.615884343062E+03    0.40887E-03   -0.12540E-03  1428   0.924E-02    0.847E-02
RMM:   4    -0.615884263440E+03    0.79622E-04   -0.38097E-04  1490   0.403E-02    0.170E-02
RMM:   5    -0.615884261005E+03    0.24348E-05   -0.22157E-05  1450   0.110E-02    0.787E-03
RMM:   6    -0.615884260676E+03    0.32866E-06   -0.43196E-06  1455   0.375E-03    0.339E-03
RMM:   7    -0.615884260624E+03    0.51838E-07   -0.79686E-07  1316   0.182E-03
  71 F= -.62369457E+03 E0= -.62369457E+03  d E =-.202965E-02
 trial-energy change:   -0.002030  1 .order   -0.002044   -0.002534   -0.001554
 step:   0.9910(harm=  0.7954)  dis= 0.01500  next Energy=  -623.696143 (dE=-0.360E-02)
 bond charge predicted
       N       E                     dE             d eps       ncg     rms          rms(c)
DAV:   1    -0.615880598252E+03    0.36624E-02   -0.56687E+00  1428   0.551E+00    0.711E-01
RMM:   2    -0.615885836609E+03   -0.52384E-02   -0.11857E-01  1428   0.808E-01    0.396E-01
RMM:   3    -0.615883819356E+03    0.20173E-02   -0.62128E-03  1428   0.207E-01    0.189E-01
RMM:   4    -0.615883422630E+03    0.39673E-03   -0.19021E-03  1490   0.903E-02    0.381E-02
RMM:   5    -0.615883410356E+03    0.12274E-04   -0.10907E-04  1450   0.246E-02    0.177E-02
RMM:   6    -0.615883408536E+03    0.18194E-05   -0.21752E-05  1455   0.839E-03    0.750E-03
RMM:   7    -0.615883408268E+03    0.26857E-06   -0.39254E-06  1439   0.400E-03    0.293E-03
RMM:   8    -0.615883408154E+03    0.11352E-06   -0.99384E-07  1359   0.186E-03    0.122E-03
RMM:   9    -0.615883408113E+03    0.40989E-07   -0.27766E-07   990   0.102E-03
  72 F= -.62369564E+03 E0= -.62369564E+03  d E =-.309167E-02
 curvature:  -7.33 expect dE=-0.966E-01 dE for cont linesearch -0.145E-03
 ZBRENT: interpolating
 opt :   0.8047  next Energy=  -623.695813 (dE=-0.327E-02)
 bond charge predicted
       N       E                     dE             d eps       ncg     rms          rms(c)
DAV:   1    -0.615883900444E+03   -0.49229E-03   -0.42123E-01  1440   0.150E+00    0.193E-01
RMM:   2    -0.615884294436E+03   -0.39399E-03   -0.87812E-03  1428   0.222E-01    0.108E-01
RMM:   3    -0.615884143070E+03    0.15137E-03   -0.46345E-04  1428   0.558E-02    0.513E-02
RMM:   4    -0.615884113324E+03    0.29746E-04   -0.13833E-04  1490   0.243E-02    0.104E-02
RMM:   5    -0.615884112249E+03    0.10748E-05   -0.82841E-06  1449   0.670E-03    0.470E-03
RMM:   6    -0.615884112093E+03    0.15642E-06   -0.15211E-06  1396   0.226E-03    0.207E-03
RMM:   7    -0.615884112066E+03    0.26561E-07   -0.27455E-07   963   0.113E-03
  73 F= -.62369581E+03 E0= -.62369581E+03  d E =-.326929E-02
 curvature:  -8.90 expect dE=-0.734E-01 dE for cont linesearch -0.659E-10
 trial: gam= 1.08433 g(F)=  0.780E-02 g(S)=  0.448E-03 ort =-0.116E-05 (trialstep = 0.333E+00)
 search vector abs. value=  0.221E+00
 bond charge predicted
       N       E                     dE             d eps       ncg     rms          rms(c)
DAV:   1    -0.615884556311E+03   -0.44422E-03   -0.15760E+00  1428   0.291E+00    0.390E-01
RMM:   2    -0.615885716280E+03   -0.11600E-02   -0.33300E-02  1428   0.430E-01    0.215E-01
RMM:   3    -0.615885107330E+03    0.60895E-03   -0.18476E-03  1428   0.111E-01    0.102E-01
RMM:   4    -0.615884990843E+03    0.11649E-03   -0.55365E-04  1485   0.483E-02    0.223E-02
RMM:   5    -0.615884987672E+03    0.31717E-05   -0.33617E-05  1458   0.135E-02    0.103E-02
RMM:   6    -0.615884987328E+03    0.34389E-06   -0.69180E-06  1441   0.474E-03    0.414E-03
RMM:   7    -0.615884987323E+03    0.45038E-08   -0.12160E-06  1423   0.225E-03    0.165E-03
RMM:   8    -0.615884987288E+03    0.34957E-07   -0.24369E-07   939   0.994E-04
  74 F= -.62369812E+03 E0= -.62369812E+03  d E =-.230498E-02
 trial-energy change:   -0.002305  1 .order   -0.002310   -0.002747   -0.001873
 step:   1.1492(harm=  1.0473)  dis= 0.01817  next Energy=  -623.700336 (dE=-0.452E-02)
 bond charge predicted
       N       E                     dE             d eps       ncg     rms          rms(c)
DAV:   1    -0.615880870755E+03    0.41166E-02   -0.94513E+00  1428   0.712E+00    0.959E-01
RMM:   2    -0.615887763557E+03   -0.68928E-02   -0.20098E-01  1428   0.105E+00    0.527E-01
RMM:   3    -0.615884118527E+03    0.36450E-02   -0.11100E-02  1428   0.274E-01    0.251E-01
RMM:   4    -0.615883405308E+03    0.71322E-03   -0.33938E-03  1484   0.120E-01    0.553E-02
RMM:   5    -0.615883384240E+03    0.21068E-04   -0.20232E-04  1459   0.332E-02    0.259E-02
RMM:   6    -0.615883380966E+03    0.32742E-05   -0.43225E-05  1443   0.118E-02    0.101E-02
RMM:   7    -0.615883380736E+03    0.22991E-06   -0.72396E-06  1483   0.543E-03    0.405E-03
RMM:   8    -0.615883380536E+03    0.19961E-06   -0.16363E-06  1419   0.235E-03    0.161E-03
RMM:   9    -0.615883380434E+03    0.10200E-06   -0.41533E-07  1103   0.121E-03    0.660E-04
RMM:  10    -0.615883380410E+03    0.24469E-07   -0.17225E-07   904   0.804E-04
  75 F= -.62370008E+03 E0= -.62370008E+03  d E =-.426923E-02
 curvature: -13.75 expect dE=-0.225E+00 dE for cont linesearch -0.309E-04
 trial: gam= 2.02030 g(F)=  0.162E-01 g(S)=  0.161E-03 ort =-0.705E-03 (trialstep = 0.120E+00)
 search vector abs. value=  0.916E+00
 bond charge predicted
       N       E                     dE             d eps       ncg     rms          rms(c)
DAV:   1    -0.615883596618E+03   -0.21618E-03   -0.78604E-01  1428   0.206E+00    0.289E-01
RMM:   2    -0.615884051915E+03   -0.45530E-03   -0.16871E-02  1428   0.309E-01    0.157E-01
RMM:   3    -0.615883732261E+03    0.31965E-03   -0.99741E-04  1428   0.801E-02    0.729E-02
RMM:   4    -0.615883671431E+03    0.60830E-04   -0.26106E-04  1484   0.336E-02    0.161E-02
RMM:   5    -0.615883669880E+03    0.15509E-05   -0.17412E-05  1454   0.976E-03    0.712E-03
RMM:   6    -0.615883669718E+03    0.16202E-06   -0.31292E-06  1452   0.323E-03    0.306E-03
RMM:   7    -0.615883669676E+03    0.42215E-07   -0.61586E-07  1222   0.158E-03
  76 F= -.62370173E+03 E0= -.62370173E+03  d E =-.164304E-02
 ZBRENT: can't locate minimum, use default step
 trial-energy change:   -0.001643  1 .order   -0.001655   -0.001788   -0.001521
 step:   0.4793(harm=  0.8019)  dis= 0.01597  next Energy=  -623.706067 (dE=-0.598E-02)
 bond charge predicted
       N       E                     dE             d eps       ncg     rms          rms(c)
DAV:   1    -0.615882290793E+03    0.13789E-02   -0.70736E+00  1428   0.618E+00    0.871E-01
RMM:   2    -0.615886335065E+03   -0.40443E-02   -0.15269E-01  1428   0.925E-01    0.472E-01
RMM:   3    -0.615883469028E+03    0.28660E-02   -0.89824E-03  1428   0.242E-01    0.220E-01
RMM:   4    -0.615882911832E+03    0.55720E-03   -0.23940E-03  1484   0.102E-01    0.486E-02
RMM:   5    -0.615882896022E+03    0.15810E-04   -0.15617E-04  1455   0.293E-02    0.218E-02
RMM:   6    -0.615882893608E+03    0.24142E-05   -0.28784E-05  1449   0.976E-03    0.910E-03
RMM:   7    -0.615882893055E+03    0.55259E-06   -0.55881E-06  1447   0.465E-03    0.344E-03
RMM:   8    -0.615882892758E+03    0.29710E-06   -0.13978E-06  1405   0.218E-03    0.146E-03
RMM:   9    -0.615882892624E+03    0.13340E-06   -0.50769E-07  1170   0.129E-03    0.640E-04
RMM:  10    -0.615882892599E+03    0.25899E-07   -0.17729E-07   912   0.793E-04
  77 F= -.62370507E+03 E0= -.62370507E+03  d E =-.498266E-02
 curvature: -19.10 expect dE=-0.207E+00 dE for cont linesearch -0.776E-03
 ZBRENT: increasing intervall
 opt :   1.1983  next Energy=  -623.704710 (dE=-0.463E-02)
 bond charge predicted
       N       E                     dE             d eps       ncg     rms          rms(c)
DAV:   1    -0.615871902481E+03    0.10990E-01   -0.28289E+01  1428   0.124E+01    0.176E+00
RMM:   2    -0.615887764615E+03   -0.15862E-01   -0.61817E-01  1428   0.185E+00    0.944E-01
RMM:   3    -0.615876363533E+03    0.11401E-01   -0.36017E-02  1428   0.491E-01    0.445E-01
RMM:   4    -0.615874064473E+03    0.22991E-02   -0.99402E-03  1483   0.209E-01    0.991E-02
RMM:   5    -0.615874000400E+03    0.64073E-04   -0.62429E-04  1456   0.588E-02    0.454E-02
RMM:   6    -0.615873989215E+03    0.11185E-04   -0.12116E-04  1448   0.200E-02    0.181E-02
RMM:   7    -0.615873986945E+03    0.22693E-05   -0.21499E-05  1454   0.917E-03    0.689E-03
RMM:   8    -0.615873985736E+03    0.12095E-05   -0.53793E-06  1428   0.427E-03    0.284E-03
RMM:   9    -0.615873985169E+03    0.56672E-06   -0.20273E-06  1359   0.254E-03    0.127E-03
RMM:  10    -0.615873985004E+03    0.16532E-06   -0.71262E-07  1215   0.132E-03    0.838E-04
RMM:  11    -0.615873984993E+03    0.10521E-07   -0.28574E-07   986   0.912E-04
  78 F= -.62370464E+03 E0= -.62370464E+03  d E =-.455806E-02
 curvature:   8.77 expect dE= 0.346E+00 dE for cont linesearch  0.479E-03
 ZBRENT: bracketing found
 ZBRENT: interpolating
 opt :   0.8123  next Energy=  -623.706082 (dE=-0.600E-02)
 bond charge predicted
       N       E                     dE             d eps       ncg     rms          rms(c)
DAV:   1    -0.615879266264E+03   -0.52813E-02   -0.81667E+00  1428   0.667E+00    0.933E-01
RMM:   2    -0.615884043350E+03   -0.47771E-02   -0.17481E-01  1428   0.101E+00    0.509E-01
RMM:   3    -0.615880648340E+03    0.33950E-02   -0.10520E-02  1428   0.256E-01    0.235E-01
RMM:   4    -0.615879997608E+03    0.65073E-03   -0.26436E-03  1484   0.106E-01    0.523E-02
RMM:   5    -0.615879974844E+03    0.22764E-04   -0.18504E-04  1453   0.316E-02    0.225E-02
RMM:   6    -0.615879971242E+03    0.36023E-05   -0.31723E-05  1451   0.106E-02    0.101E-02
RMM:   7    -0.615879970198E+03    0.10440E-05   -0.72390E-06  1439   0.536E-03    0.374E-03
RMM:   8    -0.615879969788E+03    0.41030E-06   -0.17240E-06  1414   0.244E-03    0.164E-03
RMM:   9    -0.615879969554E+03    0.23352E-06   -0.57932E-07  1206   0.131E-03    0.684E-04
RMM:  10    -0.615879969404E+03    0.14986E-06   -0.21479E-07   957   0.771E-04    0.507E-04
RMM:  11    -0.615879969358E+03    0.46599E-07   -0.98944E-08   882   0.600E-04
  79 F= -.62370604E+03 E0= -.62370604E+03  d E =-.595790E-02
 curvature: -18.60 expect dE=-0.347E+00 dE for cont linesearch -0.211E-07
 trial: gam= 0.93488 g(F)=  0.185E-01 g(S)=  0.187E-03 ort =-0.322E-04 (trialstep = 0.258E+00)
 search vector abs. value=  0.819E+00
 bond charge predicted
       N       E                     dE             d eps       ncg     rms          rms(c)
DAV:   1    -0.615880494280E+03   -0.52488E-03   -0.33167E+00  1428   0.424E+00    0.591E-01
RMM:   2    -0.615882485929E+03   -0.19916E-02   -0.71053E-02  1428   0.640E-01    0.318E-01
RMM:   3    -0.615881195998E+03    0.12899E-02   -0.42856E-03  1428   0.165E-01    0.146E-01
RMM:   4    -0.615880953864E+03    0.24213E-03   -0.10646E-03  1492   0.682E-02    0.320E-02
RMM:   5    -0.615880946108E+03    0.77563E-05   -0.74043E-05  1452   0.200E-02    0.136E-02
RMM:   6    -0.615880944733E+03    0.13751E-05   -0.12548E-05  1457   0.647E-03    0.609E-03
RMM:   7    -0.615880944289E+03    0.44311E-06   -0.26796E-06  1441   0.317E-03    0.236E-03
RMM:   8    -0.615880944124E+03    0.16507E-06   -0.69864E-07  1261   0.157E-03    0.102E-03
RMM:   9    -0.615880944072E+03    0.52256E-07   -0.22507E-07   940   0.897E-04
  80 F= -.62371007E+03 E0= -.62371007E+03  d E =-.403006E-02
 trial-energy change:   -0.004030  1 .order   -0.004060   -0.004807   -0.003313
 step:   0.8314(harm=  0.8314)  dis= 0.02719  next Energy=  -623.713777 (dE=-0.774E-02)
 bond charge predicted
       N       E                     dE             d eps       ncg     rms          rms(c)
DAV:   1    -0.615875543402E+03    0.54007E-02   -0.16322E+01  1428   0.939E+00    0.132E+00
RMM:   2    -0.615885159446E+03   -0.96160E-02   -0.35239E-01  1428   0.142E+00    0.706E-01
RMM:   3    -0.615878835538E+03    0.63239E-02   -0.21082E-02  1428   0.370E-01    0.327E-01
RMM:   4    -0.615877615640E+03    0.12199E-02   -0.53799E-03  1492   0.154E-01    0.717E-02
RMM:   5    -0.615877577601E+03    0.38039E-04   -0.36184E-04  1452   0.443E-02    0.311E-02
RMM:   6    -0.615877570089E+03    0.75120E-05   -0.64100E-05  1456   0.145E-02    0.134E-02
RMM:   7    -0.615877567910E+03    0.21788E-05   -0.12762E-05  1445   0.694E-03    0.524E-03
RMM:   8    -0.615877567004E+03    0.90550E-06   -0.34945E-06  1428   0.345E-03    0.224E-03
RMM:   9    -0.615877566651E+03    0.35333E-06   -0.13224E-06  1354   0.205E-03    0.105E-03
RMM:  10    -0.615877566534E+03    0.11703E-06   -0.46372E-07  1117   0.109E-03    0.688E-04
RMM:  11    -0.615877566535E+03   -0.13315E-08   -0.17416E-07   911   0.788E-04
  81 F= -.62371361E+03 E0= -.62371361E+03  d E =-.757056E-02
 curvature: -18.30 expect dE=-0.324E+00 dE for cont linesearch -0.124E-05
 trial: gam= 1.02944 g(F)=  0.176E-01 g(S)=  0.973E-04 ort =-0.236E-03 (trialstep = 0.345E+00)
 search vector abs. value=  0.885E+00
 bond charge predicted
       N       E                     dE             d eps       ncg     rms          rms(c)
DAV:   1    -0.615877434465E+03    0.13207E-03   -0.64581E+00  1428   0.589E+00    0.810E-01
RMM:   2    -0.615881129566E+03   -0.36951E-02   -0.13530E-01  1428   0.878E-01    0.440E-01
RMM:   3    -0.615878598480E+03    0.25311E-02   -0.81935E-03  1428   0.229E-01    0.202E-01
RMM:   4    -0.615878146237E+03    0.45224E-03   -0.20683E-03  1491   0.947E-02    0.462E-02
RMM:   5    -0.615878130794E+03    0.15443E-04   -0.13799E-04  1452   0.278E-02    0.203E-02
RMM:   6    -0.615878127710E+03    0.30842E-05   -0.28489E-05  1446   0.936E-03    0.805E-03
RMM:   7    -0.615878127039E+03    0.67105E-06   -0.47117E-06  1462   0.423E-03    0.324E-03
RMM:   8    -0.615878126737E+03    0.30110E-06   -0.13089E-06  1378   0.209E-03    0.129E-03
RMM:   9    -0.615878126640E+03    0.97618E-07   -0.40648E-07  1077   0.114E-03
  82 F= -.62371836E+03 E0= -.62371836E+03  d E =-.474890E-02
 trial-energy change:   -0.004749  1 .order   -0.004803   -0.006025   -0.003582
 step:   0.8509(harm=  0.8509)  dis= 0.02769  next Energy=  -623.721041 (dE=-0.743E-02)
 bond charge predicted
       N       E                     dE             d eps       ncg     rms          rms(c)
DAV:   1    -0.615873044430E+03    0.50823E-02   -0.13878E+01  1428   0.864E+00    0.119E+00
RMM:   2    -0.615880851647E+03   -0.78072E-02   -0.29234E-01  1428   0.129E+00    0.645E-01
RMM:   3    -0.615875415504E+03    0.54361E-02   -0.17644E-02  1428   0.338E-01    0.298E-01
RMM:   4    -0.615874425902E+03    0.98960E-03   -0.45161E-03  1490   0.140E-01    0.684E-02
RMM:   5    -0.615874392581E+03    0.33321E-04   -0.29818E-04  1454   0.409E-02    0.303E-02
RMM:   6    -0.615874385354E+03    0.72267E-05   -0.62528E-05  1444   0.139E-02    0.118E-02
RMM:   7    -0.615874383858E+03    0.14956E-05   -0.10115E-05  1486   0.619E-03    0.479E-03
RMM:   8    -0.615874383158E+03    0.70017E-06   -0.28767E-06  1428   0.305E-03    0.190E-03
RMM:   9    -0.615874382918E+03    0.24023E-06   -0.94614E-07  1306   0.166E-03    0.916E-04
RMM:  10    -0.615874382844E+03    0.73855E-07   -0.36520E-07  1063   0.983E-04
  83 F= -.62372090E+03 E0= -.62372090E+03  d E =-.728624E-02
 curvature: -21.57 expect dE=-0.428E+00 dE for cont linesearch -0.167E-06
 trial: gam= 1.09665 g(F)=  0.197E-01 g(S)=  0.116E-03 ort =-0.828E-04 (trialstep = 0.364E+00)
 search vector abs. value=  0.108E+01
 bond charge predicted
       N       E                     dE             d eps       ncg     rms          rms(c)
DAV:   1    -0.615873896634E+03    0.48628E-03   -0.86716E+00  1428   0.686E+00    0.976E-01
RMM:   2    -0.615877922373E+03   -0.40257E-02   -0.18682E-01  1428   0.103E+00    0.516E-01
RMM:   3    -0.615874407024E+03    0.35153E-02   -0.11417E-02  1428   0.273E-01    0.240E-01
RMM:   4    -0.615873752117E+03    0.65491E-03   -0.29079E-03  1491   0.112E-01    0.582E-02
RMM:   5    -0.615873729116E+03    0.23001E-04   -0.18403E-04  1443   0.324E-02    0.257E-02
RMM:   6    -0.615873724305E+03    0.48116E-05   -0.43505E-05  1440   0.116E-02    0.915E-03
RMM:   7    -0.615873723152E+03    0.11530E-05   -0.62667E-06  1483   0.506E-03    0.373E-03
RMM:   8    -0.615873722589E+03    0.56270E-06   -0.17421E-06  1405   0.234E-03    0.152E-03
RMM:   9    -0.615873722378E+03    0.21066E-06   -0.60563E-07  1194   0.132E-03    0.738E-04
RMM:  10    -0.615873722319E+03    0.59317E-07   -0.27255E-07   984   0.878E-04
  84 F= -.62372629E+03 E0= -.62372629E+03  d E =-.539218E-02
 trial-energy change:   -0.005392  1 .order   -0.005443   -0.007199   -0.003687
 step:   0.8430(harm=  0.7468)  dis= 0.02996  next Energy=  -623.728598 (dE=-0.770E-02)
 bond charge predicted
       N       E                     dE             d eps       ncg     rms          rms(c)
DAV:   1    -0.615867828133E+03    0.58942E-02   -0.14969E+01  1428   0.901E+00    0.129E+00
RMM:   2    -0.615874617835E+03   -0.67897E-02   -0.32418E-01  1428   0.135E+00    0.678E-01
RMM:   3    -0.615868553653E+03    0.60642E-02   -0.19784E-02  1428   0.361E-01    0.316E-01
RMM:   4    -0.615867408607E+03    0.11450E-02   -0.50856E-03  1493   0.148E-01    0.770E-02
RMM:   5    -0.615867368170E+03    0.40438E-04   -0.31614E-04  1439   0.424E-02    0.342E-02
RMM:   6    -0.615867359261E+03    0.89091E-05   -0.76967E-05  1440   0.154E-02    0.120E-02
RMM:   7    -0.615867357186E+03    0.20746E-05   -0.10836E-05  1502   0.665E-03    0.494E-03
RMM:   8    -0.615867356176E+03    0.10103E-05   -0.30300E-06  1429   0.304E-03    0.200E-03
RMM:   9    -0.615867355787E+03    0.38890E-06   -0.10710E-06  1339   0.172E-03    0.979E-04
RMM:  10    -0.615867355672E+03    0.11516E-06   -0.46912E-07  1124   0.102E-03    0.556E-04
RMM:  11    -0.615867355668E+03    0.33615E-08   -0.15783E-07   903   0.694E-04
  85 F= -.62372805E+03 E0= -.62372805E+03  d E =-.714666E-02
 curvature: -19.19 expect dE=-0.434E+00 dE for cont linesearch -0.111E-03
 trial: gam= 1.27486 g(F)=  0.214E-01 g(S)=  0.122E-02 ort =-0.250E-02 (trialstep = 0.280E+00)
 search vector abs. value=  0.178E+01
 bond charge predicted
       N       E                     dE             d eps       ncg     rms          rms(c)
DAV:   1    -0.615866069909E+03    0.12858E-02   -0.82032E+00  1428   0.675E+00    0.100E+00
RMM:   2    -0.615867328398E+03   -0.12585E-02   -0.18174E-01  1428   0.104E+00    0.512E-01
RMM:   3    -0.615863967813E+03    0.33606E-02   -0.11945E-02  1428   0.272E-01    0.237E-01
RMM:   4    -0.615863300099E+03    0.66771E-03   -0.26463E-03  1493   0.107E-01    0.582E-02
RMM:   5    -0.615863282031E+03    0.18067E-04   -0.18103E-04  1449   0.319E-02    0.255E-02
RMM:   6    -0.615863278198E+03    0.38331E-05   -0.38523E-05  1445   0.110E-02    0.928E-03
RMM:   7    -0.615863277410E+03    0.78831E-06   -0.60406E-06  1478   0.488E-03    0.336E-03
RMM:   8    -0.615863277008E+03    0.40177E-06   -0.13924E-06  1364   0.215E-03    0.137E-03
RMM:   9    -0.615863276845E+03    0.16278E-06   -0.49727E-07  1143   0.119E-03    0.639E-04
RMM:  10    -0.615863276813E+03    0.32473E-07   -0.19847E-07   924   0.767E-04
  86 F= -.62373263E+03 E0= -.62373263E+03  d E =-.458770E-02
 trial-energy change:   -0.004588  1 .order   -0.004642   -0.005447   -0.003838
 step:   0.9494(harm=  0.9494)  dis= 0.04365  next Energy=  -623.737264 (dE=-0.922E-02)
 bond charge predicted
       N       E                     dE             d eps       ncg     rms          rms(c)
DAV:   1    -0.615863454281E+03   -0.17744E-03   -0.46658E+01  1428   0.161E+01    0.242E+00
RMM:   2    -0.615869627809E+03   -0.61735E-02   -0.10565E+00  1428   0.248E+00    0.122E+00
RMM:   3    -0.615850740073E+03    0.18888E-01   -0.67878E-02  1428   0.661E-01    0.576E-01
RMM:   4    -0.615846774021E+03    0.39661E-02   -0.16101E-02  1493   0.267E-01    0.141E-01
RMM:   5    -0.615846669931E+03    0.10409E-03   -0.10329E-03  1450   0.756E-02    0.639E-02
RMM:   6    -0.615846643005E+03    0.26926E-04   -0.24061E-04  1444   0.276E-02    0.218E-02
RMM:   7    -0.615846638212E+03    0.47923E-05   -0.33212E-05  1493   0.117E-02    0.826E-03
RMM:   8    -0.615846635737E+03    0.24749E-05   -0.84175E-06  1429   0.516E-03    0.328E-03
RMM:   9    -0.615846634713E+03    0.10241E-05   -0.27459E-06  1398   0.276E-03    0.159E-03
RMM:  10    -0.615846634370E+03    0.34381E-06   -0.11703E-06  1319   0.157E-03    0.900E-04
RMM:  11    -0.615846634304E+03    0.65676E-07   -0.47843E-07  1138   0.105E-03
  87 F= -.62373715E+03 E0= -.62373715E+03  d E =-.910984E-02
 curvature: -43.47 expect dE=-0.148E+01 dE for cont linesearch -0.714E-07
 trial: gam= 1.16677 g(F)=  0.335E-01 g(S)=  0.672E-03 ort = 0.540E-04 (trialstep = 0.300E+00)
 search vector abs. value=  0.246E+01
 bond charge predicted
       N       E                     dE             d eps       ncg     rms          rms(c)
DAV:   1    -0.615848297028E+03   -0.16627E-02   -0.12997E+01  1428   0.855E+00    0.131E+00
RMM:   2    -0.615848275148E+03    0.21879E-04   -0.29485E-01  1428   0.134E+00    0.656E-01
RMM:   3    -0.615842832736E+03    0.54424E-02   -0.20356E-02  1428   0.350E-01    0.302E-01
RMM:   4    -0.615841736269E+03    0.10965E-02   -0.41234E-03  1495   0.135E-01    0.762E-02
RMM:   5    -0.615841701297E+03    0.34972E-04   -0.30599E-04  1447   0.418E-02    0.321E-02
RMM:   6    -0.615841694343E+03    0.69548E-05   -0.61551E-05  1439   0.141E-02    0.122E-02
RMM:   7    -0.615841693149E+03    0.11940E-05   -0.10504E-05  1467   0.633E-03    0.426E-03
RMM:   8    -0.615841692661E+03    0.48783E-06   -0.21718E-06  1413   0.285E-03    0.178E-03
RMM:   9    -0.615841692451E+03    0.20967E-06   -0.78958E-07  1293   0.146E-03    0.792E-04
RMM:  10    -0.615841692419E+03    0.32447E-07   -0.23280E-07   959   0.782E-04
  88 F= -.62374500E+03 E0= -.62374500E+03  d E =-.784884E-02
 trial-energy change:   -0.007849  1 .order   -0.007921   -0.010269   -0.005572
 step:   0.7648(harm=  0.6561)  dis= 0.04125  next Energy=  -623.749052 (dE=-0.119E-01)
 bond charge predicted
       N       E                     dE             d eps       ncg     rms          rms(c)
DAV:   1    -0.615840894112E+03    0.79834E-03   -0.31194E+01  1428   0.132E+01    0.204E+00
RMM:   2    -0.615840150150E+03    0.74396E-03   -0.71580E-01  1428   0.208E+00    0.102E+00
RMM:   3    -0.615827115495E+03    0.13035E-01   -0.48994E-02  1428   0.548E-01    0.471E-01
RMM:   4    -0.615824423120E+03    0.26924E-02   -0.10204E-02  1495   0.213E-01    0.119E-01
RMM:   5    -0.615824339388E+03    0.83732E-04   -0.73406E-04  1445   0.647E-02    0.507E-02
RMM:   6    -0.615824321179E+03    0.18209E-04   -0.15355E-04  1439   0.222E-02    0.186E-02
RMM:   7    -0.615824318166E+03    0.30137E-05   -0.24615E-05  1471   0.972E-03    0.667E-03
RMM:   8    -0.615824316894E+03    0.12713E-05   -0.53866E-06  1429   0.447E-03    0.274E-03
RMM:   9    -0.615824316342E+03    0.55198E-06   -0.19158E-06  1367   0.226E-03    0.124E-03
RMM:  10    -0.615824316214E+03    0.12879E-06   -0.59767E-07  1171   0.119E-03    0.723E-04
RMM:  11    -0.615824316192E+03    0.21530E-07   -0.30346E-07  1019   0.959E-04
  89 F= -.62374786E+03 E0= -.62374786E+03  d E =-.107032E-01
 curvature: -21.34 expect dE=-0.634E+00 dE for cont linesearch -0.291E-03
 ZBRENT: interpolating
 opt :   0.6544  next Energy=  -623.748177 (dE=-0.110E-01)
 bond charge predicted
       N       E                     dE             d eps       ncg     rms          rms(c)
DAV:   1    -0.615830424679E+03   -0.61085E-02   -0.17625E+00  1452   0.316E+00    0.479E-01
RMM:   2    -0.615830437248E+03   -0.12569E-04   -0.39639E-02  1428   0.502E-01    0.243E-01
RMM:   3    -0.615829669987E+03    0.76726E-03   -0.28185E-03  1428   0.127E-01    0.111E-01
RMM:   4    -0.615829519447E+03    0.15054E-03   -0.53501E-04  1495   0.484E-02    0.287E-02
RMM:   5    -0.615829512446E+03    0.70011E-05   -0.43468E-05  1445   0.155E-02    0.115E-02
RMM:   6    -0.615829510980E+03    0.14656E-05   -0.78826E-06  1441   0.516E-03    0.468E-03
RMM:   7    -0.615829510645E+03    0.33520E-06   -0.16034E-06  1434   0.253E-03    0.154E-03
RMM:   8    -0.615829510544E+03    0.10098E-06   -0.25633E-07   946   0.102E-03    0.689E-04
RMM:   9    -0.615829510486E+03    0.58040E-07   -0.12118E-07   882   0.721E-04
  90 F= -.62374821E+03 E0= -.62374821E+03  d E =-.110507E-01
 curvature: -23.42 expect dE=-0.470E+00 dE for cont linesearch -0.370E-07
 trial: gam= 0.68069 g(F)=  0.198E-01 g(S)=  0.256E-03 ort =-0.622E-04 (trialstep = 0.371E+00)
 search vector abs. value=  0.116E+01
 bond charge predicted
       N       E                     dE             d eps       ncg     rms          rms(c)
DAV:   1    -0.615830552253E+03   -0.10417E-02   -0.91951E+00  1428   0.714E+00    0.108E+00
RMM:   2    -0.615830737632E+03   -0.18538E-03   -0.20220E-01  1428   0.110E+00    0.548E-01
RMM:   3    -0.615826796743E+03    0.39409E-02   -0.13961E-02  1428   0.292E-01    0.251E-01
RMM:   4    -0.615826045817E+03    0.75093E-03   -0.30073E-03  1498   0.114E-01    0.640E-02
RMM:   5    -0.615826019700E+03    0.26117E-04   -0.21269E-04  1443   0.348E-02    0.274E-02
RMM:   6    -0.615826013669E+03    0.60309E-05   -0.47337E-05  1441   0.121E-02    0.991E-03
RMM:   7    -0.615826012414E+03    0.12558E-05   -0.73371E-06  1477   0.528E-03    0.380E-03
RMM:   8    -0.615826011820E+03    0.59341E-06   -0.19446E-06  1392   0.259E-03    0.154E-03
RMM:   9    -0.615826011598E+03    0.22239E-06   -0.69928E-07  1233   0.133E-03    0.756E-04
RMM:  10    -0.615826011558E+03    0.39869E-07   -0.25678E-07   977   0.796E-04
  91 F= -.62375447E+03 E0= -.62375447E+03  d E =-.626331E-02
 trial-energy change:   -0.006263  1 .order   -0.006324   -0.007433   -0.005215
 step:   1.2435(harm=  1.2435)  dis= 0.04808  next Energy=  -623.760664 (dE=-0.125E-01)
 bond charge predicted
       N       E                     dE             d eps       ncg     rms          rms(c)
DAV:   1    -0.615834639349E+03   -0.86278E-02   -0.50858E+01  1428   0.167E+01    0.257E+00
RMM:   2    -0.615834425796E+03    0.21355E-03   -0.11448E+00  1428   0.259E+00    0.129E+00
RMM:   3    -0.615812944948E+03    0.21481E-01   -0.77122E-02  1428   0.700E-01    0.604E-01
RMM:   4    -0.615808577917E+03    0.43670E-02   -0.17834E-02  1498   0.280E-01    0.154E-01
RMM:   5    -0.615808433640E+03    0.14428E-03   -0.11863E-03  1444   0.814E-02    0.678E-02
RMM:   6    -0.615808393273E+03    0.40367E-04   -0.28490E-04  1441   0.297E-02    0.230E-02
RMM:   7    -0.615808385823E+03    0.74498E-05   -0.39177E-05  1489   0.124E-02    0.911E-03
RMM:   8    -0.615808382149E+03    0.36743E-05   -0.11474E-05  1430   0.611E-03    0.360E-03
RMM:   9    -0.615808380746E+03    0.14024E-05   -0.38256E-06  1411   0.309E-03    0.183E-03
RMM:  10    -0.615808380320E+03    0.42670E-06   -0.15463E-06  1357   0.182E-03    0.103E-03
RMM:  11    -0.615808380240E+03    0.80021E-07   -0.59882E-07  1180   0.127E-03
  92 F= -.62376041E+03 E0= -.62376041E+03  d E =-.122010E-01
 curvature: -35.92 expect dE=-0.117E+01 dE for cont linesearch -0.969E-09
 trial: gam= 1.60088 g(F)=  0.323E-01 g(S)=  0.181E-03 ort =-0.559E-05 (trialstep = 0.211E+00)
 search vector abs. value=  0.300E+01
 bond charge predicted
       N       E                     dE             d eps       ncg     rms          rms(c)
DAV:   1    -0.615809002102E+03   -0.62178E-03   -0.74782E+00  1440   0.644E+00    0.978E-01
RMM:   2    -0.615808814318E+03    0.18778E-03   -0.16390E-01  1428   0.993E-01    0.498E-01
RMM:   3    -0.615805576034E+03    0.32383E-02   -0.11486E-02  1428   0.264E-01    0.227E-01
RMM:   4    -0.615804970327E+03    0.60571E-03   -0.24373E-03  1496   0.102E-01    0.594E-02
RMM:   5    -0.615804950000E+03    0.20327E-04   -0.17604E-04  1446   0.317E-02    0.252E-02
RMM:   6    -0.615804946047E+03    0.39525E-05   -0.39825E-05  1446   0.111E-02    0.890E-03
RMM:   7    -0.615804945245E+03    0.80204E-06   -0.55931E-06  1469   0.472E-03    0.338E-03
RMM:   8    -0.615804944849E+03    0.39619E-06   -0.14569E-06  1358   0.225E-03    0.134E-03
RMM:   9    -0.615804944703E+03    0.14563E-06   -0.47104E-07  1122   0.114E-03    0.652E-04
RMM:  10    -0.615804944677E+03    0.26219E-07   -0.19541E-07   920   0.720E-04
  93 F= -.62376612E+03 E0= -.62376612E+03  d E =-.571256E-02
 trial-energy change:   -0.005713  1 .order   -0.005788   -0.006832   -0.004744
 step:   0.6889(harm=  0.6889)  dis= 0.04339  next Energy=  -623.771584 (dE=-0.112E-01)
 bond charge predicted
       N       E                     dE             d eps       ncg     rms          rms(c)
DAV:   1    -0.615810760130E+03   -0.58154E-02   -0.38598E+01  1428   0.146E+01    0.225E+00
RMM:   2    -0.615808793428E+03    0.19667E-02   -0.86203E-01  1428   0.225E+00    0.113E+00
RMM:   3    -0.615792314549E+03    0.16479E-01   -0.59156E-02  1428   0.609E-01    0.527E-01
RMM:   4    -0.615789056870E+03    0.32577E-02   -0.13315E-02  1494   0.242E-01    0.137E-01
RMM:   5    -0.615788951916E+03    0.10495E-03   -0.91519E-04  1448   0.721E-02    0.597E-02
RMM:   6    -0.615788927017E+03    0.24899E-04   -0.22088E-04  1449   0.261E-02    0.199E-02
RMM:   7    -0.615788922527E+03    0.44896E-05   -0.27832E-05  1483   0.107E-02    0.780E-03
RMM:   8    -0.615788920334E+03    0.21935E-05   -0.79041E-06  1428   0.513E-03    0.305E-03
RMM:   9    -0.615788919492E+03    0.84148E-06   -0.24388E-06  1395   0.253E-03    0.155E-03
RMM:  10    -0.615788919220E+03    0.27223E-06   -0.10228E-06  1296   0.149E-03    0.838E-04
RMM:  11    -0.615788919169E+03    0.50804E-07   -0.41828E-07  1100   0.106E-03
  94 F= -.62377136E+03 E0= -.62377136E+03  d E =-.109569E-01
 curvature: -31.83 expect dE=-0.915E+00 dE for cont linesearch -0.103E-06
 trial: gam= 0.87078 g(F)=  0.274E-01 g(S)=  0.140E-02 ort = 0.983E-04 (trialstep = 0.306E+00)
 search vector abs. value=  0.230E+01
 bond charge predicted
       N       E                     dE             d eps       ncg     rms          rms(c)
DAV:   1    -0.615790387130E+03   -0.14679E-02   -0.12376E+01  1428   0.833E+00    0.128E+00
RMM:   2    -0.615789055169E+03    0.13320E-02   -0.27801E-01  1428   0.130E+00    0.639E-01
RMM:   3    -0.615783885962E+03    0.51692E-02   -0.19692E-02  1428   0.344E-01    0.293E-01
RMM:   4    -0.615782858628E+03    0.10273E-02   -0.39993E-03  1499   0.132E-01    0.766E-02
RMM:   5    -0.615782821365E+03    0.37263E-04   -0.28769E-04  1440   0.407E-02    0.329E-02
RMM:   6    -0.615782811550E+03    0.98156E-05   -0.70087E-05  1451   0.146E-02    0.114E-02
RMM:   7    -0.615782809491E+03    0.20587E-05   -0.10033E-05  1451   0.628E-03    0.429E-03
RMM:   8    -0.615782808639E+03    0.85155E-06   -0.27646E-06  1418   0.302E-03    0.189E-03
RMM:   9    -0.615782808300E+03    0.33886E-06   -0.10553E-06  1344   0.164E-03    0.944E-04
RMM:  10    -0.615782808239E+03    0.61005E-07   -0.34467E-07  1052   0.903E-04
  95 F= -.62377900E+03 E0= -.62377900E+03  d E =-.763178E-02
 ZBRENT: can't locate minimum, use default step
 trial-energy change:   -0.007632  1 .order   -0.007765   -0.008831   -0.006700
 step:   1.2248(harm=  1.2693)  dis= 0.06781  next Energy=  -623.789667 (dE=-0.183E-01)
 bond charge predicted
       N       E                     dE             d eps       ncg     rms          rms(c)
DAV:   1    -0.615821253491E+03   -0.38445E-01   -0.11127E+02  1428   0.249E+01    0.395E+00
RMM:   2    -0.615805653289E+03    0.15600E-01   -0.26130E+00  1428   0.390E+00    0.192E+00
RMM:   3    -0.615760796633E+03    0.44857E-01   -0.17602E-01  1428   0.107E+00    0.923E-01
RMM:   4    -0.615750730569E+03    0.10066E-01   -0.41167E-02  1499   0.431E-01    0.236E-01
RMM:   5    -0.615750414638E+03    0.31593E-03   -0.26112E-03  1440   0.119E-01    0.108E-01
RMM:   6    -0.615750304080E+03    0.11056E-03   -0.77050E-04  1453   0.500E-02    0.339E-02
RMM:   7    -0.615750284355E+03    0.19725E-04   -0.90808E-05  1453   0.206E-02    0.134E-02
RMM:   8    -0.615750276351E+03    0.80046E-05   -0.26880E-05  1445   0.860E-03    0.588E-03
RMM:   9    -0.615750272986E+03    0.33643E-05   -0.86447E-06  1430   0.491E-03    0.320E-03
RMM:  10    -0.615750271858E+03    0.11286E-05   -0.44159E-06  1434   0.339E-03    0.164E-03
RMM:  11    -0.615750271639E+03    0.21896E-06   -0.15870E-06  1368   0.186E-03    0.873E-04
RMM:  12    -0.615750271628E+03    0.10761E-07   -0.25449E-07   972   0.921E-04
  96 F= -.62378908E+03 E0= -.62378908E+03  d E =-.177141E-01
 curvature: -50.57 expect dE=-0.283E+01 dE for cont linesearch -0.806E-05
 trial: gam= 1.90025 g(F)=  0.548E-01 g(S)=  0.116E-02 ort = 0.606E-03 (trialstep = 0.135E+00)
 search vector abs. value=  0.837E+01
 bond charge predicted
       N       E                     dE             d eps       ncg     rms          rms(c)
DAV:   1    -0.615750512832E+03   -0.24119E-03   -0.86468E+00  1440   0.700E+00    0.108E+00
RMM:   2    -0.615748948521E+03    0.15643E-02   -0.19600E-01  1428   0.110E+00    0.534E-01
RMM:   3    -0.615745348236E+03    0.36003E-02   -0.14056E-02  1428   0.289E-01    0.244E-01
RMM:   4    -0.615744618104E+03    0.73013E-03   -0.27530E-03  1498   0.109E-01    0.633E-02
RMM:   5    -0.615744592291E+03    0.25813E-04   -0.20220E-04  1442   0.340E-02    0.276E-02
RMM:   6    -0.615744584512E+03    0.77791E-05   -0.50086E-05  1451   0.123E-02    0.963E-03
RMM:   7    -0.615744582661E+03    0.18508E-05   -0.78557E-06  1445   0.547E-03    0.354E-03
RMM:   8    -0.615744581936E+03    0.72529E-06   -0.21497E-06  1397   0.260E-03    0.167E-03
RMM:   9    -0.615744581633E+03    0.30281E-06   -0.90790E-07  1306   0.151E-03    0.847E-04
RMM:  10    -0.615744581589E+03    0.43725E-07   -0.30280E-07  1019   0.867E-04
  97 F= -.62379603E+03 E0= -.62379603E+03  d E =-.695079E-02
 ZBRENT: can't locate minimum, use default step
 trial-energy change:   -0.006951  1 .order   -0.007030   -0.007691   -0.006368
 step:   0.5389(harm=  0.7831)  dis= 0.05710  next Energy=  -623.811430 (dE=-0.224E-01)
 bond charge predicted
       N       E                     dE             d eps       ncg     rms          rms(c)
DAV:   1    -0.615774145017E+03   -0.29563E-01   -0.77780E+01  1428   0.209E+01    0.332E+00
RMM:   2    -0.615757209669E+03    0.16935E-01   -0.18255E+00  1428   0.330E+00    0.160E+00
RMM:   3    -0.615725729780E+03    0.31480E-01   -0.12528E-01  1428   0.889E-01    0.758E-01
RMM:   4    -0.615718726470E+03    0.70033E-02   -0.27684E-02  1498   0.352E-01    0.192E-01
RMM:   5    -0.615718504196E+03    0.22227E-03   -0.18106E-03  1441   0.999E-02    0.884E-02
RMM:   6    -0.615718420166E+03    0.84029E-04   -0.52358E-04  1450   0.405E-02    0.282E-02
RMM:   7    -0.615718403087E+03    0.17079E-04   -0.69007E-05  1451   0.173E-02    0.110E-02
RMM:   8    -0.615718396043E+03    0.70436E-05   -0.20618E-05  1445   0.749E-03    0.500E-03
RMM:   9    -0.615718393061E+03    0.29826E-05   -0.75348E-06  1430   0.442E-03    0.272E-03
RMM:  10    -0.615718392255E+03    0.80588E-06   -0.35202E-06  1432   0.292E-03    0.139E-03
RMM:  11    -0.615718392147E+03    0.10814E-06   -0.11501E-06  1327   0.158E-03    0.722E-04
RMM:  12    -0.615718392144E+03    0.26084E-08   -0.15037E-07   891   0.772E-04
  98 F= -.62380880E+03 E0= -.62380880E+03  d E =-.197196E-01
 curvature: -49.29 expect dE=-0.148E+01 dE for cont linesearch -0.167E-02
 ZBRENT: increasing intervall
 opt :   1.3473  next Energy=  -623.797812 (dE=-0.873E-02)
 bond charge predicted
       N       E                     dE             d eps       ncg     rms          rms(c)
DAV:   1    -0.615847095535E+03   -0.12870E+00   -0.31035E+02  1428   0.415E+01    0.695E+00
RMM:   2    -0.615776970289E+03    0.70125E-01   -0.79035E+00  1428   0.665E+00    0.322E+00
RMM:   3    -0.615657134876E+03    0.11984E+00   -0.50045E-01  1428   0.187E+00    0.165E+00
RMM:   4    -0.615624582356E+03    0.32553E-01   -0.13703E-01  1495   0.810E-01    0.422E-01
RMM:   5    -0.615623594142E+03    0.98821E-03   -0.81710E-03  1443   0.202E-01    0.210E-01
RMM:   6    -0.615623140272E+03    0.45387E-03   -0.31026E-03  1454   0.109E-01    0.678E-02
RMM:   7    -0.615623053919E+03    0.86353E-04   -0.43385E-04  1442   0.507E-02    0.263E-02
RMM:   8    -0.615623024783E+03    0.29136E-04   -0.11208E-04  1465   0.190E-02    0.121E-02
RMM:   9    -0.615623011696E+03    0.13087E-04   -0.36647E-05  1431   0.102E-02    0.775E-03
RMM:  10    -0.615623006989E+03    0.47067E-05   -0.18330E-05  1459   0.804E-03    0.391E-03
RMM:  11    -0.615623005548E+03    0.14407E-05   -0.77595E-06  1437   0.424E-03    0.183E-03
RMM:  12    -0.615623005495E+03    0.53231E-07   -0.13536E-06  1365   0.194E-03    0.114E-03
RMM:  13    -0.615623005518E+03   -0.22439E-07   -0.27475E-07   978   0.123E-03
  99 F= -.62379613E+03 E0= -.62379613E+03  d E =-.705016E-02
 curvature: 324.45 expect dE= 0.615E+02 dE for cont linesearch  0.898E-01
 ZBRENT: bracketing found
 ZBRENT: interpolating
 opt :   0.7483  next Energy=  -623.810561 (dE=-0.215E-01)
 bond charge predicted
       N       E                     dE             d eps       ncg     rms          rms(c)
DAV:   1    -0.615806127572E+03   -0.18312E+00   -0.17101E+02  1428   0.318E+01    0.485E+00
RMM:   2    -0.615796145265E+03    0.99823E-02   -0.39049E+00  1428   0.521E+00    0.245E+00
RMM:   3    -0.615716928333E+03    0.79217E-01   -0.28677E-01  1428   0.125E+00    0.116E+00
RMM:   4    -0.615700336344E+03    0.16592E-01   -0.54101E-02  1496   0.482E-01    0.325E-01
RMM:   5    -0.615699349848E+03    0.98650E-03   -0.50100E-03  1441   0.158E-01    0.125E-01
RMM:   6    -0.615699128449E+03    0.22140E-03   -0.96769E-04  1444   0.604E-02    0.504E-02
RMM:   7    -0.615699068959E+03    0.59490E-04   -0.22135E-04  1448   0.274E-02    0.166E-02
RMM:   8    -0.615699049724E+03    0.19235E-04   -0.49009E-05  1448   0.122E-02    0.796E-03
RMM:   9    -0.615699040379E+03    0.93451E-05   -0.21972E-05  1431   0.716E-03    0.396E-03
RMM:  10    -0.615699037700E+03    0.26783E-05   -0.84814E-06  1456   0.428E-03    0.193E-03
RMM:  11    -0.615699037229E+03    0.47167E-06   -0.24566E-06  1410   0.242E-03    0.976E-04
RMM:  12    -0.615699037268E+03   -0.39974E-07   -0.33468E-07  1033   0.107E-03
 100 F= -.62381043E+03 E0= -.62381043E+03  d E =-.213512E-01
 curvature:  -6.37 expect dE=-0.300E+00 dE for cont linesearch -0.451E-06
 trial: gam= 0.81067 g(F)=  0.468E-01 g(S)=  0.259E-03 ort = 0.770E-03 (trialstep = 0.257E+00)
 search vector abs. value=  0.555E+01
 bond charge predicted
       N       E                     dE             d eps       ncg     rms          rms(c)
DAV:   1    -0.615703248391E+03   -0.42112E-02   -0.20881E+01  1428   0.109E+01    0.170E+00
RMM:   2    -0.615699686003E+03    0.35624E-02   -0.48056E-01  1428   0.171E+00    0.828E-01
RMM:   3    -0.615691015606E+03    0.86704E-02   -0.33704E-02  1428   0.455E-01    0.383E-01
RMM:   4    -0.615689218738E+03    0.17969E-02   -0.70409E-03  1499   0.176E-01    0.996E-02
RMM:   5    -0.615689158160E+03    0.60578E-04   -0.48356E-04  1438   0.526E-02    0.444E-02
RMM:   6    -0.615689137804E+03    0.20356E-04   -0.13441E-04  1451   0.201E-02    0.144E-02
RMM:   7    -0.615689133726E+03    0.40786E-05   -0.17622E-05  1451   0.857E-03    0.562E-03
RMM:   8    -0.615689132000E+03    0.17260E-05   -0.53506E-06  1440   0.399E-03    0.254E-03
RMM:   9    -0.615689131339E+03    0.66089E-06   -0.19535E-06  1363   0.223E-03    0.138E-03
RMM:  10    -0.615689131187E+03    0.15187E-06   -0.78888E-07  1225   0.134E-03    0.668E-04
RMM:  11    -0.615689131177E+03    0.10354E-07   -0.27889E-07  1006   0.836E-04
 101 F= -.62382095E+03 E0= -.62382095E+03  d E =-.105166E-01
 trial-energy change:   -0.010517  1 .order   -0.010636   -0.012271   -0.009001
 step:   0.9660(harm=  0.9660)  dis= 0.08041  next Energy=  -623.833451 (dE=-0.230E-01)
 bond charge predicted
       N       E                     dE             d eps       ncg     rms          rms(c)
DAV:   1    -0.615751859465E+03   -0.62728E-01   -0.15792E+02  1428   0.297E+01    0.481E+00
RMM:   2    -0.615721256308E+03    0.30603E-01   -0.38561E+00  1428   0.472E+00    0.228E+00
RMM:   3    -0.615658274877E+03    0.62981E-01   -0.25259E-01  1428   0.130E+00    0.112E+00
RMM:   4    -0.615643132500E+03    0.15142E-01   -0.63417E-02  1499   0.541E-01    0.289E-01
RMM:   5    -0.615642669714E+03    0.46279E-03   -0.38295E-03  1441   0.141E-01    0.138E-01
RMM:   6    -0.615642474412E+03    0.19530E-03   -0.13424E-03  1452   0.684E-02    0.431E-02
RMM:   7    -0.615642438001E+03    0.36411E-04   -0.16630E-04  1440   0.306E-02    0.170E-02
RMM:   8    -0.615642425083E+03    0.12918E-04   -0.45355E-05  1459   0.110E-02    0.808E-03
RMM:   9    -0.615642419163E+03    0.59203E-05   -0.16423E-05  1431   0.728E-03    0.513E-03
RMM:  10    -0.615642417187E+03    0.19756E-05   -0.95056E-06  1449   0.602E-03    0.287E-03
RMM:  11    -0.615642416627E+03    0.56023E-06   -0.39529E-06  1417   0.335E-03    0.136E-03
RMM:  12    -0.615642416598E+03    0.29191E-07   -0.62674E-07  1210   0.135E-03
 102 F= -.62383269E+03 E0= -.62383269E+03  d E =-.222641E-01
 curvature: -56.26 expect dE=-0.359E+01 dE for cont linesearch -0.380E-05
 trial: gam= 1.32935 g(F)=  0.622E-01 g(S)=  0.156E-02 ort =-0.612E-03 (trialstep = 0.224E+00)
 search vector abs. value=  0.987E+01
 bond charge predicted
       N       E                     dE             d eps       ncg     rms          rms(c)
DAV:   1    -0.615648315258E+03   -0.58986E-02   -0.28349E+01  1428   0.126E+01    0.192E+00
RMM:   2    -0.615645861152E+03    0.24541E-02   -0.63506E-01  1428   0.195E+00    0.950E-01
RMM:   3    -0.615634456415E+03    0.11405E-01   -0.43874E-02  1428   0.526E-01    0.440E-01
RMM:   4    -0.615632134217E+03    0.23222E-02   -0.95007E-03  1497   0.206E-01    0.114E-01
RMM:   5    -0.615632055758E+03    0.78459E-04   -0.64206E-04  1438   0.601E-02    0.513E-02
RMM:   6    -0.615632026433E+03    0.29326E-04   -0.18146E-04  1449   0.234E-02    0.161E-02
RMM:   7    -0.615632021121E+03    0.53118E-05   -0.23243E-05  1453   0.100E-02    0.638E-03
RMM:   8    -0.615632018901E+03    0.22196E-05   -0.71243E-06  1438   0.448E-03    0.288E-03
RMM:   9    -0.615632018074E+03    0.82700E-06   -0.26089E-06  1392   0.259E-03    0.156E-03
RMM:  10    -0.615632017887E+03    0.18689E-06   -0.10807E-06  1296   0.156E-03    0.760E-04
RMM:  11    -0.615632017872E+03    0.14938E-07   -0.33533E-07  1047   0.914E-04
 103 F= -.62384535E+03 E0= -.62384535E+03  d E =-.126594E-01
 ZBRENT: can't locate minimum, use default step
 trial-energy change:   -0.012659  1 .order   -0.012798   -0.014127   -0.011470
 step:   0.8978(harm=  1.1934)  dis= 0.09929  next Energy=  -623.870246 (dE=-0.376E-01)
 bond charge predicted
       N       E                     dE             d eps       ncg     rms          rms(c)
DAV:   1    -0.615723836816E+03   -0.91819E-01   -0.25435E+02  1428   0.374E+01    0.604E+00
RMM:   2    -0.615702579819E+03    0.21257E-01   -0.62356E+00  1428   0.587E+00    0.287E+00
RMM:   3    -0.615606463265E+03    0.96117E-01   -0.38877E-01  1428   0.166E+00    0.147E+00
RMM:   4    -0.615581497211E+03    0.24966E-01   -0.10965E-01  1494   0.722E-01    0.383E-01
RMM:   5    -0.615580739041E+03    0.75817E-03   -0.65479E-03  1440   0.183E-01    0.187E-01
RMM:   6    -0.615580363496E+03    0.37554E-03   -0.24803E-03  1457   0.973E-02    0.601E-02
RMM:   7    -0.615580300113E+03    0.63383E-04   -0.33473E-04  1442   0.446E-02    0.227E-02
RMM:   8    -0.615580279960E+03    0.20153E-04   -0.83257E-05  1464   0.165E-02    0.107E-02
RMM:   9    -0.615580270856E+03    0.91038E-05   -0.28194E-05  1429   0.888E-03    0.643E-03
RMM:  10    -0.615580267928E+03    0.29285E-05   -0.12676E-05  1467   0.672E-03    0.342E-03
RMM:  11    -0.615580266965E+03    0.96299E-06   -0.58316E-06  1429   0.382E-03    0.162E-03
RMM:  12    -0.615580266918E+03    0.46697E-07   -0.92177E-07  1276   0.153E-03
 104 F= -.62386634E+03 E0= -.62386634E+03  d E =-.336475E-01
 curvature: -84.89 expect dE=-0.520E+01 dE for cont linesearch -0.134E-02
 ZBRENT: extrapolating
 opt :   1.1158  next Energy=  -623.867703 (dE=-0.350E-01)
 bond charge predicted
       N       E                     dE             d eps       ncg     rms          rms(c)
DAV:   1    -0.615574416359E+03    0.58506E-02   -0.26806E+01  1428   0.123E+01    0.190E+00
RMM:   2    -0.615570143816E+03    0.42725E-02   -0.60896E-01  1428   0.192E+00    0.930E-01
RMM:   3    -0.615559062020E+03    0.11082E-01   -0.42647E-02  1428   0.514E-01    0.430E-01
RMM:   4    -0.615556789305E+03    0.22727E-02   -0.89929E-03  1499   0.199E-01    0.113E-01
RMM:   5    -0.615556704721E+03    0.84584E-04   -0.61706E-04  1435   0.591E-02    0.501E-02
RMM:   6    -0.615556675890E+03    0.28831E-04   -0.17181E-04  1451   0.227E-02    0.161E-02
RMM:   7    -0.615556670385E+03    0.55049E-05   -0.23000E-05  1449   0.975E-03    0.631E-03
RMM:   8    -0.615556668161E+03    0.22240E-05   -0.70968E-06  1437   0.455E-03    0.289E-03
RMM:   9    -0.615556667323E+03    0.83842E-06   -0.27949E-06  1398   0.263E-03    0.155E-03
RMM:  10    -0.615556667167E+03    0.15629E-06   -0.10379E-06  1289   0.152E-03    0.747E-04
RMM:  11    -0.615556667160E+03    0.64028E-08   -0.31668E-07  1030   0.905E-04
 105 F= -.62386742E+03 E0= -.62386742E+03  d E =-.347315E-01
 curvature: -86.11 expect dE=-0.736E+01 dE for cont linesearch -0.937E-05
 trial: gam= 1.15632 g(F)=  0.815E-01 g(S)=  0.391E-02 ort =-0.104E-02 (trialstep = 0.299E+00)
 search vector abs. value=  0.133E+02
 bond charge predicted
       N       E                     dE             d eps       ncg     rms          rms(c)
DAV:   1    -0.615575177066E+03   -0.18510E-01   -0.66410E+01  1428   0.192E+01    0.298E+00
RMM:   2    -0.615567253021E+03    0.79240E-02   -0.15021E+00  1428   0.298E+00    0.145E+00
RMM:   3    -0.615541453261E+03    0.25800E-01   -0.10274E-01  1428   0.809E-01    0.686E-01
RMM:   4    -0.615535963699E+03    0.54896E-02   -0.23054E-02  1499   0.322E-01    0.173E-01
RMM:   5    -0.615535790811E+03    0.17289E-03   -0.14772E-03  1435   0.903E-02    0.785E-02
RMM:   6    -0.615535721402E+03    0.69409E-04   -0.44091E-04  1448   0.375E-02    0.249E-02
RMM:   7    -0.615535710381E+03    0.11021E-04   -0.54222E-05  1449   0.159E-02    0.985E-03
RMM:   8    -0.615535706131E+03    0.42499E-05   -0.15673E-05  1444   0.655E-03    0.446E-03
RMM:   9    -0.615535704410E+03    0.17204E-05   -0.54241E-06  1428   0.387E-03    0.241E-03
RMM:  10    -0.615535703942E+03    0.46813E-06   -0.25034E-06  1365   0.260E-03    0.121E-03
RMM:  11    -0.615535703876E+03    0.66051E-07   -0.85973E-07  1248   0.140E-03
 106 F= -.62388515E+03 E0= -.62388515E+03  d E =-.177233E-01
 trial-energy change:   -0.017723  1 .order   -0.017907   -0.025217   -0.010596
 step:   0.5511(harm=  0.5162)  dis= 0.07255  next Energy=  -623.889495 (dE=-0.221E-01)
 bond charge predicted
       N       E                     dE             d eps       ncg     rms          rms(c)
DAV:   1    -0.615534735426E+03    0.96852E-03   -0.47043E+01  1428   0.162E+01    0.251E+00
RMM:   2    -0.615528047039E+03    0.66884E-02   -0.10615E+00  1428   0.252E+00    0.123E+00
RMM:   3    -0.615509452922E+03    0.18594E-01   -0.73766E-02  1428   0.679E-01    0.572E-01
RMM:   4    -0.615505581984E+03    0.38709E-02   -0.15888E-02  1499   0.266E-01    0.145E-01
RMM:   5    -0.615505452518E+03    0.12947E-03   -0.10504E-03  1436   0.769E-02    0.648E-02
RMM:   6    -0.615505404217E+03    0.48301E-04   -0.29727E-04  1443   0.302E-02    0.208E-02
RMM:   7    -0.615505396265E+03    0.79526E-05   -0.37886E-05  1457   0.128E-02    0.822E-03
RMM:   8    -0.615505393159E+03    0.31060E-05   -0.11162E-05  1441   0.568E-03    0.367E-03
RMM:   9    -0.615505391963E+03    0.11957E-05   -0.39292E-06  1428   0.322E-03    0.192E-03
RMM:  10    -0.615505391675E+03    0.28784E-06   -0.16592E-06  1357   0.198E-03    0.951E-04
RMM:  11    -0.615505391648E+03    0.27070E-07   -0.51396E-07  1140   0.109E-03
 107 F= -.62388850E+03 E0= -.62388850E+03  d E =-.210732E-01
 curvature: -39.64 expect dE=-0.180E+01 dE for cont linesearch -0.165E-03
 trial: gam= 0.48755 g(F)=  0.407E-01 g(S)=  0.465E-02 ort =-0.743E-02 (trialstep = 0.350E+00)
 search vector abs. value=  0.320E+01
 bond charge predicted
       N       E                     dE             d eps       ncg     rms          rms(c)
DAV:   1    -0.615503709648E+03    0.16820E-02   -0.21884E+01  1440   0.111E+01    0.167E+00
RMM:   2    -0.615502748900E+03    0.96075E-03   -0.48368E-01  1428   0.172E+00    0.825E-01
RMM:   3    -0.615494761024E+03    0.79879E-02   -0.33551E-02  1430   0.453E-01    0.381E-01
RMM:   4    -0.615493070822E+03    0.16902E-02   -0.68226E-03  1498   0.172E-01    0.942E-02
RMM:   5    -0.615493017770E+03    0.53052E-04   -0.45927E-04  1432   0.515E-02    0.422E-02
RMM:   6    -0.615492996683E+03    0.21087E-04   -0.12873E-04  1438   0.200E-02    0.137E-02
RMM:   7    -0.615492993520E+03    0.31639E-05   -0.16896E-05  1451   0.852E-03    0.534E-03
RMM:   8    -0.615492992412E+03    0.11079E-05   -0.47680E-06  1449   0.384E-03    0.247E-03
RMM:   9    -0.615492992028E+03    0.38392E-06   -0.16425E-06  1350   0.213E-03    0.129E-03
RMM:  10    -0.615492991956E+03    0.71523E-07   -0.55777E-07  1153   0.120E-03
 108 F= -.62389980E+03 E0= -.62389980E+03  d E =-.112976E-01
 trial-energy change:   -0.011298  1 .order   -0.011424   -0.014579   -0.008268
 step:   1.0745(harm=  0.8078)  dis= 0.06459  next Energy=  -623.907242 (dE=-0.187E-01)
 bond charge predicted
       N       E                     dE             d eps       ncg     rms          rms(c)
DAV:   1    -0.615493101758E+03   -0.10973E-03   -0.93965E+01  1428   0.230E+01    0.355E+00
RMM:   2    -0.615486402103E+03    0.66997E-02   -0.21512E+00  1428   0.356E+00    0.171E+00
RMM:   3    -0.615453051115E+03    0.33351E-01   -0.14315E-01  1431   0.962E-01    0.822E-01
RMM:   4    -0.615445278793E+03    0.77723E-02   -0.32643E-02  1494   0.384E-01    0.199E-01
RMM:   5    -0.615445058394E+03    0.22040E-03   -0.20000E-03  1435   0.105E-01    0.938E-02
RMM:   6    -0.615444952789E+03    0.10561E-03   -0.66618E-04  1443   0.475E-02    0.296E-02
RMM:   7    -0.615444937746E+03    0.15042E-04   -0.79991E-05  1447   0.206E-02    0.117E-02
RMM:   8    -0.615444932840E+03    0.49065E-05   -0.21227E-05  1451   0.749E-03    0.556E-03
RMM:   9    -0.615444930853E+03    0.19873E-05   -0.73440E-06  1429   0.494E-03    0.326E-03
RMM:  10    -0.615444930292E+03    0.56053E-06   -0.37425E-06  1432   0.374E-03    0.174E-03
RMM:  11    -0.615444930140E+03    0.15197E-06   -0.13552E-06  1325   0.196E-03    0.835E-04
RMM:  12    -0.615444930130E+03    0.10346E-07   -0.21394E-07   928   0.837E-04
 109 F= -.62390240E+03 E0= -.62390240E+03  d E =-.138979E-01
 curvature: -20.46 expect dE=-0.154E+01 dE for cont linesearch -0.158E-02
 ZBRENT: interpolating
 opt :   0.7849  next Energy=  -623.904674 (dE=-0.162E-01)
 bond charge predicted
       N       E                     dE             d eps       ncg     rms          rms(c)
DAV:   1    -0.615475106149E+03   -0.30176E-01   -0.15031E+01  1428   0.930E+00    0.138E+00
RMM:   2    -0.615474842129E+03    0.26402E-03   -0.32499E-01  1428   0.146E+00    0.693E-01
RMM:   3    -0.615468989809E+03    0.58523E-02   -0.23625E-02  1428   0.366E-01    0.313E-01
RMM:   4    -0.615467832581E+03    0.11572E-02   -0.42756E-03  1499   0.135E-01    0.822E-02
RMM:   5    -0.615467776387E+03    0.56194E-04   -0.34433E-04  1434   0.437E-02    0.338E-02
RMM:   6    -0.615467759320E+03    0.17067E-04   -0.75119E-05  1438   0.155E-02    0.126E-02
RMM:   7    -0.615467755879E+03    0.34405E-05   -0.14096E-05  1449   0.764E-03    0.436E-03
RMM:   8    -0.615467754912E+03    0.96733E-06   -0.31818E-06  1440   0.300E-03    0.218E-03
RMM:   9    -0.615467754344E+03    0.56781E-06   -0.11750E-06  1342   0.178E-03    0.106E-03
RMM:  10    -0.615467754156E+03    0.18854E-06   -0.45414E-07  1103   0.108E-03    0.528E-04
RMM:  11    -0.615467754097E+03    0.58382E-07   -0.16278E-07   905   0.707E-04
 110 F= -.62390474E+03 E0= -.62390474E+03  d E =-.162453E-01
 curvature: -29.41 expect dE=-0.122E+01 dE for cont linesearch -0.656E-06
 trial: gam= 0.72899 g(F)=  0.372E-01 g(S)=  0.424E-02 ort = 0.267E-03 (trialstep = 0.437E+00)
 search vector abs. value=  0.174E+01
 bond charge predicted
       N       E                     dE             d eps       ncg     rms          rms(c)
DAV:   1    -0.615464976657E+03    0.27775E-02   -0.18116E+01  1428   0.100E+01    0.145E+00
RMM:   2    -0.615467602352E+03   -0.26257E-02   -0.37527E-01  1428   0.150E+00    0.734E-01
RMM:   3    -0.615461452930E+03    0.61494E-02   -0.24694E-02  1428   0.399E-01    0.341E-01
RMM:   4    -0.615460238465E+03    0.12145E-02   -0.58031E-03  1499   0.158E-01    0.831E-02
RMM:   5    -0.615460202815E+03    0.35650E-04   -0.35794E-04  1443   0.448E-02    0.388E-02
RMM:   6    -0.615460181730E+03    0.21085E-04   -0.12160E-04  1441   0.190E-02    0.115E-02
RMM:   7    -0.615460178663E+03    0.30677E-05   -0.13845E-05  1442   0.827E-03    0.479E-03
RMM:   8    -0.615460177535E+03    0.11272E-05   -0.40147E-06  1446   0.322E-03    0.240E-03
RMM:   9    -0.615460177097E+03    0.43830E-06   -0.15953E-06  1358   0.217E-03    0.140E-03
RMM:  10    -0.615460177002E+03    0.94882E-07   -0.65663E-07  1240   0.148E-03
 111 F= -.62391647E+03 E0= -.62391647E+03  d E =-.117293E-01
 trial-energy change:   -0.011729  1 .order   -0.011839   -0.018180   -0.005498
 step:   0.6416(harm=  0.6260)  dis= 0.02715  next Energy=  -623.917751 (dE=-0.130E-01)
 bond charge predicted
       N       E                     dE             d eps       ncg     rms          rms(c)
DAV:   1    -0.615453154816E+03    0.70223E-02   -0.39909E+00  1452   0.471E+00    0.677E-01
RMM:   2    -0.615453741201E+03   -0.58638E-03   -0.82049E-02  1428   0.707E-01    0.345E-01
RMM:   3    -0.615452363718E+03    0.13775E-02   -0.54879E-03  1429   0.186E-01    0.158E-01
RMM:   4    -0.615452099936E+03    0.26378E-03   -0.12287E-03  1495   0.720E-02    0.389E-02
RMM:   5    -0.615452092223E+03    0.77134E-05   -0.79534E-05  1441   0.214E-02    0.178E-02
RMM:   6    -0.615452088124E+03    0.40994E-05   -0.25414E-05  1442   0.858E-03    0.540E-03
RMM:   7    -0.615452087510E+03    0.61378E-06   -0.30555E-06  1442   0.373E-03    0.222E-03
RMM:   8    -0.615452087277E+03    0.23305E-06   -0.89223E-07  1361   0.155E-03    0.109E-03
RMM:   9    -0.615452087217E+03    0.60150E-07   -0.32826E-07  1040   0.981E-04
 112 F= -.62391757E+03 E0= -.62391757E+03  d E =-.128273E-01
 curvature: -13.00 expect dE=-0.303E+00 dE for cont linesearch -0.131E-04
 trial: gam= 0.61219 g(F)=  0.223E-01 g(S)=  0.105E-02 ort =-0.132E-02 (trialstep = 0.478E+00)
 search vector abs. value=  0.674E+00
 bond charge predicted
       N       E                     dE             d eps       ncg     rms          rms(c)
DAV:   1    -0.615448253169E+03    0.38341E-02   -0.86559E+00  1428   0.683E+00    0.913E-01
RMM:   2    -0.615452582044E+03   -0.43289E-02   -0.16502E-01  1428   0.987E-01    0.486E-01
RMM:   3    -0.615449962195E+03    0.26198E-02   -0.10303E-02  1434   0.259E-01    0.223E-01
RMM:   4    -0.615449493389E+03    0.46881E-03   -0.26105E-03  1492   0.104E-01    0.505E-02
RMM:   5    -0.615449483741E+03    0.96479E-05   -0.14073E-04  1447   0.291E-02    0.249E-02
RMM:   6    -0.615449475168E+03    0.85729E-05   -0.59983E-05  1438   0.132E-02    0.671E-03
RMM:   7    -0.615449474423E+03    0.74471E-06   -0.49426E-06  1448   0.519E-03    0.308E-03
RMM:   8    -0.615449474156E+03    0.26675E-06   -0.15317E-06  1369   0.206E-03    0.150E-03
RMM:   9    -0.615449474096E+03    0.60500E-07   -0.50757E-07  1154   0.131E-03
 113 F= -.62392538E+03 E0= -.62392538E+03  d E =-.780575E-02
 trial-energy change:   -0.007806  1 .order   -0.007848   -0.010744   -0.004952
 step:   0.9244(harm=  0.8862)  dis= 0.02459  next Energy=  -623.927657 (dE=-0.101E-01)
 bond charge predicted
       N       E                     dE             d eps       ncg     rms          rms(c)
DAV:   1    -0.615440612519E+03    0.88616E-02   -0.75705E+00  1428   0.639E+00    0.855E-01
RMM:   2    -0.615444357266E+03   -0.37447E-02   -0.14444E-01  1428   0.924E-01    0.455E-01
RMM:   3    -0.615442058317E+03    0.22989E-02   -0.90359E-03  1434   0.243E-01    0.209E-01
RMM:   4    -0.615441647715E+03    0.41060E-03   -0.22780E-03  1492   0.972E-02    0.473E-02
RMM:   5    -0.615441639135E+03    0.85798E-05   -0.12340E-04  1448   0.272E-02    0.233E-02
RMM:   6    -0.615441631687E+03    0.74483E-05   -0.52234E-05  1437   0.123E-02    0.628E-03
RMM:   7    -0.615441631039E+03    0.64828E-06   -0.43245E-06  1447   0.484E-03    0.288E-03
RMM:   8    -0.615441630806E+03    0.23267E-06   -0.13570E-06  1364   0.194E-03    0.140E-03
RMM:   9    -0.615441630760E+03    0.46181E-07   -0.44339E-07  1108   0.122E-03
 114 F= -.62392742E+03 E0= -.62392742E+03  d E =-.985357E-02
 curvature: -13.16 expect dE=-0.375E+00 dE for cont linesearch -0.217E-04
 trial: gam= 1.18423 g(F)=  0.275E-01 g(S)=  0.105E-02 ort =-0.105E-02 (trialstep = 0.394E+00)
 search vector abs. value=  0.971E+00
 bond charge predicted
       N       E                     dE             d eps       ncg     rms          rms(c)
DAV:   1    -0.615439900635E+03    0.17302E-02   -0.76399E+00  1428   0.633E+00    0.823E-01
RMM:   2    -0.615444590709E+03   -0.46901E-02   -0.13299E-01  1428   0.878E-01    0.461E-01
RMM:   3    -0.615442439640E+03    0.21511E-02   -0.85420E-03  1431   0.233E-01    0.200E-01
RMM:   4    -0.615442142589E+03    0.29705E-03   -0.19470E-03  1496   0.906E-02    0.419E-02
RMM:   5    -0.615442135058E+03    0.75315E-05   -0.11646E-04  1436   0.272E-02    0.196E-02
RMM:   6    -0.615442129721E+03    0.53363E-05   -0.39432E-05  1428   0.108E-02    0.553E-03
RMM:   7    -0.615442129559E+03    0.16249E-06   -0.33739E-06  1468   0.388E-03    0.279E-03
RMM:   8    -0.615442129513E+03    0.45507E-07   -0.10704E-06  1356   0.211E-03    0.118E-03
RMM:   9    -0.615442129476E+03    0.37140E-07   -0.24952E-07   954   0.108E-03
 115 F= -.62393525E+03 E0= -.62393525E+03  d E =-.783022E-02
 trial-energy change:   -0.007830  1 .order   -0.007865   -0.010729   -0.005001
 step:   0.7636(harm=  0.7371)  dis= 0.02367  next Energy=  -623.937577 (dE=-0.102E-01)
 bond charge predicted
       N       E                     dE             d eps       ncg     rms          rms(c)
DAV:   1    -0.615435272137E+03    0.68574E-02   -0.67561E+00  1428   0.596E+00    0.775E-01
RMM:   2    -0.615439410033E+03   -0.41379E-02   -0.11774E-01  1428   0.827E-01    0.434E-01
RMM:   3    -0.615437504232E+03    0.19058E-02   -0.75676E-03  1431   0.219E-01    0.188E-01
RMM:   4    -0.615437241726E+03    0.26251E-03   -0.17169E-03  1496   0.851E-02    0.395E-02
RMM:   5    -0.615437234953E+03    0.67736E-05   -0.10322E-04  1435   0.256E-02    0.184E-02
RMM:   6    -0.615437230253E+03    0.46995E-05   -0.34796E-05  1428   0.102E-02    0.521E-03
RMM:   7    -0.615437230114E+03    0.13875E-06   -0.30063E-06  1467   0.366E-03    0.262E-03
RMM:   8    -0.615437230080E+03    0.34081E-07   -0.94973E-07  1356   0.199E-03
 116 F= -.62393738E+03 E0= -.62393738E+03  d E =-.995479E-02
 curvature: -13.05 expect dE=-0.310E+00 dE for cont linesearch -0.132E-04
 trial: gam= 0.80884 g(F)=  0.230E-01 g(S)=  0.787E-03 ort =-0.991E-03 (trialstep = 0.468E+00)
 search vector abs. value=  0.657E+00
 bond charge predicted
       N       E                     dE             d eps       ncg     rms          rms(c)
DAV:   1    -0.615435689435E+03    0.15407E-02   -0.76477E+00  1428   0.623E+00    0.744E-01
RMM:   2    -0.615442372927E+03   -0.66835E-02   -0.12442E-01  1428   0.830E-01    0.440E-01
RMM:   3    -0.615440530631E+03    0.18423E-02   -0.75105E-03  1439   0.216E-01    0.189E-01
RMM:   4    -0.615440330510E+03    0.20012E-03   -0.19048E-03  1489   0.860E-02    0.348E-02
RMM:   5    -0.615440319154E+03    0.11357E-04   -0.10652E-04  1439   0.268E-02    0.171E-02
RMM:   6    -0.615440314889E+03    0.42648E-05   -0.35952E-05  1428   0.104E-02    0.489E-03
RMM:   7    -0.615440315040E+03   -0.15117E-06   -0.27105E-06  1475   0.351E-03    0.273E-03
RMM:   8    -0.615440315207E+03   -0.16714E-06   -0.85332E-07  1338   0.204E-03    0.107E-03
RMM:   9    -0.615440315176E+03    0.30879E-07   -0.15017E-07   893   0.973E-04
 117 F= -.62394435E+03 E0= -.62394435E+03  d E =-.696896E-02
 trial-energy change:   -0.006969  1 .order   -0.006989   -0.010745   -0.003233
 step:   0.6736(harm=  0.6688)  dis= 0.01696  next Energy=  -623.945058 (dE=-0.768E-02)
 bond charge predicted
       N       E                     dE             d eps       ncg     rms          rms(c)
DAV:   1    -0.615438359312E+03    0.19559E-02   -0.14854E+00  1464   0.275E+00    0.327E-01
RMM:   2    -0.615439662252E+03   -0.13029E-02   -0.24135E-02  1428   0.367E-01    0.194E-01
RMM:   3    -0.615439301247E+03    0.36100E-03   -0.14694E-03  1435   0.951E-02    0.824E-02
RMM:   4    -0.615439263946E+03    0.37301E-04   -0.36301E-04  1493   0.377E-02    0.154E-02
RMM:   5    -0.615439261568E+03    0.23787E-05   -0.21193E-05  1439   0.118E-02    0.745E-03
RMM:   6    -0.615439260759E+03    0.80870E-06   -0.66448E-06  1428   0.445E-03    0.219E-03
RMM:   7    -0.615439260804E+03   -0.44703E-07   -0.49312E-07  1170   0.154E-03
 118 F= -.62394504E+03 E0= -.62394504E+03  d E =-.766470E-02
 curvature:  -9.56 expect dE=-0.174E+00 dE for cont linesearch -0.602E-06
 trial: gam= 0.73335 g(F)=  0.175E-01 g(S)=  0.754E-03 ort =-0.203E-03 (trialstep = 0.509E+00)
 search vector abs. value=  0.371E+00
 bond charge predicted
       N       E                     dE             d eps       ncg     rms          rms(c)
DAV:   1    -0.615441281709E+03   -0.20209E-02   -0.50834E+00  1428   0.505E+00    0.575E-01
RMM:   2    -0.615446698632E+03   -0.54169E-02   -0.80361E-02  1428   0.653E-01    0.349E-01
RMM:   3    -0.615445629384E+03    0.10692E-02   -0.43543E-03  1438   0.164E-01    0.159E-01
RMM:   4    -0.615445530338E+03    0.99046E-04   -0.14168E-03  1490   0.696E-02    0.280E-02
RMM:   5    -0.615445512941E+03    0.17398E-04   -0.79468E-05  1431   0.216E-02    0.138E-02
RMM:   6    -0.615445511089E+03    0.18518E-05   -0.20218E-05  1438   0.778E-03    0.403E-03
RMM:   7    -0.615445511274E+03   -0.18555E-06   -0.19886E-06  1426   0.295E-03    0.204E-03
RMM:   8    -0.615445511414E+03   -0.14006E-06   -0.45749E-07  1151   0.135E-03    0.781E-04
RMM:   9    -0.615445511427E+03   -0.12653E-07   -0.80541E-08   882   0.738E-04
 119 F= -.62395146E+03 E0= -.62395146E+03  d E =-.641715E-02
 trial-energy change:   -0.006417  1 .order   -0.006420   -0.009190   -0.003649
 step:   0.8438(harm=  0.8438)  dis= 0.01711  next Energy=  -623.952664 (dE=-0.762E-02)
 bond charge predicted
       N       E                     dE             d eps       ncg     rms          rms(c)
DAV:   1    -0.615444720065E+03    0.79135E-03   -0.22038E+00  1428   0.333E+00    0.378E-01
RMM:   2    -0.615447066528E+03   -0.23465E-02   -0.34817E-02  1428   0.430E-01    0.230E-01
RMM:   3    -0.615446601307E+03    0.46522E-03   -0.18938E-03  1438   0.108E-01    0.104E-01
RMM:   4    -0.615446558522E+03    0.42785E-04   -0.60833E-04  1490   0.457E-02    0.185E-02
RMM:   5    -0.615446551092E+03    0.74301E-05   -0.34592E-05  1430   0.142E-02    0.910E-03
RMM:   6    -0.615446550361E+03    0.73128E-06   -0.86688E-06  1438   0.512E-03    0.267E-03
RMM:   7    -0.615446550462E+03   -0.10151E-06   -0.84288E-07  1294   0.194E-03    0.134E-03
RMM:   8    -0.615446550538E+03   -0.75968E-07   -0.18996E-07   887   0.940E-04
 120 F= -.62395265E+03 E0= -.62395265E+03  d E =-.760591E-02
 curvature:  -8.67 expect dE=-0.148E+00 dE for cont linesearch -0.822E-07
 trial: gam= 0.95424 g(F)=  0.164E-01 g(S)=  0.702E-03 ort =-0.593E-04 (trialstep = 0.576E+00)
 search vector abs. value=  0.355E+00
 bond charge predicted
       N       E                     dE             d eps       ncg     rms          rms(c)
DAV:   1    -0.615447241550E+03   -0.69109E-03   -0.58857E+00  1428   0.546E+00    0.610E-01
RMM:   2    -0.615453826623E+03   -0.65851E-02   -0.92373E-02  1428   0.698E-01    0.369E-01
RMM:   3    -0.615452720438E+03    0.11062E-02   -0.48175E-03  1433   0.172E-01    0.169E-01
RMM:   4    -0.615452644804E+03    0.75634E-04   -0.17033E-03  1493   0.763E-02    0.287E-02
RMM:   5    -0.615452621861E+03    0.22944E-04   -0.89915E-05  1435   0.228E-02    0.144E-02
RMM:   6    -0.615452619643E+03    0.22173E-05   -0.23217E-05  1439   0.843E-03    0.437E-03
RMM:   7    -0.615452619615E+03    0.28322E-07   -0.21439E-06  1425   0.309E-03    0.234E-03
RMM:   8    -0.615452619648E+03   -0.32942E-07   -0.78524E-07  1318   0.164E-03
 121 F= -.62395854E+03 E0= -.62395854E+03  d E =-.588948E-02
 trial-energy change:   -0.005889  1 .order   -0.005885   -0.009816   -0.001954
 step:   0.7188(harm=  0.7188)  dis= 0.01479  next Energy=  -623.958777 (dE=-0.613E-02)
 bond charge predicted
       N       E                     dE             d eps       ncg     rms          rms(c)
DAV:   1    -0.615452566266E+03    0.53349E-04   -0.36332E-01  1480   0.136E+00    0.152E-01
RMM:   2    -0.615452972933E+03   -0.40667E-03   -0.56981E-03  1428   0.173E-01    0.916E-02
RMM:   3    -0.615452904000E+03    0.68933E-04   -0.29948E-04  1434   0.429E-02    0.418E-02
RMM:   4    -0.615452898834E+03    0.51663E-05   -0.10394E-04  1492   0.189E-02    0.722E-03
RMM:   5    -0.615452897462E+03    0.13721E-05   -0.56587E-06  1435   0.567E-03    0.360E-03
RMM:   6    -0.615452897352E+03    0.10945E-06   -0.14014E-06  1378   0.208E-03    0.111E-03
RMM:   7    -0.615452897365E+03   -0.12686E-07   -0.11110E-07   882   0.776E-04
 122 F= -.62395878E+03 E0= -.62395878E+03  d E =-.613504E-02
 curvature:  -7.49 expect dE=-0.971E-01 dE for cont linesearch -0.508E-08
 trial: gam= 0.75117 g(F)=  0.126E-01 g(S)=  0.389E-03 ort =-0.155E-04 (trialstep = 0.604E+00)
 search vector abs. value=  0.213E+00
 bond charge predicted
       N       E                     dE             d eps       ncg     rms          rms(c)
DAV:   1    -0.615452424862E+03    0.47249E-03   -0.40208E+00  1428   0.453E+00    0.491E-01
RMM:   2    -0.615457149785E+03   -0.47249E-02   -0.64237E-02  1428   0.584E-01    0.296E-01
RMM:   3    -0.615456483979E+03    0.66581E-03   -0.32770E-03  1430   0.147E-01    0.138E-01
RMM:   4    -0.615456436652E+03    0.47327E-04   -0.11273E-03  1498   0.642E-02    0.230E-02
RMM:   5    -0.615456424519E+03    0.12133E-04   -0.52457E-05  1437   0.173E-02    0.116E-02
RMM:   6    -0.615456422471E+03    0.20478E-05   -0.15632E-05  1438   0.672E-03    0.368E-03
RMM:   7    -0.615456422604E+03   -0.13286E-06   -0.16440E-06  1389   0.259E-03    0.173E-03
RMM:   8    -0.615456422712E+03   -0.10838E-06   -0.31701E-07  1017   0.119E-03    0.683E-04
RMM:   9    -0.615456422705E+03    0.67412E-08   -0.84347E-08   882   0.829E-04
 123 F= -.62396401E+03 E0= -.62396401E+03  d E =-.522446E-02
 trial-energy change:   -0.005224  1 .order   -0.005217   -0.007828   -0.002607
 step:   0.9060(harm=  0.9060)  dis= 0.01496  next Energy=  -623.964652 (dE=-0.587E-02)
 bond charge predicted
       N       E                     dE             d eps       ncg     rms          rms(c)
DAV:   1    -0.615455206748E+03    0.12160E-02   -0.10017E+00  1440   0.226E+00    0.245E-01
RMM:   2    -0.615456385535E+03   -0.11788E-02   -0.16012E-02  1428   0.292E-01    0.148E-01
RMM:   3    -0.615456219609E+03    0.16593E-03   -0.81785E-04  1430   0.734E-02    0.690E-02
RMM:   4    -0.615456207652E+03    0.11957E-04   -0.27973E-04  1498   0.320E-02    0.116E-02
RMM:   5    -0.615456204551E+03    0.31017E-05   -0.13244E-05  1437   0.863E-03    0.580E-03
RMM:   6    -0.615456204034E+03    0.51705E-06   -0.37865E-06  1419   0.332E-03    0.186E-03
RMM:   7    -0.615456204081E+03   -0.46937E-07   -0.38030E-07  1093   0.129E-03
 124 F= -.62396466E+03 E0= -.62396466E+03  d E =-.587416E-02
 curvature:  -7.46 expect dE=-0.104E+00 dE for cont linesearch -0.687E-07
 trial: gam= 1.07574 g(F)=  0.132E-01 g(S)=  0.683E-03 ort =-0.443E-04 (trialstep = 0.544E+00)
 search vector abs. value=  0.261E+00
 bond charge predicted
       N       E                     dE             d eps       ncg     rms          rms(c)
DAV:   1    -0.615456741079E+03   -0.53705E-03   -0.41089E+00  1428   0.459E+00    0.484E-01
RMM:   2    -0.615461652509E+03   -0.49114E-02   -0.66170E-02  1428   0.586E-01    0.297E-01
RMM:   3    -0.615460962063E+03    0.69045E-03   -0.32703E-03  1436   0.146E-01    0.143E-01
RMM:   4    -0.615460918058E+03    0.44005E-04   -0.12439E-03  1492   0.651E-02    0.243E-02
RMM:   5    -0.615460899197E+03    0.18861E-04   -0.74105E-05  1432   0.193E-02    0.114E-02
RMM:   6    -0.615460898043E+03    0.11538E-05   -0.11235E-05  1451   0.629E-03    0.445E-03
RMM:   7    -0.615460898065E+03   -0.21784E-07   -0.21446E-06  1412   0.279E-03    0.174E-03
RMM:   8    -0.615460898137E+03   -0.72498E-07   -0.45356E-07  1135   0.127E-03
 125 F= -.62396950E+03 E0= -.62396950E+03  d E =-.484588E-02
 trial-energy change:   -0.004846  1 .order   -0.004831   -0.007534   -0.002129
 step:   0.7536(harm=  0.7582)  dis= 0.01472  next Energy=  -623.969915 (dE=-0.526E-02)
 bond charge predicted
       N       E                     dE             d eps       ncg     rms          rms(c)
DAV:   1    -0.615460630595E+03    0.26747E-03   -0.60956E-01  1464   0.177E+00    0.186E-01
RMM:   2    -0.615461360503E+03   -0.72991E-03   -0.98123E-03  1428   0.226E-01    0.114E-01
RMM:   3    -0.615461258888E+03    0.10161E-03   -0.48568E-04  1436   0.564E-02    0.550E-02
RMM:   4    -0.615461252168E+03    0.67206E-05   -0.18274E-04  1492   0.250E-02    0.932E-03
RMM:   5    -0.615461249352E+03    0.28153E-05   -0.10918E-05  1432   0.741E-03    0.436E-03
RMM:   6    -0.615461249159E+03    0.19364E-06   -0.16592E-06  1393   0.242E-03    0.172E-03
RMM:   7    -0.615461249165E+03   -0.66211E-08   -0.29503E-07  1003   0.109E-03
 126 F= -.62396993E+03 E0= -.62396993E+03  d E =-.526978E-02
 curvature:  -7.13 expect dE=-0.687E-01 dE for cont linesearch -0.731E-07
 trial: gam= 0.68228 g(F)=  0.936E-02 g(S)=  0.265E-03 ort = 0.517E-04 (trialstep = 0.586E+00)
 search vector abs. value=  0.131E+00
 bond charge predicted
       N       E                     dE             d eps       ncg     rms          rms(c)
DAV:   1    -0.615461995820E+03   -0.74666E-03   -0.24692E+00  1428   0.361E+00    0.398E-01
RMM:   2    -0.615465421423E+03   -0.34256E-02   -0.45136E-02  1428   0.480E-01    0.234E-01
RMM:   3    -0.615464955188E+03    0.46624E-03   -0.21015E-03  1437   0.122E-01    0.122E-01
RMM:   4    -0.615464894257E+03    0.60931E-04   -0.97205E-04  1480   0.578E-02    0.224E-02
RMM:   5    -0.615464879150E+03    0.15107E-04   -0.54132E-05  1433   0.160E-02    0.982E-03
RMM:   6    -0.615464878252E+03    0.89798E-06   -0.81028E-06  1453   0.541E-03    0.413E-03
RMM:   7    -0.615464878200E+03    0.52212E-07   -0.18132E-06  1416   0.258E-03    0.161E-03
RMM:   8    -0.615464878186E+03    0.14319E-07   -0.31040E-07  1034   0.109E-03
 127 F= -.62397291E+03 E0= -.62397291E+03  d E =-.297851E-02
 trial-energy change:   -0.002979  1 .order   -0.002966   -0.005661   -0.000271
 step:   0.6149(harm=  0.6153)  dis= 0.00889  next Energy=  -623.972913 (dE=-0.299E-02)
 bond charge predicted
       N       E                     dE             d eps       ncg     rms          rms(c)
DAV:   1    -0.615464910037E+03   -0.31837E-04   -0.60379E-03  1608   0.179E-01    0.197E-02
RMM:   2    -0.615464918356E+03   -0.83186E-05   -0.10930E-04  1428   0.236E-02    0.115E-02
RMM:   3    -0.615464917241E+03    0.11145E-05   -0.50591E-06  1437   0.597E-03    0.600E-03
RMM:   4    -0.615464917049E+03    0.19283E-06   -0.22608E-06  1431   0.282E-03    0.105E-03
RMM:   5    -0.615464917024E+03    0.24404E-07   -0.10447E-07   882   0.857E-04
 128 F= -.62397291E+03 E0= -.62397291E+03  d E =-.298598E-02
 curvature:  -4.17 expect dE=-0.289E-01 dE for cont linesearch -0.244E-09
 trial: gam= 0.72880 g(F)=  0.663E-02 g(S)=  0.303E-03 ort = 0.277E-05 (trialstep = 0.592E+00)
 search vector abs. value=  0.766E-01
 bond charge predicted
       N       E                     dE             d eps       ncg     rms          rms(c)
DAV:   1    -0.615465499806E+03   -0.58276E-03   -0.15981E+00  1440   0.293E+00    0.315E-01
RMM:   2    -0.615467737557E+03   -0.22378E-02   -0.30628E-02  1428   0.398E-01    0.186E-01
RMM:   3    -0.615467418027E+03    0.31953E-03   -0.13861E-03  1438   0.103E-01    0.102E-01
RMM:   4    -0.615467357326E+03    0.60701E-04   -0.67266E-04  1474   0.496E-02    0.200E-02
RMM:   5    -0.615467348297E+03    0.90289E-05   -0.46889E-05  1435   0.143E-02    0.842E-03
RMM:   6    -0.615467348025E+03    0.27169E-06   -0.39178E-06  1460   0.436E-03    0.418E-03
RMM:   7    -0.615467348114E+03   -0.88716E-07   -0.18535E-06  1413   0.236E-03    0.137E-03
RMM:   8    -0.615467348110E+03    0.38417E-08   -0.24912E-07   978   0.107E-03
 129 F= -.62397579E+03 E0= -.62397579E+03  d E =-.288054E-02
 trial-energy change:   -0.002881  1 .order   -0.002877   -0.004106   -0.001647
 step:   0.9881(harm=  0.9881)  dis= 0.01136  next Energy=  -623.976343 (dE=-0.343E-02)
 bond charge predicted
       N       E                     dE             d eps       ncg     rms          rms(c)
DAV:   1    -0.615466765820E+03    0.58229E-03   -0.71711E-01  1440   0.196E+00    0.211E-01
RMM:   2    -0.615467767512E+03   -0.10017E-02   -0.13711E-02  1428   0.266E-01    0.124E-01
RMM:   3    -0.615467624591E+03    0.14292E-03   -0.62121E-04  1438   0.687E-02    0.681E-02
RMM:   4    -0.615467597546E+03    0.27045E-04   -0.29931E-04  1474   0.331E-02    0.133E-02
RMM:   5    -0.615467593652E+03    0.38944E-05   -0.20611E-05  1435   0.950E-03    0.560E-03
RMM:   6    -0.615467593574E+03    0.77482E-07   -0.17474E-06  1446   0.290E-03    0.278E-03
RMM:   7    -0.615467593648E+03   -0.73713E-07   -0.81942E-07  1297   0.158E-03
 130 F= -.62397635E+03 E0= -.62397635E+03  d E =-.343719E-02
 curvature:  -5.45 expect dE=-0.518E-01 dE for cont linesearch -0.464E-08
 trial: gam= 1.36586 g(F)=  0.906E-02 g(S)=  0.441E-03 ort =-0.808E-05 (trialstep = 0.337E+00)
 search vector abs. value=  0.152E+00
 bond charge predicted
       N       E                     dE             d eps       ncg     rms          rms(c)
DAV:   1    -0.615467521115E+03    0.72459E-04   -0.10908E+00  1428   0.242E+00    0.271E-01
RMM:   2    -0.615468977937E+03   -0.14568E-02   -0.21476E-02  1428   0.337E-01    0.155E-01
RMM:   3    -0.615468726191E+03    0.25175E-03   -0.10210E-03  1434   0.879E-02    0.825E-02
RMM:   4    -0.615468677356E+03    0.48835E-04   -0.43017E-04  1475   0.412E-02    0.159E-02
RMM:   5    -0.615468673003E+03    0.43533E-05   -0.21950E-05  1439   0.107E-02    0.714E-03
RMM:   6    -0.615468672524E+03    0.47909E-06   -0.41410E-06  1479   0.383E-03    0.328E-03
RMM:   7    -0.615468672539E+03   -0.14756E-07   -0.87291E-07  1340   0.182E-03
 131 F= -.62397884E+03 E0= -.62397884E+03  d E =-.249154E-02
 trial-energy change:   -0.002492  1 .order   -0.002497   -0.003199   -0.001796
 step:   0.7961(harm=  0.7687)  dis= 0.01263  next Energy=  -623.980049 (dE=-0.370E-02)
 bond charge predicted
       N       E                     dE             d eps       ncg     rms          rms(c)
DAV:   1    -0.615465747719E+03    0.29248E-02   -0.20186E+00  1428   0.330E+00    0.369E-01
RMM:   2    -0.615468441279E+03   -0.26936E-02   -0.39762E-02  1428   0.458E-01    0.211E-01
RMM:   3    -0.615467975246E+03    0.46603E-03   -0.18884E-03  1434   0.120E-01    0.112E-01
RMM:   4    -0.615467884544E+03    0.90703E-04   -0.79715E-04  1475   0.560E-02    0.216E-02
RMM:   5    -0.615467876484E+03    0.80597E-05   -0.40565E-05  1439   0.145E-02    0.973E-03
RMM:   6    -0.615467875559E+03    0.92520E-06   -0.77567E-06  1479   0.523E-03    0.447E-03
RMM:   7    -0.615467875544E+03    0.14206E-07   -0.16245E-06  1417   0.248E-03    0.159E-03
RMM:   8    -0.615467875540E+03    0.42382E-08   -0.22564E-07   939   0.981E-04
 132 F= -.62397999E+03 E0= -.62397999E+03  d E =-.363624E-02
 curvature:  -6.15 expect dE=-0.449E-01 dE for cont linesearch -0.400E-05
 trial: gam= 0.80072 g(F)=  0.690E-02 g(S)=  0.398E-03 ort =-0.315E-03 (trialstep = 0.429E+00)
 search vector abs. value=  0.104E+00
 bond charge predicted
       N       E                     dE             d eps       ncg     rms          rms(c)
DAV:   1    -0.615467109832E+03    0.76571E-03   -0.12902E+00  1428   0.265E+00    0.300E-01
RMM:   2    -0.615468756034E+03   -0.16462E-02   -0.25603E-02  1428   0.372E-01    0.167E-01
RMM:   3    -0.615468416598E+03    0.33944E-03   -0.12071E-03  1434   0.957E-02    0.872E-02
RMM:   4    -0.615468341495E+03    0.75102E-04   -0.51052E-04  1474   0.455E-02    0.161E-02
RMM:   5    -0.615468338232E+03    0.32637E-05   -0.22057E-05  1451   0.110E-02    0.789E-03
RMM:   6    -0.615468338044E+03    0.18750E-06   -0.48625E-06  1452   0.434E-03    0.346E-03
RMM:   7    -0.615468338212E+03   -0.16818E-06   -0.72389E-07  1361   0.182E-03    0.119E-03
RMM:   8    -0.615468338248E+03   -0.35507E-07   -0.88934E-08   882   0.669E-04
 133 F= -.62398229E+03 E0= -.62398229E+03  d E =-.230160E-02
 trial-energy change:   -0.002302  1 .order   -0.002302   -0.003024   -0.001581
 step:   0.8990(harm=  0.8990)  dis= 0.01209  next Energy=  -623.983156 (dE=-0.317E-02)
 bond charge predicted
       N       E                     dE             d eps       ncg     rms          rms(c)
DAV:   1    -0.615465690338E+03    0.26479E-02   -0.15477E+00  1428   0.290E+00    0.328E-01
RMM:   2    -0.615467664705E+03   -0.19744E-02   -0.30727E-02  1428   0.408E-01    0.183E-01
RMM:   3    -0.615467256769E+03    0.40794E-03   -0.14494E-03  1434   0.105E-01    0.955E-02
RMM:   4    -0.615467166504E+03    0.90265E-04   -0.61287E-04  1474   0.498E-02    0.177E-02
RMM:   5    -0.615467162579E+03    0.39245E-05   -0.26502E-05  1452   0.120E-02    0.865E-03
RMM:   6    -0.615467162335E+03    0.24404E-06   -0.58096E-06  1451   0.474E-03    0.380E-03
RMM:   7    -0.615467162523E+03   -0.18811E-06   -0.86661E-07  1379   0.198E-03    0.130E-03
RMM:   8    -0.615467162564E+03   -0.40534E-07   -0.10451E-07   882   0.726E-04
 134 F= -.62398314E+03 E0= -.62398314E+03  d E =-.315592E-02
 curvature:  -6.66 expect dE=-0.592E-01 dE for cont linesearch -0.101E-07
 trial: gam= 1.16002 g(F)=  0.849E-02 g(S)=  0.402E-03 ort =-0.126E-04 (trialstep = 0.366E+00)
 search vector abs. value=  0.149E+00
 bond charge predicted
       N       E                     dE             d eps       ncg     rms          rms(c)
DAV:   1    -0.615467933141E+03   -0.77062E-03   -0.13271E+00  1428   0.267E+00    0.301E-01
RMM:   2    -0.615469543302E+03   -0.16102E-02   -0.25663E-02  1428   0.371E-01    0.173E-01
RMM:   3    -0.615469168155E+03    0.37515E-03   -0.12367E-03  1432   0.946E-02    0.879E-02
RMM:   4    -0.615469090336E+03    0.77818E-04   -0.49720E-04  1477   0.442E-02    0.168E-02
RMM:   5    -0.615469086557E+03    0.37789E-05   -0.30907E-05  1437   0.121E-02    0.760E-03
RMM:   6    -0.615469086485E+03    0.72720E-07   -0.31035E-06  1465   0.381E-03    0.401E-03
RMM:   7    -0.615469086603E+03   -0.11786E-06   -0.12402E-06  1382   0.203E-03    0.145E-03
RMM:   8    -0.615469086610E+03   -0.71377E-08   -0.26327E-07   976   0.102E-03
 135 F= -.62398572E+03 E0= -.62398572E+03  d E =-.257637E-02
 trial-energy change:   -0.002576  1 .order   -0.002578   -0.003245   -0.001911
 step:   0.8895(harm=  0.8895)  dis= 0.01303  next Energy=  -623.987090 (dE=-0.395E-02)
 bond charge predicted
       N       E                     dE             d eps       ncg     rms          rms(c)
DAV:   1    -0.615467127081E+03    0.19595E-02   -0.27238E+00  1428   0.383E+00    0.431E-01
RMM:   2    -0.615470431360E+03   -0.33043E-02   -0.52664E-02  1428   0.531E-01    0.248E-01
RMM:   3    -0.615469663239E+03    0.76812E-03   -0.25374E-03  1432   0.136E-01    0.126E-01
RMM:   4    -0.615469504135E+03    0.15910E-03   -0.10197E-03  1474   0.633E-02    0.240E-02
RMM:   5    -0.615469496235E+03    0.79004E-05   -0.64141E-05  1440   0.175E-02    0.109E-02
RMM:   6    -0.615469495999E+03    0.23659E-06   -0.64216E-06  1463   0.546E-03    0.577E-03
RMM:   7    -0.615469496168E+03   -0.16989E-06   -0.25390E-06  1425   0.290E-03    0.207E-03
RMM:   8    -0.615469496182E+03   -0.13119E-07   -0.55151E-07  1110   0.143E-03
 136 F= -.62398709E+03 E0= -.62398709E+03  d E =-.394551E-02
 curvature:  -7.49 expect dE=-0.515E-01 dE for cont linesearch -0.570E-09
 trial: gam= 0.80759 g(F)=  0.663E-02 g(S)=  0.244E-03 ort =-0.337E-05 (trialstep = 0.470E+00)
 search vector abs. value=  0.104E+00
 bond charge predicted
       N       E                     dE             d eps       ncg     rms          rms(c)
DAV:   1    -0.615469954928E+03   -0.45876E-03   -0.17522E+00  1440   0.307E+00    0.342E-01
RMM:   2    -0.615472153782E+03   -0.21989E-02   -0.34144E-02  1428   0.430E-01    0.193E-01
RMM:   3    -0.615471647583E+03    0.50620E-03   -0.15895E-03  1433   0.107E-01    0.102E-01
RMM:   4    -0.615471524958E+03    0.12262E-03   -0.72425E-04  1474   0.527E-02    0.191E-02
RMM:   5    -0.615471519679E+03    0.52791E-05   -0.37483E-05  1441   0.139E-02    0.901E-03
RMM:   6    -0.615471519550E+03    0.12966E-06   -0.46571E-06  1472   0.444E-03    0.472E-03
RMM:   7    -0.615471519621E+03   -0.70999E-07   -0.16672E-06  1406   0.242E-03    0.158E-03
RMM:   8    -0.615471519647E+03   -0.26335E-07   -0.26825E-07   985   0.108E-03
 137 F= -.62398923E+03 E0= -.62398923E+03  d E =-.214059E-02
 trial-energy change:   -0.002141  1 .order   -0.002139   -0.003232   -0.001046
 step:   0.6956(harm=  0.6956)  dis= 0.00858  next Energy=  -623.989478 (dE=-0.239E-02)
 bond charge predicted
       N       E                     dE             d eps       ncg     rms          rms(c)
DAV:   1    -0.615471351553E+03    0.16807E-03   -0.40133E-01  1464   0.147E+00    0.163E-01
RMM:   2    -0.615471854607E+03   -0.50305E-03   -0.78094E-03  1428   0.205E-01    0.922E-02
RMM:   3    -0.615471738482E+03    0.11612E-03   -0.36414E-04  1433   0.513E-02    0.486E-02
RMM:   4    -0.615471710240E+03    0.28243E-04   -0.16485E-04  1474   0.251E-02    0.911E-03
RMM:   5    -0.615471709121E+03    0.11192E-05   -0.85287E-06  1441   0.662E-03    0.431E-03
RMM:   6    -0.615471709120E+03    0.10477E-08   -0.10399E-06  1382   0.211E-03    0.224E-03
RMM:   7    -0.615471709154E+03   -0.34022E-07   -0.36831E-07  1003   0.120E-03
 138 F= -.62398948E+03 E0= -.62398948E+03  d E =-.239216E-02
 curvature:  -5.28 expect dE=-0.317E-01 dE for cont linesearch -0.190E-09
 trial: gam= 0.87253 g(F)=  0.575E-02 g(S)=  0.261E-03 ort =-0.194E-05 (trialstep = 0.515E+00)
 search vector abs. value=  0.854E-01
 bond charge predicted
       N       E                     dE             d eps       ncg     rms          rms(c)
DAV:   1    -0.615471693981E+03    0.15139E-04   -0.17399E+00  1428   0.306E+00    0.330E-01
RMM:   2    -0.615473942941E+03   -0.22490E-02   -0.33069E-02  1428   0.417E-01    0.188E-01
RMM:   3    -0.615473498552E+03    0.44439E-03   -0.15033E-03  1434   0.106E-01    0.102E-01
RMM:   4    -0.615473385351E+03    0.11320E-03   -0.67278E-04  1470   0.511E-02    0.207E-02
RMM:   5    -0.615473378845E+03    0.65056E-05   -0.45092E-05  1438   0.144E-02    0.911E-03
RMM:   6    -0.615473378511E+03    0.33415E-06   -0.36544E-06  1484   0.434E-03    0.509E-03
RMM:   7    -0.615473378355E+03    0.15561E-06   -0.21142E-06  1424   0.257E-03    0.165E-03
RMM:   8    -0.615473378307E+03    0.48691E-07   -0.38589E-07  1031   0.121E-03
 139 F= -.62399167E+03 E0= -.62399167E+03  d E =-.218945E-02
 trial-energy change:   -0.002189  1 .order   -0.002192   -0.003095   -0.001289
 step:   0.8831(harm=  0.8831)  dis= 0.00985  next Energy=  -623.992133 (dE=-0.265E-02)
 bond charge predicted
       N       E                     dE             d eps       ncg     rms          rms(c)
DAV:   1    -0.615472602095E+03    0.77626E-03   -0.88500E-01  1452   0.219E+00    0.235E-01
RMM:   2    -0.615473743847E+03   -0.11418E-02   -0.16782E-02  1428   0.297E-01    0.134E-01
RMM:   3    -0.615473518842E+03    0.22501E-03   -0.76353E-04  1434   0.755E-02    0.723E-02
RMM:   4    -0.615473461387E+03    0.57455E-04   -0.33947E-04  1471   0.363E-02    0.147E-02
RMM:   5    -0.615473458150E+03    0.32366E-05   -0.22555E-05  1438   0.102E-02    0.650E-03
RMM:   6    -0.615473457970E+03    0.18068E-06   -0.18526E-06  1480   0.308E-03    0.362E-03
RMM:   7    -0.615473457882E+03    0.88170E-07   -0.10750E-06  1361   0.184E-03    0.117E-03
RMM:   8    -0.615473457854E+03    0.27707E-07   -0.19671E-07   951   0.888E-04
 140 F= -.62399213E+03 E0= -.62399213E+03  d E =-.264975E-02
 curvature:  -6.28 expect dE=-0.435E-01 dE for cont linesearch -0.327E-09
 trial: gam= 1.15397 g(F)=  0.683E-02 g(S)=  0.858E-04 ort =-0.211E-05 (trialstep = 0.417E+00)
 search vector abs. value=  0.121E+00
 bond charge predicted
       N       E                     dE             d eps       ncg     rms          rms(c)
DAV:   1    -0.615473734955E+03   -0.27707E-03   -0.16134E+00  1428   0.295E+00    0.312E-01
RMM:   2    -0.615475691845E+03   -0.19569E-02   -0.30241E-02  1428   0.401E-01    0.182E-01
RMM:   3    -0.615475264936E+03    0.42691E-03   -0.13879E-03  1433   0.101E-01    0.988E-02
RMM:   4    -0.615475156170E+03    0.10877E-03   -0.64218E-04  1472   0.503E-02    0.207E-02
RMM:   5    -0.615475149576E+03    0.65932E-05   -0.51634E-05  1434   0.151E-02    0.872E-03
RMM:   6    -0.615475149412E+03    0.16460E-06   -0.37377E-06  1485   0.454E-03    0.515E-03
RMM:   7    -0.615475149443E+03   -0.31287E-07   -0.20691E-06  1406   0.249E-03    0.168E-03
RMM:   8    -0.615475149433E+03    0.10434E-07   -0.31453E-07  1006   0.116E-03
 141 F= -.62399418E+03 E0= -.62399418E+03  d E =-.204868E-02
 trial-energy change:   -0.002049  1 .order   -0.002048   -0.002885   -0.001211
 step:   0.7185(harm=  0.7185)  dis= 0.00882  next Energy=  -623.994616 (dE=-0.249E-02)
 bond charge predicted
       N       E                     dE             d eps       ncg     rms          rms(c)
DAV:   1    -0.615474583183E+03    0.56626E-03   -0.84373E-01  1452   0.213E+00    0.226E-01
RMM:   2    -0.615475605815E+03   -0.10226E-02   -0.15800E-02  1428   0.290E-01    0.132E-01
RMM:   3    -0.615475382462E+03    0.22335E-03   -0.72604E-04  1433   0.733E-02    0.714E-02
RMM:   4    -0.615475325663E+03    0.56799E-04   -0.33447E-04  1472   0.363E-02    0.149E-02
RMM:   5    -0.615475322349E+03    0.33133E-05   -0.26828E-05  1434   0.109E-02    0.629E-03
RMM:   6    -0.615475322286E+03    0.63148E-07   -0.19440E-06  1480   0.327E-03    0.371E-03
RMM:   7    -0.615475322320E+03   -0.33964E-07   -0.10866E-06  1348   0.181E-03    0.122E-03
RMM:   8    -0.615475322315E+03    0.51150E-08   -0.16292E-07   921   0.867E-04
 142 F= -.62399462E+03 E0= -.62399462E+03  d E =-.248841E-02
 curvature:  -6.27 expect dE=-0.269E-01 dE for cont linesearch -0.142E-08
 trial: gam= 0.62000 g(F)=  0.421E-02 g(S)=  0.758E-04 ort =-0.523E-05 (trialstep = 0.477E+00)
 search vector abs. value=  0.507E-01
 bond charge predicted
       N       E                     dE             d eps       ncg     rms          rms(c)
DAV:   1    -0.615474672135E+03    0.65019E-03   -0.94473E-01  1428   0.225E+00    0.254E-01
RMM:   2    -0.615475856318E+03   -0.11842E-02   -0.18318E-02  1428   0.310E-01    0.138E-01
RMM:   3    -0.615475598887E+03    0.25743E-03   -0.81505E-04  1435   0.784E-02    0.769E-02
RMM:   4    -0.615475528809E+03    0.70078E-04   -0.40407E-04  1471   0.391E-02    0.160E-02
RMM:   5    -0.615475525220E+03    0.35890E-05   -0.25387E-05  1438   0.108E-02    0.677E-03
RMM:   6    -0.615475525299E+03   -0.79075E-07   -0.22010E-06  1474   0.324E-03    0.376E-03
RMM:   7    -0.615475525435E+03   -0.13552E-06   -0.11192E-06  1356   0.186E-03    0.120E-03
RMM:   8    -0.615475525406E+03    0.28289E-07   -0.19939E-07   963   0.925E-04
 143 F= -.62399615E+03 E0= -.62399615E+03  d E =-.152976E-02
 trial-energy change:   -0.001530  1 .order   -0.001526   -0.002046   -0.001005
 step:   0.9178(harm=  0.9383)  dis= 0.00609  next Energy=  -623.996616 (dE=-0.200E-02)
 bond charge predicted
       N       E                     dE             d eps       ncg     rms          rms(c)
DAV:   1    -0.615474057843E+03    0.14676E-02   -0.80505E-01  1452   0.208E+00    0.234E-01
RMM:   2    -0.615475065504E+03   -0.10077E-02   -0.15592E-02  1428   0.286E-01    0.127E-01
RMM:   3    -0.615474846633E+03    0.21887E-03   -0.69477E-04  1436   0.723E-02    0.709E-02
RMM:   4    -0.615474787060E+03    0.59573E-04   -0.34274E-04  1471   0.360E-02    0.147E-02
RMM:   5    -0.615474784058E+03    0.30016E-05   -0.21341E-05  1437   0.992E-03    0.624E-03
RMM:   6    -0.615474784146E+03   -0.87355E-07   -0.18817E-06  1475   0.299E-03    0.346E-03
RMM:   7    -0.615474784272E+03   -0.12619E-06   -0.94868E-07  1331   0.172E-03    0.111E-03
RMM:   8    -0.615474784246E+03    0.25673E-07   -0.16670E-07   932   0.865E-04
 144 F= -.62399664E+03 E0= -.62399664E+03  d E =-.202029E-02
 curvature:  -5.53 expect dE=-0.275E-01 dE for cont linesearch -0.996E-06
 trial: gam= 1.13634 g(F)=  0.484E-02 g(S)=  0.134E-03 ort = 0.955E-04 (trialstep = 0.406E+00)
 search vector abs. value=  0.706E-01
 bond charge predicted
       N       E                     dE             d eps       ncg     rms          rms(c)
DAV:   1    -0.615473073068E+03    0.17112E-02   -0.94395E-01  1428   0.226E+00    0.260E-01
RMM:   2    -0.615474218733E+03   -0.11457E-02   -0.19106E-02  1428   0.320E-01    0.144E-01
RMM:   3    -0.615473940187E+03    0.27855E-03   -0.88380E-04  1435   0.815E-02    0.783E-02
RMM:   4    -0.615473863721E+03    0.76466E-04   -0.37308E-04  1473   0.390E-02    0.158E-02
RMM:   5    -0.615473860712E+03    0.30091E-05   -0.23161E-05  1444   0.105E-02    0.683E-03
RMM:   6    -0.615473860546E+03    0.16554E-06   -0.23116E-06  1474   0.320E-03    0.373E-03
RMM:   7    -0.615473860486E+03    0.60547E-07   -0.11726E-06  1391   0.193E-03    0.122E-03
RMM:   8    -0.615473860421E+03    0.64523E-07   -0.23866E-07   985   0.975E-04
 145 F= -.62399807E+03 E0= -.62399807E+03  d E =-.142843E-02
 trial-energy change:   -0.001428  1 .order   -0.001436   -0.002062   -0.000810
 step:   0.6855(harm=  0.6680)  dis= 0.00534  next Energy=  -623.998345 (dE=-0.171E-02)
 bond charge predicted
       N       E                     dE             d eps       ncg     rms          rms(c)
DAV:   1    -0.615472117859E+03    0.17426E-02   -0.44928E-01  1464   0.156E+00    0.179E-01
RMM:   2    -0.615472662068E+03   -0.54421E-03   -0.90835E-03  1428   0.221E-01    0.996E-02
RMM:   3    -0.615472529873E+03    0.13220E-03   -0.42085E-04  1436   0.562E-02    0.540E-02
RMM:   4    -0.615472493813E+03    0.36060E-04   -0.17692E-04  1474   0.268E-02    0.108E-02
RMM:   5    -0.615472492426E+03    0.13873E-05   -0.10923E-05  1442   0.722E-03    0.470E-03
RMM:   6    -0.615472492369E+03    0.56440E-07   -0.10930E-06  1432   0.221E-03    0.256E-03
RMM:   7    -0.615472492352E+03    0.16960E-07   -0.55155E-07  1197   0.135E-03
 146 F= -.62399833E+03 E0= -.62399833E+03  d E =-.168834E-02
 curvature:  -4.62 expect dE=-0.177E-01 dE for cont linesearch -0.122E-05
 trial: gam= 0.83838 g(F)=  0.379E-02 g(S)=  0.498E-04 ort =-0.137E-03 (trialstep = 0.462E+00)
 search vector abs. value=  0.532E-01
 bond charge predicted
       N       E                     dE             d eps       ncg     rms          rms(c)
DAV:   1    -0.615470691583E+03    0.18008E-02   -0.88317E-01  1428   0.219E+00    0.263E-01
RMM:   2    -0.615471746687E+03   -0.10551E-02   -0.18083E-02  1428   0.315E-01    0.143E-01
RMM:   3    -0.615471452606E+03    0.29408E-03   -0.81844E-04  1432   0.780E-02    0.739E-02
RMM:   4    -0.615471377465E+03    0.75141E-04   -0.32586E-04  1471   0.372E-02    0.136E-02
RMM:   5    -0.615471375806E+03    0.16591E-05   -0.17370E-05  1447   0.937E-03    0.630E-03
RMM:   6    -0.615471375821E+03   -0.14610E-07   -0.20617E-06  1480   0.300E-03    0.324E-03
RMM:   7    -0.615471375879E+03   -0.58284E-07   -0.66390E-07  1292   0.159E-03
 147 F= -.62399960E+03 E0= -.62399960E+03  d E =-.127233E-02
 trial-energy change:   -0.001272  1 .order   -0.001272   -0.001718   -0.000825
 step:   0.8886(harm=  0.8886)  dis= 0.00640  next Energy=  -623.999981 (dE=-0.165E-02)
 bond charge predicted
       N       E                     dE             d eps       ncg     rms          rms(c)
DAV:   1    -0.615468955329E+03    0.24205E-02   -0.75557E-01  1428   0.203E+00    0.243E-01
RMM:   2    -0.615469856982E+03   -0.90165E-03   -0.15468E-02  1428   0.291E-01    0.132E-01
RMM:   3    -0.615469605215E+03    0.25177E-03   -0.70098E-04  1432   0.722E-02    0.684E-02
RMM:   4    -0.615469540951E+03    0.64264E-04   -0.27895E-04  1470   0.344E-02    0.126E-02
RMM:   5    -0.615469539542E+03    0.14086E-05   -0.14937E-05  1449   0.869E-03    0.583E-03
RMM:   6    -0.615469539558E+03   -0.15971E-07   -0.17723E-06  1478   0.277E-03    0.300E-03
RMM:   7    -0.615469539611E+03   -0.52536E-07   -0.56413E-07  1232   0.148E-03
 148 F= -.62399998E+03 E0= -.62399998E+03  d E =-.165310E-02
 curvature:  -6.36 expect dE=-0.259E-01 dE for cont linesearch -0.443E-09
 trial: gam= 0.97470 g(F)=  0.397E-02 g(S)=  0.101E-03 ort =-0.193E-05 (trialstep = 0.533E+00)
 search vector abs. value=  0.546E-01
 bond charge predicted
       N       E                     dE             d eps       ncg     rms          rms(c)
DAV:   1    -0.615468458314E+03    0.10812E-02   -0.11949E+00  1428   0.254E+00    0.290E-01
RMM:   2    -0.615469987547E+03   -0.15292E-02   -0.24225E-02  1428   0.362E-01    0.164E-01
RMM:   3    -0.615469591581E+03    0.39597E-03   -0.11203E-03  1431   0.901E-02    0.841E-02
RMM:   4    -0.615469500958E+03    0.90624E-04   -0.43111E-04  1474   0.416E-02    0.160E-02
RMM:   5    -0.615469498984E+03    0.19735E-05   -0.23040E-05  1447   0.110E-02    0.764E-03
RMM:   6    -0.615469499122E+03   -0.13764E-06   -0.29106E-06  1468   0.348E-03    0.366E-03
RMM:   7    -0.615469499227E+03   -0.10558E-06   -0.79757E-07  1324   0.175E-03    0.107E-03
RMM:   8    -0.615469499211E+03    0.16662E-07   -0.11822E-07   884   0.791E-04
 149 F= -.62400147E+03 E0= -.62400147E+03  d E =-.148739E-02
 trial-energy change:   -0.001487  1 .order   -0.001493   -0.002169   -0.000817
 step:   0.8680(harm=  0.8549)  dis= 0.00617  next Energy=  -624.001724 (dE=-0.174E-02)
 bond charge predicted
       N       E                     dE             d eps       ncg     rms          rms(c)
DAV:   1    -0.615468365185E+03    0.11340E-02   -0.47229E-01  1452   0.160E+00    0.182E-01
RMM:   2    -0.615468968109E+03   -0.60292E-03   -0.95557E-03  1428   0.227E-01    0.103E-01
RMM:   3    -0.615468811877E+03    0.15623E-03   -0.44208E-04  1431   0.566E-02    0.527E-02
RMM:   4    -0.615468776313E+03    0.35564E-04   -0.16906E-04  1474   0.261E-02    0.998E-03
RMM:   5    -0.615468775667E+03    0.64570E-06   -0.89359E-06  1447   0.687E-03    0.479E-03
RMM:   6    -0.615468775774E+03   -0.10726E-06   -0.11426E-06  1422   0.218E-03    0.227E-03
RMM:   7    -0.615468775832E+03   -0.57877E-07   -0.29328E-07   980   0.111E-03
 150 F= -.62400171E+03 E0= -.62400171E+03  d E =-.173015E-02
 curvature:  -5.73 expect dE=-0.220E-01 dE for cont linesearch -0.559E-06
 trial: gam= 0.98487 g(F)=  0.380E-02 g(S)=  0.466E-04 ort =-0.730E-04 (trialstep = 0.578E+00)
 search vector abs. value=  0.567E-01
 bond charge predicted
       N       E                     dE             d eps       ncg     rms          rms(c)
DAV:   1    -0.615467714747E+03    0.10610E-02   -0.13964E+00  1428   0.275E+00    0.311E-01
RMM:   2    -0.615469475284E+03   -0.17605E-02   -0.27563E-02  1428   0.387E-01    0.176E-01
RMM:   3    -0.615469046652E+03    0.42863E-03   -0.12699E-03  1433   0.952E-02    0.897E-02
RMM:   4    -0.615468947218E+03    0.99434E-04   -0.47739E-04  1474   0.442E-02    0.158E-02
RMM:   5    -0.615468945341E+03    0.18776E-05   -0.24370E-05  1450   0.112E-02    0.785E-03
RMM:   6    -0.615468945464E+03   -0.12334E-06   -0.36475E-06  1466   0.373E-03    0.359E-03
RMM:   7    -0.615468945553E+03   -0.89043E-07   -0.82609E-07  1330   0.178E-03
 151 F= -.62400314E+03 E0= -.62400314E+03  d E =-.143058E-02
 trial-energy change:   -0.001431  1 .order   -0.001430   -0.002180   -0.000681
 step:   0.8407(harm=  0.8407)  dis= 0.00620  next Energy=  -624.003296 (dE=-0.158E-02)
 bond charge predicted
       N       E                     dE             d eps       ncg     rms          rms(c)
DAV:   1    -0.615468270855E+03    0.67461E-03   -0.28785E-01  1464   0.125E+00    0.141E-01
RMM:   2    -0.615468632578E+03   -0.36172E-03   -0.56730E-03  1428   0.176E-01    0.798E-02
RMM:   3    -0.615468543865E+03    0.88714E-04   -0.26222E-04  1433   0.433E-02    0.406E-02
RMM:   4    -0.615468523505E+03    0.20359E-04   -0.98142E-05  1475   0.200E-02    0.716E-03
RMM:   5    -0.615468523268E+03    0.23774E-06   -0.49927E-06  1451   0.508E-03    0.356E-03
RMM:   6    -0.615468523359E+03   -0.91994E-07   -0.73599E-07  1313   0.169E-03
 152 F= -.62400330E+03 E0= -.62400330E+03  d E =-.158510E-02
 curvature:  -6.32 expect dE=-0.233E-01 dE for cont linesearch -0.409E-08
 trial: gam= 0.92317 g(F)=  0.358E-02 g(S)=  0.106E-03 ort =-0.605E-05 (trialstep = 0.631E+00)
 search vector abs. value=  0.520E-01
 bond charge predicted
       N       E                     dE             d eps       ncg     rms          rms(c)
DAV:   1    -0.615466709810E+03    0.18135E-02   -0.14637E+00  1428   0.282E+00    0.312E-01
RMM:   2    -0.615468515079E+03   -0.18053E-02   -0.27348E-02  1428   0.388E-01    0.177E-01
RMM:   3    -0.615468136123E+03    0.37896E-03   -0.12794E-03  1435   0.961E-02    0.896E-02
RMM:   4    -0.615468051792E+03    0.84331E-04   -0.45542E-04  1483   0.433E-02    0.154E-02
RMM:   5    -0.615468049684E+03    0.21080E-05   -0.19815E-05  1454   0.105E-02    0.782E-03
RMM:   6    -0.615468049341E+03    0.34276E-06   -0.35521E-06  1448   0.364E-03    0.304E-03
RMM:   7    -0.615468049325E+03    0.16458E-07   -0.65632E-07  1254   0.164E-03
 153 F= -.62400479E+03 E0= -.62400479E+03  d E =-.148973E-02
 trial-energy change:   -0.001490  1 .order   -0.001485   -0.002319   -0.000651
 step:   0.8712(harm=  0.8768)  dis= 0.00654  next Energy=  -624.004911 (dE=-0.161E-02)
 bond charge predicted
       N       E                     dE             d eps       ncg     rms          rms(c)
DAV:   1    -0.615467226323E+03    0.82302E-03   -0.21298E-01  1480   0.107E+00    0.119E-01
RMM:   2    -0.615467488667E+03   -0.26234E-03   -0.39741E-03  1428   0.148E-01    0.674E-02
RMM:   3    -0.615467433627E+03    0.55039E-04   -0.18650E-04  1436   0.366E-02    0.341E-02
RMM:   4    -0.615467421628E+03    0.11999E-04   -0.66064E-05  1485   0.165E-02    0.586E-03
RMM:   5    -0.615467421331E+03    0.29700E-06   -0.28619E-06  1451   0.397E-03    0.296E-03
RMM:   6    -0.615467421285E+03    0.46297E-07   -0.49505E-07  1197   0.139E-03
 154 F= -.62400491E+03 E0= -.62400491E+03  d E =-.161412E-02
 curvature:  -6.20 expect dE=-0.269E-01 dE for cont linesearch -0.633E-07
 trial: gam= 1.18849 g(F)=  0.423E-02 g(S)=  0.108E-03 ort = 0.230E-04 (trialstep = 0.453E+00)
 search vector abs. value=  0.778E-01
 bond charge predicted
       N       E                     dE             d eps       ncg     rms          rms(c)
DAV:   1    -0.615467147076E+03    0.27426E-03   -0.10352E+00  1428   0.236E+00    0.255E-01
RMM:   2    -0.615468418902E+03   -0.12718E-02   -0.18121E-02  1428   0.316E-01    0.147E-01
RMM:   3    -0.615468184166E+03    0.23474E-03   -0.84527E-04  1435   0.778E-02    0.734E-02
RMM:   4    -0.615468136581E+03    0.47586E-04   -0.29493E-04  1479   0.348E-02    0.123E-02
RMM:   5    -0.615468134769E+03    0.18114E-05   -0.14457E-05  1444   0.905E-03    0.613E-03
RMM:   6    -0.615468134566E+03    0.20342E-06   -0.23375E-06  1465   0.300E-03    0.258E-03
RMM:   7    -0.615468134504E+03    0.61780E-07   -0.42226E-07  1120   0.134E-03
 155 F= -.62400634E+03 E0= -.62400634E+03  d E =-.143160E-02
 trial-energy change:   -0.001432  1 .order   -0.001421   -0.001981   -0.000862
 step:   0.7723(harm=  0.8027)  dis= 0.00758  next Energy=  -624.006649 (dE=-0.174E-02)
 bond charge predicted
       N       E                     dE             d eps       ncg     rms          rms(c)
DAV:   1    -0.615467470177E+03    0.66439E-03   -0.51215E-01  1428   0.166E+00    0.179E-01
RMM:   2    -0.615468098900E+03   -0.62872E-03   -0.89603E-03  1428   0.222E-01    0.104E-01
RMM:   3    -0.615467982708E+03    0.11619E-03   -0.41951E-04  1439   0.547E-02    0.516E-02
RMM:   4    -0.615467959089E+03    0.23620E-04   -0.14478E-04  1476   0.242E-02    0.865E-03
RMM:   5    -0.615467958191E+03    0.89755E-06   -0.70737E-06  1444   0.633E-03    0.430E-03
RMM:   6    -0.615467958077E+03    0.11407E-06   -0.11618E-06  1401   0.211E-03    0.179E-03
RMM:   7    -0.615467958038E+03    0.39094E-07   -0.19682E-07   899   0.957E-04
 156 F= -.62400668E+03 E0= -.62400668E+03  d E =-.176582E-02
 curvature:  -7.10 expect dE=-0.324E-01 dE for cont linesearch -0.257E-05
 trial: gam= 1.02795 g(F)=  0.431E-02 g(S)=  0.250E-03 ort = 0.168E-03 (trialstep = 0.462E+00)
 search vector abs. value=  0.872E-01
 bond charge predicted
       N       E                     dE             d eps       ncg     rms          rms(c)
DAV:   1    -0.615469936267E+03   -0.19782E-02   -0.11678E+00  1428   0.252E+00    0.269E-01
RMM:   2    -0.615471385245E+03   -0.14490E-02   -0.20702E-02  1428   0.342E-01    0.155E-01
RMM:   3    -0.615471140195E+03    0.24505E-03   -0.10010E-03  1438   0.841E-02    0.779E-02
RMM:   4    -0.615471089568E+03    0.50627E-04   -0.33808E-04  1483   0.370E-02    0.139E-02
RMM:   5    -0.615471087192E+03    0.23765E-05   -0.17676E-05  1437   0.964E-03    0.635E-03
RMM:   6    -0.615471086933E+03    0.25858E-06   -0.27619E-06  1461   0.321E-03    0.283E-03
RMM:   7    -0.615471086834E+03    0.98960E-07   -0.57845E-07  1219   0.152E-03
 157 F= -.62400838E+03 E0= -.62400838E+03  d E =-.170832E-02
 trial-energy change:   -0.001708  1 .order   -0.001699   -0.002188   -0.001209
 step:   0.9690(harm=  1.0329)  dis= 0.01055  next Energy=  -624.009061 (dE=-0.239E-02)
 bond charge predicted
       N       E                     dE             d eps       ncg     rms          rms(c)
DAV:   1    -0.615471996189E+03   -0.90926E-03   -0.14080E+00  1428   0.276E+00    0.295E-01
RMM:   2    -0.615473745178E+03   -0.17490E-02   -0.24963E-02  1428   0.375E-01    0.170E-01
RMM:   3    -0.615473449975E+03    0.29520E-03   -0.12083E-03  1439   0.924E-02    0.856E-02
RMM:   4    -0.615473388925E+03    0.61050E-04   -0.40750E-04  1482   0.405E-02    0.153E-02
RMM:   5    -0.615473386019E+03    0.29055E-05   -0.21387E-05  1436   0.106E-02    0.698E-03
RMM:   6    -0.615473385698E+03    0.32086E-06   -0.33440E-06  1463   0.354E-03    0.312E-03
RMM:   7    -0.615473385579E+03    0.11928E-06   -0.71322E-07  1274   0.167E-03    0.106E-03
RMM:   8    -0.615473385532E+03    0.46915E-07   -0.11818E-07   882   0.739E-04
 158 F= -.62400914E+03 E0= -.62400914E+03  d E =-.245878E-02
 curvature:  -9.39 expect dE=-0.445E-01 dE for cont linesearch -0.100E-04
 trial: gam= 1.05348 g(F)=  0.464E-02 g(S)=  0.108E-03 ort = 0.305E-03 (trialstep = 0.481E+00)
 search vector abs. value=  0.102E+00
 bond charge predicted
       N       E                     dE             d eps       ncg     rms          rms(c)
DAV:   1    -0.615476710457E+03   -0.33249E-02   -0.14689E+00  1428   0.283E+00    0.306E-01
RMM:   2    -0.615478369966E+03   -0.16595E-02   -0.25881E-02  1428   0.384E-01    0.173E-01
RMM:   3    -0.615478076158E+03    0.29381E-03   -0.12962E-03  1435   0.966E-02    0.850E-02
RMM:   4    -0.615478018061E+03    0.58096E-04   -0.39319E-04  1487   0.408E-02    0.161E-02
RMM:   5    -0.615478015887E+03    0.21743E-05   -0.18978E-05  1440   0.103E-02    0.749E-03
RMM:   6    -0.615478015140E+03    0.74691E-06   -0.42352E-06  1438   0.378E-03    0.278E-03
RMM:   7    -0.615478014996E+03    0.14436E-06   -0.62108E-07  1246   0.165E-03    0.103E-03
RMM:   8    -0.615478014963E+03    0.32727E-07   -0.12111E-07   882   0.740E-04
 159 F= -.62401104E+03 E0= -.62401104E+03  d E =-.190212E-02
 trial-energy change:   -0.001902  1 .order   -0.001888   -0.002436   -0.001340
 step:   0.9886(harm=  1.0685)  dis= 0.01154  next Energy=  -624.011761 (dE=-0.263E-02)
 bond charge predicted
       N       E                     dE             d eps       ncg     rms          rms(c)
DAV:   1    -0.615480239869E+03   -0.22249E-02   -0.16383E+00  1428   0.299E+00    0.323E-01
RMM:   2    -0.615482092706E+03   -0.18528E-02   -0.28863E-02  1428   0.406E-01    0.182E-01
RMM:   3    -0.615481764968E+03    0.32774E-03   -0.14447E-03  1435   0.102E-01    0.898E-02
RMM:   4    -0.615481700342E+03    0.64626E-04   -0.43938E-04  1488   0.432E-02    0.170E-02
RMM:   5    -0.615481697916E+03    0.24263E-05   -0.21150E-05  1439   0.109E-02    0.791E-03
RMM:   6    -0.615481697100E+03    0.81591E-06   -0.47066E-06  1438   0.399E-03    0.293E-03
RMM:   7    -0.615481696946E+03    0.15376E-06   -0.70879E-07  1311   0.174E-03    0.109E-03
RMM:   8    -0.615481696908E+03    0.38330E-07   -0.12684E-07   882   0.744E-04
 160 F= -.62401185E+03 E0= -.62401185E+03  d E =-.271809E-02
 curvature: -10.57 expect dE=-0.594E-01 dE for cont linesearch -0.153E-04
 trial: gam= 1.19908 g(F)=  0.560E-02 g(S)=  0.199E-04 ort = 0.385E-03 (trialstep = 0.388E+00)
 search vector abs. value=  0.153E+00
 bond charge predicted
       N       E                     dE             d eps       ncg     rms          rms(c)
DAV:   1    -0.615485420477E+03   -0.37235E-02   -0.13546E+00  1428   0.272E+00    0.301E-01
RMM:   2    -0.615486891682E+03   -0.14712E-02   -0.24023E-02  1428   0.368E-01    0.168E-01
RMM:   3    -0.615486622420E+03    0.26926E-03   -0.12324E-03  1436   0.950E-02    0.833E-02
RMM:   4    -0.615486573267E+03    0.49153E-04   -0.36862E-04  1491   0.396E-02    0.170E-02
RMM:   5    -0.615486571092E+03    0.21753E-05   -0.17421E-05  1439   0.989E-03    0.793E-03
RMM:   6    -0.615486570158E+03    0.93433E-06   -0.47506E-06  1431   0.396E-03    0.251E-03
RMM:   7    -0.615486570025E+03    0.13290E-06   -0.52653E-07  1213   0.164E-03    0.995E-04
RMM:   8    -0.615486570001E+03    0.24127E-07   -0.12233E-07   882   0.725E-04
 161 F= -.62401375E+03 E0= -.62401375E+03  d E =-.189283E-02
 trial-energy change:   -0.001893  1 .order   -0.001880   -0.002358   -0.001403
 step:   0.8714(harm=  0.9574)  dis= 0.01291  next Energy=  -624.014645 (dE=-0.279E-02)
 bond charge predicted
       N       E                     dE             d eps       ncg     rms          rms(c)
DAV:   1    -0.615489500764E+03   -0.29307E-02   -0.21075E+00  1428   0.339E+00    0.375E-01
RMM:   2    -0.615491794754E+03   -0.22940E-02   -0.37367E-02  1428   0.459E-01    0.210E-01
RMM:   3    -0.615491375741E+03    0.41901E-03   -0.19164E-03  1436   0.118E-01    0.104E-01
RMM:   4    -0.615491299581E+03    0.76160E-04   -0.57329E-04  1491   0.494E-02    0.212E-02
RMM:   5    -0.615491296329E+03    0.32525E-05   -0.27141E-05  1437   0.123E-02    0.985E-03
RMM:   6    -0.615491294985E+03    0.13436E-05   -0.73691E-06  1432   0.495E-03    0.315E-03
RMM:   7    -0.615491294807E+03    0.17828E-06   -0.86249E-07  1370   0.205E-03    0.125E-03
RMM:   8    -0.615491294767E+03    0.39938E-07   -0.16478E-07   885   0.827E-04
 162 F= -.62401477E+03 E0= -.62401477E+03  d E =-.291861E-02
 curvature: -11.80 expect dE=-0.709E-01 dE for cont linesearch -0.241E-04
 trial: gam= 1.06742 g(F)=  0.583E-02 g(S)=  0.186E-03 ort = 0.560E-03 (trialstep = 0.408E+00)
 search vector abs. value=  0.182E+00
 bond charge predicted
       N       E                     dE             d eps       ncg     rms          rms(c)
DAV:   1    -0.615496048044E+03   -0.47532E-02   -0.18178E+00  1428   0.315E+00    0.346E-01
RMM:   2    -0.615497959395E+03   -0.19114E-02   -0.32272E-02  1428   0.426E-01    0.193E-01
RMM:   3    -0.615497614760E+03    0.34464E-03   -0.16910E-03  1440   0.111E-01    0.938E-02
RMM:   4    -0.615497552130E+03    0.62630E-04   -0.46043E-04  1483   0.450E-02    0.194E-02
RMM:   5    -0.615497550015E+03    0.21151E-05   -0.24142E-05  1447   0.115E-02    0.886E-03
RMM:   6    -0.615497548827E+03    0.11875E-05   -0.62529E-06  1429   0.459E-03    0.295E-03
RMM:   7    -0.615497548637E+03    0.18972E-06   -0.79605E-07  1349   0.197E-03    0.115E-03
RMM:   8    -0.615497548590E+03    0.47243E-07   -0.15895E-07   883   0.796E-04
 163 F= -.62401696E+03 E0= -.62401696E+03  d E =-.218784E-02
 trial-energy change:   -0.002188  1 .order   -0.002167   -0.002699   -0.001634
 step:   0.9046(harm=  1.0352)  dis= 0.01455  next Energy=  -624.017990 (dE=-0.322E-02)
 bond charge predicted
       N       E                     dE             d eps       ncg     rms          rms(c)
DAV:   1    -0.615501468935E+03   -0.39203E-02   -0.26847E+00  1428   0.383E+00    0.420E-01
RMM:   2    -0.615504298110E+03   -0.28292E-02   -0.47640E-02  1428   0.518E-01    0.235E-01
RMM:   3    -0.615503788967E+03    0.50914E-03   -0.24950E-03  1440   0.135E-01    0.114E-01
RMM:   4    -0.615503696706E+03    0.92261E-04   -0.67908E-04  1483   0.546E-02    0.236E-02
RMM:   5    -0.615503693680E+03    0.30259E-05   -0.35690E-05  1447   0.140E-02    0.107E-02
RMM:   6    -0.615503692014E+03    0.16660E-05   -0.91368E-06  1429   0.555E-03    0.358E-03
RMM:   7    -0.615503691763E+03    0.25109E-06   -0.11935E-06  1418   0.238E-03    0.141E-03
RMM:   8    -0.615503691696E+03    0.66684E-07   -0.22435E-07   910   0.943E-04
 164 F= -.62401819E+03 E0= -.62401819E+03  d E =-.341413E-02
 curvature: -13.63 expect dE=-0.954E-01 dE for cont linesearch -0.517E-04
 trial: gam= 1.14736 g(F)=  0.671E-02 g(S)=  0.287E-03 ort = 0.831E-03 (trialstep = 0.372E+00)
 search vector abs. value=  0.248E+00
 bond charge predicted
       N       E                     dE             d eps       ncg     rms          rms(c)
DAV:   1    -0.615510140460E+03   -0.64487E-02   -0.20470E+00  1428   0.337E+00    0.386E-01
RMM:   2    -0.615512018735E+03   -0.18783E-02   -0.36950E-02  1428   0.464E-01    0.208E-01
RMM:   3    -0.615511627870E+03    0.39087E-03   -0.20664E-03  1437   0.121E-01    0.999E-02
RMM:   4    -0.615511560170E+03    0.67700E-04   -0.49971E-04  1485   0.476E-02    0.221E-02
RMM:   5    -0.615511557886E+03    0.22838E-05   -0.30272E-05  1449   0.129E-02    0.937E-03
RMM:   6    -0.615511556556E+03    0.13304E-05   -0.73900E-06  1431   0.488E-03    0.319E-03
RMM:   7    -0.615511556368E+03    0.18776E-06   -0.97199E-07  1371   0.205E-03    0.128E-03
RMM:   8    -0.615511556318E+03    0.50124E-07   -0.17299E-07   886   0.862E-04
 165 F= -.62402055E+03 E0= -.62402055E+03  d E =-.235982E-02
 trial-energy change:   -0.002360  1 .order   -0.002336   -0.002956   -0.001716
 step:   0.7871(harm=  0.8864)  dis= 0.01440  next Energy=  -624.021537 (dE=-0.335E-02)
 bond charge predicted
       N       E                     dE             d eps       ncg     rms          rms(c)
DAV:   1    -0.615517075794E+03   -0.55194E-02   -0.25548E+00  1428   0.376E+00    0.431E-01
RMM:   2    -0.615519426328E+03   -0.23505E-02   -0.46077E-02  1428   0.518E-01    0.233E-01
RMM:   3    -0.615518938230E+03    0.48810E-03   -0.25748E-03  1437   0.135E-01    0.112E-01
RMM:   4    -0.615518853961E+03    0.84269E-04   -0.62293E-04  1485   0.531E-02    0.247E-02
RMM:   5    -0.615518851148E+03    0.28133E-05   -0.37757E-05  1448   0.144E-02    0.104E-02
RMM:   6    -0.615518849515E+03    0.16326E-05   -0.91837E-06  1433   0.543E-03    0.357E-03
RMM:   7    -0.615518849291E+03    0.22455E-06   -0.12109E-06  1401   0.228E-03    0.143E-03
RMM:   8    -0.615518849229E+03    0.61322E-07   -0.21361E-07   906   0.952E-04
 166 F= -.62402172E+03 E0= -.62402172E+03  d E =-.353121E-02
 curvature: -13.33 expect dE=-0.856E-01 dE for cont linesearch -0.430E-04
 trial: gam= 0.96695 g(F)=  0.605E-02 g(S)=  0.374E-03 ort = 0.895E-03 (trialstep = 0.455E+00)
 search vector abs. value=  0.240E+00
 bond charge predicted
       N       E                     dE             d eps       ncg     rms          rms(c)
DAV:   1    -0.615527283816E+03   -0.84345E-02   -0.29796E+00  1428   0.409E+00    0.483E-01
RMM:   2    -0.615529634575E+03   -0.23508E-02   -0.55244E-02  1428   0.568E-01    0.256E-01
RMM:   3    -0.615529036918E+03    0.59766E-03   -0.31273E-03  1434   0.151E-01    0.124E-01
RMM:   4    -0.615528927480E+03    0.10944E-03   -0.74237E-04  1493   0.592E-02    0.298E-02
RMM:   5    -0.615528924534E+03    0.29451E-05   -0.46345E-05  1446   0.155E-02    0.124E-02
RMM:   6    -0.615528922492E+03    0.20423E-05   -0.10552E-05  1438   0.602E-03    0.415E-03
RMM:   7    -0.615528922180E+03    0.31258E-06   -0.15430E-06  1425   0.270E-03    0.142E-03
RMM:   8    -0.615528922143E+03    0.36503E-07   -0.22729E-07   912   0.963E-04
 167 F= -.62402427E+03 E0= -.62402427E+03  d E =-.255061E-02
 trial-energy change:   -0.002551  1 .order   -0.002520   -0.003315   -0.001724
 step:   0.8592(harm=  0.9480)  dis= 0.01587  next Energy=  -624.025056 (dE=-0.334E-02)
 bond charge predicted
       N       E                     dE             d eps       ncg     rms          rms(c)
DAV:   1    -0.615535216091E+03   -0.62939E-02   -0.23550E+00  1428   0.363E+00    0.429E-01
RMM:   2    -0.615537077304E+03   -0.18612E-02   -0.43672E-02  1428   0.505E-01    0.227E-01
RMM:   3    -0.615536605941E+03    0.47136E-03   -0.24702E-03  1434   0.135E-01    0.110E-01
RMM:   4    -0.615536519087E+03    0.86854E-04   -0.58779E-04  1492   0.527E-02    0.264E-02
RMM:   5    -0.615536516725E+03    0.23624E-05   -0.36692E-05  1447   0.138E-02    0.111E-02
RMM:   6    -0.615536515050E+03    0.16748E-05   -0.84217E-06  1439   0.538E-03    0.370E-03
RMM:   7    -0.615536514784E+03    0.26597E-06   -0.12237E-06  1400   0.241E-03    0.126E-03
RMM:   8    -0.615536514756E+03    0.28631E-07   -0.18097E-07   889   0.863E-04
 168 F= -.62402520E+03 E0= -.62402520E+03  d E =-.348624E-02
 curvature: -15.13 expect dE=-0.108E+00 dE for cont linesearch -0.298E-04
 trial: gam= 1.13160 g(F)=  0.686E-02 g(S)=  0.254E-03 ort = 0.689E-03 (trialstep = 0.407E+00)
 search vector abs. value=  0.317E+00
 bond charge predicted
       N       E                     dE             d eps       ncg     rms          rms(c)
DAV:   1    -0.615545530818E+03   -0.90160E-02   -0.32770E+00  1428   0.430E+00    0.523E-01
RMM:   2    -0.615548108496E+03   -0.25777E-02   -0.63404E-02  1428   0.604E-01    0.267E-01
RMM:   3    -0.615547414532E+03    0.69396E-03   -0.34832E-03  1436   0.164E-01    0.132E-01
RMM:   4    -0.615547276853E+03    0.13768E-03   -0.92400E-04  1488   0.657E-02    0.329E-02
RMM:   5    -0.615547273060E+03    0.37930E-05   -0.53310E-05  1447   0.166E-02    0.146E-02
RMM:   6    -0.615547269846E+03    0.32143E-05   -0.14801E-05  1451   0.721E-03    0.475E-03
RMM:   7    -0.615547269287E+03    0.55870E-06   -0.20601E-06  1415   0.340E-03    0.156E-03
RMM:   8    -0.615547269233E+03    0.54111E-07   -0.34047E-07  1038   0.108E-03
 169 F= -.62402776E+03 E0= -.62402776E+03  d E =-.255563E-02
 trial-energy change:   -0.002556  1 .order   -0.002521   -0.003213   -0.001829
 step:   0.8193(harm=  0.9448)  dis= 0.01738  next Energy=  -624.028722 (dE=-0.352E-02)
 bond charge predicted
       N       E                     dE             d eps       ncg     rms          rms(c)
DAV:   1    -0.615554920591E+03   -0.76513E-02   -0.33654E+00  1428   0.436E+00    0.530E-01
RMM:   2    -0.615557574926E+03   -0.26543E-02   -0.65081E-02  1428   0.612E-01    0.270E-01
RMM:   3    -0.615556862981E+03    0.71195E-03   -0.35730E-03  1436   0.166E-01    0.134E-01
RMM:   4    -0.615556721498E+03    0.14148E-03   -0.94908E-04  1488   0.666E-02    0.333E-02
RMM:   5    -0.615556717635E+03    0.38633E-05   -0.54767E-05  1448   0.168E-02    0.148E-02
RMM:   6    -0.615556714333E+03    0.33016E-05   -0.15205E-05  1451   0.731E-03    0.481E-03
RMM:   7    -0.615556713756E+03    0.57699E-06   -0.21267E-06  1420   0.345E-03    0.158E-03
RMM:   8    -0.615556713699E+03    0.57262E-07   -0.35600E-07  1066   0.109E-03
 170 F= -.62402894E+03 E0= -.62402894E+03  d E =-.373221E-02
 curvature: -17.91 expect dE=-0.104E+00 dE for cont linesearch -0.634E-04
 trial: gam= 0.75455 g(F)=  0.549E-02 g(S)=  0.337E-03 ort = 0.106E-02 (trialstep = 0.489E+00)
 search vector abs. value=  0.188E+00
 bond charge predicted
       N       E                     dE             d eps       ncg     rms          rms(c)
DAV:   1    -0.615565844249E+03   -0.91305E-02   -0.29110E+00  1440   0.407E+00    0.504E-01
RMM:   2    -0.615568101191E+03   -0.22569E-02   -0.58268E-02  1428   0.585E-01    0.254E-01
RMM:   3    -0.615567455148E+03    0.64604E-03   -0.32329E-03  1434   0.157E-01    0.124E-01
RMM:   4    -0.615567324688E+03    0.13046E-03   -0.81957E-04  1493   0.629E-02    0.308E-02
RMM:   5    -0.615567321707E+03    0.29818E-05   -0.49445E-05  1443   0.158E-02    0.135E-02
RMM:   6    -0.615567319013E+03    0.26940E-05   -0.12745E-05  1447   0.681E-03    0.467E-03
RMM:   7    -0.615567318544E+03    0.46907E-06   -0.20322E-06  1412   0.328E-03    0.146E-03
RMM:   8    -0.615567318527E+03    0.16109E-07   -0.27922E-07   975   0.103E-03
 171 F= -.62403139E+03 E0= -.62403139E+03  d E =-.245514E-02
 trial-energy change:   -0.002455  1 .order   -0.002411   -0.003244   -0.001578
 step:   0.8524(harm=  0.9529)  dis= 0.01309  next Energy=  -624.031994 (dE=-0.306E-02)
 bond charge predicted
       N       E                     dE             d eps       ncg     rms          rms(c)
DAV:   1    -0.615573270409E+03   -0.59519E-02   -0.16019E+00  1440   0.302E+00    0.374E-01
RMM:   2    -0.615574513862E+03   -0.12435E-02   -0.32108E-02  1428   0.434E-01    0.188E-01
RMM:   3    -0.615574159685E+03    0.35418E-03   -0.17801E-03  1435   0.117E-01    0.922E-02
RMM:   4    -0.615574087120E+03    0.72565E-04   -0.45214E-04  1491   0.467E-02    0.229E-02
RMM:   5    -0.615574085331E+03    0.17893E-05   -0.27346E-05  1444   0.118E-02    0.101E-02
RMM:   6    -0.615574083700E+03    0.16310E-05   -0.71513E-06  1446   0.512E-03    0.349E-03
RMM:   7    -0.615574083384E+03    0.31534E-06   -0.11243E-06  1332   0.246E-03    0.108E-03
RMM:   8    -0.615574083381E+03    0.38854E-08   -0.14933E-07   883   0.801E-04
 172 F= -.62403213E+03 E0= -.62403213E+03  d E =-.319868E-02
 curvature: -12.85 expect dE=-0.748E-01 dE for cont linesearch -0.342E-04
 trial: gam= 1.04157 g(F)=  0.571E-02 g(S)=  0.111E-03 ort = 0.706E-03 (trialstep = 0.500E+00)
 search vector abs. value=  0.211E+00
 bond charge predicted
       N       E                     dE             d eps       ncg     rms          rms(c)
DAV:   1    -0.615582680818E+03   -0.85974E-02   -0.34390E+00  1428   0.441E+00    0.539E-01
RMM:   2    -0.615585621811E+03   -0.29410E-02   -0.68215E-02  1428   0.631E-01    0.276E-01
RMM:   3    -0.615584851768E+03    0.77004E-03   -0.37439E-03  1439   0.169E-01    0.134E-01
RMM:   4    -0.615584696581E+03    0.15519E-03   -0.93382E-04  1485   0.669E-02    0.320E-02
RMM:   5    -0.615584692863E+03    0.37180E-05   -0.56899E-05  1446   0.172E-02    0.140E-02
RMM:   6    -0.615584690020E+03    0.28423E-05   -0.13423E-05  1444   0.695E-03    0.497E-03
RMM:   7    -0.615584689470E+03    0.54997E-06   -0.23136E-06  1440   0.329E-03    0.160E-03
RMM:   8    -0.615584689398E+03    0.72778E-07   -0.31963E-07  1010   0.109E-03
 173 F= -.62403445E+03 E0= -.62403445E+03  d E =-.231248E-02
 trial-energy change:   -0.002312  1 .order   -0.002276   -0.003278   -0.001274
 step:   0.7720(harm=  0.8180)  dis= 0.01191  next Energy=  -624.034799 (dE=-0.266E-02)
 bond charge predicted
       N       E                     dE             d eps       ncg     rms          rms(c)
DAV:   1    -0.615589008986E+03   -0.43195E-02   -0.10165E+00  1464   0.240E+00    0.293E-01
RMM:   2    -0.615589876821E+03   -0.86784E-03   -0.20188E-02  1428   0.342E-01    0.150E-01
RMM:   3    -0.615589649897E+03    0.22692E-03   -0.11044E-03  1437   0.920E-02    0.728E-02
RMM:   4    -0.615589603231E+03    0.46665E-04   -0.27913E-04  1486   0.368E-02    0.175E-02
RMM:   5    -0.615589601919E+03    0.13124E-05   -0.16874E-05  1446   0.933E-03    0.776E-03
RMM:   6    -0.615589600890E+03    0.10286E-05   -0.41078E-06  1430   0.386E-03    0.273E-03
RMM:   7    -0.615589600647E+03    0.24370E-06   -0.69390E-07  1295   0.184E-03    0.862E-04
RMM:   8    -0.615589600626E+03    0.21064E-07   -0.10213E-07   882   0.637E-04
 174 F= -.62403487E+03 E0= -.62403487E+03  d E =-.273319E-02
 curvature: -12.88 expect dE=-0.755E-01 dE for cont linesearch -0.836E-05
 trial: gam= 1.05844 g(F)=  0.563E-02 g(S)=  0.226E-03 ort = 0.370E-03 (trialstep = 0.481E+00)
 search vector abs. value=  0.243E+00
 bond charge predicted
       N       E                     dE             d eps       ncg     rms          rms(c)
DAV:   1    -0.615596797956E+03   -0.71973E-02   -0.36220E+00  1428   0.449E+00    0.533E-01
RMM:   2    -0.615600061550E+03   -0.32636E-02   -0.68859E-02  1428   0.624E-01    0.284E-01
RMM:   3    -0.615599214981E+03    0.84657E-03   -0.37194E-03  1433   0.170E-01    0.136E-01
RMM:   4    -0.615599061465E+03    0.15352E-03   -0.99786E-04  1487   0.689E-02    0.311E-02
RMM:   5    -0.615599057931E+03    0.35342E-05   -0.55326E-05  1447   0.173E-02    0.141E-02
RMM:   6    -0.615599055486E+03    0.24448E-05   -0.13681E-05  1441   0.688E-03    0.476E-03
RMM:   7    -0.615599055082E+03    0.40399E-06   -0.20184E-06  1443   0.311E-03    0.162E-03
RMM:   8    -0.615599055027E+03    0.55166E-07   -0.30250E-07   992   0.106E-03
 175 F= -.62403709E+03 E0= -.62403709E+03  d E =-.221870E-02
 trial-energy change:   -0.002219  1 .order   -0.002187   -0.003009   -0.001364
 step:   0.8147(harm=  0.8806)  dis= 0.01297  next Energy=  -624.037569 (dE=-0.270E-02)
 bond charge predicted
       N       E                     dE             d eps       ncg     rms          rms(c)
DAV:   1    -0.615603530127E+03   -0.44750E-02   -0.17364E+00  1428   0.311E+00    0.369E-01
RMM:   2    -0.615605094438E+03   -0.15643E-02   -0.33042E-02  1428   0.432E-01    0.197E-01
RMM:   3    -0.615604689722E+03    0.40472E-03   -0.17824E-03  1433   0.118E-01    0.944E-02
RMM:   4    -0.615604615450E+03    0.74272E-04   -0.48099E-04  1487   0.479E-02    0.216E-02
RMM:   5    -0.615604613590E+03    0.18600E-05   -0.26546E-05  1449   0.120E-02    0.987E-03
RMM:   6    -0.615604612237E+03    0.13532E-05   -0.66930E-06  1437   0.483E-03    0.331E-03
RMM:   7    -0.615604611978E+03    0.25848E-06   -0.96906E-07  1345   0.218E-03    0.112E-03
RMM:   8    -0.615604611948E+03    0.30443E-07   -0.14794E-07   883   0.773E-04
 176 F= -.62403766E+03 E0= -.62403766E+03  d E =-.279258E-02
 curvature: -16.64 expect dE=-0.837E-01 dE for cont linesearch -0.156E-04
 trial: gam= 0.77236 g(F)=  0.500E-02 g(S)=  0.274E-04 ort = 0.477E-03 (trialstep = 0.548E+00)
 search vector abs. value=  0.151E+00
 bond charge predicted
       N       E                     dE             d eps       ncg     rms          rms(c)
DAV:   1    -0.615611136843E+03   -0.65249E-02   -0.31131E+00  1428   0.415E+00    0.474E-01
RMM:   2    -0.615614153398E+03   -0.30166E-02   -0.59109E-02  1428   0.575E-01    0.254E-01
RMM:   3    -0.615613473703E+03    0.67970E-03   -0.31172E-03  1438   0.155E-01    0.126E-01
RMM:   4    -0.615613344487E+03    0.12922E-03   -0.91351E-04  1484   0.643E-02    0.281E-02
RMM:   5    -0.615613340321E+03    0.41659E-05   -0.45969E-05  1452   0.158E-02    0.133E-02
RMM:   6    -0.615613337100E+03    0.32211E-05   -0.15861E-05  1444   0.717E-03    0.418E-03
RMM:   7    -0.615613336699E+03    0.40045E-06   -0.17880E-06  1419   0.297E-03    0.165E-03
RMM:   8    -0.615613336640E+03    0.59132E-07   -0.35042E-07  1046   0.107E-03
 177 F= -.62403981E+03 E0= -.62403981E+03  d E =-.214860E-02
 trial-energy change:   -0.002149  1 .order   -0.002120   -0.002958   -0.001283
 step:   0.9071(harm=  0.9678)  dis= 0.01084  next Energy=  -624.040237 (dE=-0.258E-02)
 bond charge predicted
       N       E                     dE             d eps       ncg     rms          rms(c)
DAV:   1    -0.615617177986E+03   -0.38413E-02   -0.13360E+00  1440   0.272E+00    0.311E-01
RMM:   2    -0.615618473800E+03   -0.12958E-02   -0.25395E-02  1428   0.376E-01    0.166E-01
RMM:   3    -0.615618182846E+03    0.29095E-03   -0.13370E-03  1438   0.102E-01    0.827E-02
RMM:   4    -0.615618126651E+03    0.56195E-04   -0.39419E-04  1483   0.423E-02    0.185E-02
RMM:   5    -0.615618124676E+03    0.19757E-05   -0.19816E-05  1453   0.104E-02    0.882E-03
RMM:   6    -0.615618123106E+03    0.15701E-05   -0.69785E-06  1436   0.476E-03    0.276E-03
RMM:   7    -0.615618122880E+03    0.22572E-06   -0.76860E-07  1307   0.198E-03    0.108E-03
RMM:   8    -0.615618122852E+03    0.27343E-07   -0.15199E-07   883   0.744E-04
 178 F= -.62404031E+03 E0= -.62404031E+03  d E =-.264842E-02
 curvature: -13.23 expect dE=-0.692E-01 dE for cont linesearch -0.101E-04
 trial: gam= 1.05987 g(F)=  0.519E-02 g(S)=  0.426E-04 ort = 0.340E-03 (trialstep = 0.533E+00)
 search vector abs. value=  0.175E+00
 bond charge predicted
       N       E                     dE             d eps       ncg     rms          rms(c)
DAV:   1    -0.615625206710E+03   -0.70838E-02   -0.32339E+00  1428   0.427E+00    0.519E-01
RMM:   2    -0.615628235943E+03   -0.30292E-02   -0.63698E-02  1428   0.600E-01    0.270E-01
RMM:   3    -0.615627474625E+03    0.76132E-03   -0.33362E-03  1428   0.161E-01    0.134E-01
RMM:   4    -0.615627315878E+03    0.15875E-03   -0.92331E-04  1485   0.669E-02    0.291E-02
RMM:   5    -0.615627311384E+03    0.44942E-05   -0.52877E-05  1457   0.167E-02    0.134E-02
RMM:   6    -0.615627308470E+03    0.29143E-05   -0.12722E-05  1448   0.659E-03    0.471E-03
RMM:   7    -0.615627307779E+03    0.69040E-06   -0.24515E-06  1446   0.313E-03    0.167E-03
RMM:   8    -0.615627307619E+03    0.16058E-06   -0.45613E-07  1142   0.120E-03    0.856E-04
RMM:   9    -0.615627307515E+03    0.10305E-06   -0.21632E-07   928   0.833E-04    0.388E-04
RMM:  10    -0.615627307459E+03    0.56316E-07   -0.85219E-08   882   0.622E-04
 179 F= -.62404228E+03 E0= -.62404228E+03  d E =-.197075E-02
 trial-energy change:   -0.001971  1 .order   -0.001949   -0.002983   -0.000916
 step:   0.7502(harm=  0.7693)  dis= 0.00946  next Energy=  -624.042467 (dE=-0.216E-02)
 bond charge predicted
       N       E                     dE             d eps       ncg     rms          rms(c)
DAV:   1    -0.615630096910E+03   -0.27894E-02   -0.53631E-01  1464   0.174E+00    0.212E-01
RMM:   2    -0.615630598696E+03   -0.50179E-03   -0.10582E-02  1428   0.244E-01    0.110E-01
RMM:   3    -0.615630472767E+03    0.12593E-03   -0.55340E-04  1428   0.659E-02    0.544E-02
RMM:   4    -0.615630445808E+03    0.26959E-04   -0.15454E-04  1486   0.275E-02    0.119E-02
RMM:   5    -0.615630444901E+03    0.90637E-06   -0.87363E-06  1456   0.677E-03    0.558E-03
RMM:   6    -0.615630444269E+03    0.63292E-06   -0.21792E-06  1438   0.274E-03    0.193E-03
RMM:   7    -0.615630444085E+03    0.18308E-06   -0.37672E-07  1099   0.130E-03    0.674E-04
RMM:   8    -0.615630444059E+03    0.26208E-07   -0.87705E-08   882   0.628E-04
 180 F= -.62404249E+03 E0= -.62404249E+03  d E =-.218215E-02
 curvature: -11.97 expect dE=-0.520E-01 dE for cont linesearch -0.838E-06
 trial: gam= 0.87143 g(F)=  0.427E-02 g(S)=  0.734E-04 ort = 0.111E-03 (trialstep = 0.576E+00)
 search vector abs. value=  0.138E+00
 bond charge predicted
       N       E                     dE             d eps       ncg     rms          rms(c)
DAV:   1    -0.615635695744E+03   -0.52517E-02   -0.30864E+00  1428   0.416E+00    0.469E-01
RMM:   2    -0.615639286164E+03   -0.35904E-02   -0.61580E-02  1428   0.583E-01    0.250E-01
RMM:   3    -0.615638653653E+03    0.63251E-03   -0.29677E-03  1431   0.154E-01    0.129E-01
RMM:   4    -0.615638510965E+03    0.14269E-03   -0.91624E-04  1477   0.663E-02    0.261E-02
RMM:   5    -0.615638506829E+03    0.41359E-05   -0.51382E-05  1468   0.161E-02    0.121E-02
RMM:   6    -0.615638504150E+03    0.26786E-05   -0.12352E-05  1436   0.651E-03    0.480E-03
RMM:   7    -0.615638503510E+03    0.64042E-06   -0.25496E-06  1438   0.326E-03    0.165E-03
RMM:   8    -0.615638503392E+03    0.11826E-06   -0.48665E-07  1156   0.121E-03    0.820E-04
RMM:   9    -0.615638503337E+03    0.54228E-07   -0.17194E-07   901   0.779E-04
 181 F= -.62404417E+03 E0= -.62404417E+03  d E =-.167831E-02
 trial-energy change:   -0.001678  1 .order   -0.001652   -0.002559   -0.000745
 step:   0.7880(harm=  0.8132)  dis= 0.00868  next Energy=  -624.044307 (dE=-0.182E-02)
 bond charge predicted
       N       E                     dE             d eps       ncg     rms          rms(c)
DAV:   1    -0.615640613600E+03   -0.21102E-02   -0.41533E-01  1452   0.152E+00    0.172E-01
RMM:   2    -0.615641096582E+03   -0.48298E-03   -0.83112E-03  1428   0.214E-01    0.917E-02
RMM:   3    -0.615641011622E+03    0.84960E-04   -0.39992E-04  1431   0.567E-02    0.472E-02
RMM:   4    -0.615640991763E+03    0.19859E-04   -0.12451E-04  1479   0.245E-02    0.963E-03
RMM:   5    -0.615640991121E+03    0.64242E-06   -0.68670E-06  1465   0.587E-03    0.454E-03
RMM:   6    -0.615640990665E+03    0.45581E-06   -0.17410E-06  1400   0.246E-03    0.177E-03
RMM:   7    -0.615640990523E+03    0.14171E-06   -0.31626E-07  1020   0.121E-03    0.628E-04
RMM:   8    -0.615640990512E+03    0.10674E-07   -0.86305E-08   882   0.680E-04
 182 F= -.62404432E+03 E0= -.62404432E+03  d E =-.183415E-02
 curvature: -12.46 expect dE=-0.508E-01 dE for cont linesearch -0.142E-05
 trial: gam= 0.88630 g(F)=  0.386E-02 g(S)=  0.211E-03 ort = 0.125E-03 (trialstep = 0.619E+00)
 search vector abs. value=  0.112E+00
 bond charge predicted
       N       E                     dE             d eps       ncg     rms          rms(c)
DAV:   1    -0.615642701912E+03   -0.17114E-02   -0.31360E+00  1428   0.413E+00    0.442E-01
RMM:   2    -0.615647000185E+03   -0.42983E-02   -0.61384E-02  1428   0.566E-01    0.246E-01
RMM:   3    -0.615646334820E+03    0.66536E-03   -0.27023E-03  1429   0.145E-01    0.131E-01
RMM:   4    -0.615646192904E+03    0.14192E-03   -0.10555E-03  1475   0.661E-02    0.254E-02
RMM:   5    -0.615646183996E+03    0.89072E-05   -0.53974E-05  1453   0.168E-02    0.120E-02
RMM:   6    -0.615646182181E+03    0.18158E-05   -0.96603E-06  1464   0.568E-03    0.512E-03
RMM:   7    -0.615646181772E+03    0.40912E-06   -0.24152E-06  1426   0.286E-03    0.162E-03
RMM:   8    -0.615646181720E+03    0.51685E-07   -0.34374E-07  1048   0.120E-03
 183 F= -.62404593E+03 E0= -.62404593E+03  d E =-.160634E-02
 trial-energy change:   -0.001606  1 .order   -0.001582   -0.002591   -0.000574
 step:   0.7806(harm=  0.7950)  dis= 0.00770  next Energy=  -624.046007 (dE=-0.168E-02)
 bond charge predicted
       N       E                     dE             d eps       ncg     rms          rms(c)
DAV:   1    -0.615646962309E+03   -0.78054E-03   -0.21432E-01  1480   0.108E+00    0.116E-01
RMM:   2    -0.615647256704E+03   -0.29440E-03   -0.42018E-03  1428   0.148E-01    0.641E-02
RMM:   3    -0.615647211663E+03    0.45041E-04   -0.18477E-04  1430   0.381E-02    0.343E-02
RMM:   4    -0.615647201640E+03    0.10023E-04   -0.72517E-05  1475   0.173E-02    0.666E-03
RMM:   5    -0.615647200890E+03    0.74991E-06   -0.36783E-06  1455   0.439E-03    0.320E-03
RMM:   6    -0.615647200661E+03    0.22913E-06   -0.65098E-07  1279   0.150E-03    0.135E-03
RMM:   7    -0.615647200574E+03    0.86147E-07   -0.15830E-07   882   0.838E-04
 184 F= -.62404602E+03 E0= -.62404602E+03  d E =-.169285E-02
 curvature: -10.60 expect dE=-0.409E-01 dE for cont linesearch -0.497E-06
 trial: gam= 0.96535 g(F)=  0.382E-02 g(S)=  0.469E-04 ort = 0.726E-04 (trialstep = 0.651E+00)
 search vector abs. value=  0.109E+00
 bond charge predicted
       N       E                     dE             d eps       ncg     rms          rms(c)
DAV:   1    -0.615647233038E+03   -0.32377E-04   -0.33028E+00  1428   0.423E+00    0.443E-01
RMM:   2    -0.615652064152E+03   -0.48311E-02   -0.65153E-02  1428   0.576E-01    0.249E-01
RMM:   3    -0.615651384889E+03    0.67926E-03   -0.27051E-03  1430   0.145E-01    0.137E-01
RMM:   4    -0.615651231222E+03    0.15367E-03   -0.11847E-03  1463   0.686E-02    0.265E-02
RMM:   5    -0.615651216441E+03    0.14781E-04   -0.78331E-05  1456   0.191E-02    0.115E-02
RMM:   6    -0.615651214826E+03    0.16148E-05   -0.84900E-06  1482   0.580E-03    0.600E-03
RMM:   7    -0.615651214067E+03    0.75976E-06   -0.39747E-06  1431   0.338E-03    0.209E-03
RMM:   8    -0.615651213927E+03    0.13981E-06   -0.85140E-07  1253   0.170E-03    0.134E-03
RMM:   9    -0.615651213858E+03    0.68889E-07   -0.38561E-07  1070   0.112E-03
 185 F= -.62404756E+03 E0= -.62404756E+03  d E =-.154153E-02
 trial-energy change:   -0.001542  1 .order   -0.001527   -0.002561   -0.000493
 step:   0.7989(harm=  0.8064)  dis= 0.00890  next Energy=  -624.047615 (dE=-0.160E-02)
 bond charge predicted
       N       E                     dE             d eps       ncg     rms          rms(c)
DAV:   1    -0.615651624173E+03   -0.41025E-03   -0.17009E-01  1464   0.959E-01    0.100E-01
RMM:   2    -0.615651874035E+03   -0.24986E-03   -0.33691E-03  1428   0.131E-01    0.565E-02
RMM:   3    -0.615651839094E+03    0.34941E-04   -0.13954E-04  1430   0.331E-02    0.312E-02
RMM:   4    -0.615651831054E+03    0.80398E-05   -0.61905E-05  1463   0.156E-02    0.608E-03
RMM:   5    -0.615651830143E+03    0.91072E-06   -0.41617E-06  1456   0.438E-03    0.264E-03
RMM:   6    -0.615651829998E+03    0.14473E-06   -0.40004E-07  1101   0.134E-03    0.139E-03
RMM:   7    -0.615651829922E+03    0.75866E-07   -0.22499E-07   923   0.922E-04
 186 F= -.62404762E+03 E0= -.62404762E+03  d E =-.160120E-02
 curvature: -11.12 expect dE=-0.358E-01 dE for cont linesearch -0.686E-08
 trial: gam= 0.84444 g(F)=  0.311E-02 g(S)=  0.115E-03 ort = 0.819E-05 (trialstep = 0.681E+00)
 search vector abs. value=  0.808E-01
 bond charge predicted
       N       E                     dE             d eps       ncg     rms          rms(c)
DAV:   1    -0.615653211646E+03   -0.13816E-02   -0.26050E+00  1428   0.377E+00    0.411E-01
RMM:   2    -0.615656921215E+03   -0.37096E-02   -0.53267E-02  1428   0.524E-01    0.231E-01
RMM:   3    -0.615656310427E+03    0.61079E-03   -0.22469E-03  1429   0.133E-01    0.124E-01
RMM:   4    -0.615656167208E+03    0.14322E-03   -0.90114E-04  1474   0.625E-02    0.236E-02
RMM:   5    -0.615656160068E+03    0.71401E-05   -0.50370E-05  1451   0.155E-02    0.106E-02
RMM:   6    -0.615656159345E+03    0.72315E-06   -0.65225E-06  1488   0.512E-03    0.521E-03
RMM:   7    -0.615656159065E+03    0.27914E-06   -0.23343E-06  1422   0.275E-03    0.152E-03
RMM:   8    -0.615656159017E+03    0.48716E-07   -0.32626E-07  1014   0.118E-03
 187 F= -.62404914E+03 E0= -.62404914E+03  d E =-.152267E-02
 trial-energy change:   -0.001523  1 .order   -0.001504   -0.002198   -0.000811
 step:   1.0362(harm=  1.0789)  dis= 0.01092  next Energy=  -624.049356 (dE=-0.174E-02)
 bond charge predicted
       N       E                     dE             d eps       ncg     rms          rms(c)
DAV:   1    -0.615657060729E+03   -0.90166E-03   -0.71041E-01  1440   0.197E+00    0.214E-01
RMM:   2    -0.615658071592E+03   -0.10109E-02   -0.14522E-02  1428   0.273E-01    0.120E-01
RMM:   3    -0.615657905664E+03    0.16593E-03   -0.61208E-04  1429   0.695E-02    0.647E-02
RMM:   4    -0.615657866351E+03    0.39313E-04   -0.24586E-04  1474   0.326E-02    0.123E-02
RMM:   5    -0.615657864381E+03    0.19696E-05   -0.13585E-05  1451   0.807E-03    0.555E-03
RMM:   6    -0.615657864136E+03    0.24557E-06   -0.18151E-06  1478   0.269E-03    0.272E-03
RMM:   7    -0.615657864012E+03    0.12349E-06   -0.62638E-07  1269   0.145E-03    0.784E-04
RMM:   8    -0.615657863996E+03    0.16818E-07   -0.84352E-08   882   0.663E-04
 188 F= -.62404939E+03 E0= -.62404939E+03  d E =-.177229E-02
 curvature: -13.34 expect dE=-0.534E-01 dE for cont linesearch -0.264E-05
 trial: gam= 1.19198 g(F)=  0.388E-02 g(S)=  0.121E-03 ort = 0.126E-03 (trialstep = 0.510E+00)
 search vector abs. value=  0.119E+00
 bond charge predicted
       N       E                     dE             d eps       ncg     rms          rms(c)
DAV:   1    -0.615659147756E+03   -0.12837E-02   -0.22466E+00  1428   0.349E+00    0.375E-01
RMM:   2    -0.615662359033E+03   -0.32113E-02   -0.46337E-02  1428   0.488E-01    0.214E-01
RMM:   3    -0.615661819777E+03    0.53926E-03   -0.19553E-03  1429   0.122E-01    0.116E-01
RMM:   4    -0.615661695693E+03    0.12408E-03   -0.81631E-04  1476   0.581E-02    0.225E-02
RMM:   5    -0.615661687578E+03    0.81148E-05   -0.48845E-05  1445   0.150E-02    0.964E-03
RMM:   6    -0.615661686499E+03    0.10788E-05   -0.62205E-06  1486   0.488E-03    0.497E-03
RMM:   7    -0.615661686109E+03    0.39026E-06   -0.27562E-06  1421   0.281E-03    0.166E-03
RMM:   8    -0.615661686057E+03    0.52289E-07   -0.47135E-07  1086   0.134E-03
 189 F= -.62405090E+03 E0= -.62405090E+03  d E =-.151304E-02
 trial-energy change:   -0.001513  1 .order   -0.001488   -0.002117   -0.000860
 step:   0.8045(harm=  0.8590)  dis= 0.00989  next Energy=  -624.051157 (dE=-0.177E-02)
 bond charge predicted
       N       E                     dE             d eps       ncg     rms          rms(c)
DAV:   1    -0.615662458521E+03   -0.77241E-03   -0.74873E-01  1440   0.201E+00    0.217E-01
RMM:   2    -0.615663528531E+03   -0.10700E-02   -0.15444E-02  1428   0.281E-01    0.123E-01
RMM:   3    -0.615663349271E+03    0.17926E-03   -0.65167E-04  1429   0.708E-02    0.669E-02
RMM:   4    -0.615663307861E+03    0.41411E-04   -0.27221E-04  1476   0.336E-02    0.130E-02
RMM:   5    -0.615663305113E+03    0.27475E-05   -0.16179E-05  1445   0.862E-03    0.559E-03
RMM:   6    -0.615663304707E+03    0.40654E-06   -0.21100E-06  1474   0.282E-03    0.287E-03
RMM:   7    -0.615663304531E+03    0.17562E-06   -0.91472E-07  1317   0.163E-03    0.952E-04
RMM:   8    -0.615663304508E+03    0.23643E-07   -0.14520E-07   906   0.802E-04
 190 F= -.62405120E+03 E0= -.62405120E+03  d E =-.180906E-02
 curvature: -12.02 expect dE=-0.358E-01 dE for cont linesearch -0.715E-05
 trial: gam= 0.74439 g(F)=  0.291E-02 g(S)=  0.734E-04 ort = 0.266E-03 (trialstep = 0.569E+00)
 search vector abs. value=  0.693E-01
 bond charge predicted
       N       E                     dE             d eps       ncg     rms          rms(c)
DAV:   1    -0.615664078026E+03   -0.77349E-03   -0.15758E+00  1428   0.292E+00    0.320E-01
RMM:   2    -0.615666533231E+03   -0.24552E-02   -0.34463E-02  1428   0.414E-01    0.182E-01
RMM:   3    -0.615666126888E+03    0.40634E-03   -0.14053E-03  1429   0.105E-01    0.101E-01
RMM:   4    -0.615666029521E+03    0.97367E-04   -0.63403E-04  1476   0.505E-02    0.211E-02
RMM:   5    -0.615666021513E+03    0.80076E-05   -0.43371E-05  1443   0.136E-02    0.862E-03
RMM:   6    -0.615666020687E+03    0.82591E-06   -0.42244E-06  1474   0.424E-03    0.444E-03
RMM:   7    -0.615666020304E+03    0.38334E-06   -0.21036E-06  1403   0.247E-03    0.158E-03
RMM:   8    -0.615666020247E+03    0.56592E-07   -0.43316E-07  1051   0.127E-03
 191 F= -.62405251E+03 E0= -.62405251E+03  d E =-.130957E-02
 trial-energy change:   -0.001310  1 .order   -0.001292   -0.001808   -0.000776
 step:   0.9344(harm=  0.9968)  dis= 0.00983  next Energy=  -624.052764 (dE=-0.156E-02)
 bond charge predicted
       N       E                     dE             d eps       ncg     rms          rms(c)
DAV:   1    -0.615666404696E+03   -0.38439E-03   -0.65040E-01  1440   0.188E+00    0.206E-01
RMM:   2    -0.615667417737E+03   -0.10130E-02   -0.14219E-02  1428   0.266E-01    0.117E-01
RMM:   3    -0.615667250516E+03    0.16722E-03   -0.57983E-04  1429   0.674E-02    0.648E-02
RMM:   4    -0.615667210262E+03    0.40254E-04   -0.26191E-04  1476   0.325E-02    0.135E-02
RMM:   5    -0.615667206864E+03    0.33980E-05   -0.17904E-05  1442   0.876E-03    0.555E-03
RMM:   6    -0.615667206465E+03    0.39930E-06   -0.17691E-06  1464   0.274E-03    0.286E-03
RMM:   7    -0.615667206253E+03    0.21134E-06   -0.86383E-07  1303   0.160E-03    0.101E-03
RMM:   8    -0.615667206223E+03    0.30203E-07   -0.17117E-07   931   0.848E-04
 192 F= -.62405280E+03 E0= -.62405280E+03  d E =-.160021E-02
 curvature: -10.65 expect dE=-0.391E-01 dE for cont linesearch -0.616E-05
 trial: gam= 1.25415 g(F)=  0.357E-02 g(S)=  0.964E-04 ort = 0.200E-03 (trialstep = 0.393E+00)
 search vector abs. value=  0.113E+00
 bond charge predicted
       N       E                     dE             d eps       ncg     rms          rms(c)
DAV:   1    -0.615667623150E+03   -0.41690E-03   -0.11990E+00  1428   0.255E+00    0.282E-01
RMM:   2    -0.615669615882E+03   -0.19927E-02   -0.26969E-02  1428   0.364E-01    0.158E-01
RMM:   3    -0.615669317250E+03    0.29863E-03   -0.10784E-03  1429   0.926E-02    0.896E-02
RMM:   4    -0.615669243200E+03    0.74051E-04   -0.48542E-04  1470   0.445E-02    0.190E-02
RMM:   5    -0.615669237101E+03    0.60983E-05   -0.37090E-05  1443   0.124E-02    0.733E-03
RMM:   6    -0.615669236738E+03    0.36370E-06   -0.26583E-06  1482   0.370E-03    0.394E-03
RMM:   7    -0.615669236552E+03    0.18557E-06   -0.17089E-06  1391   0.218E-03    0.149E-03
RMM:   8    -0.615669236510E+03    0.41535E-07   -0.40257E-07  1042   0.118E-03
 193 F= -.62405394E+03 E0= -.62405394E+03  d E =-.113682E-02
 trial-energy change:   -0.001137  1 .order   -0.001124   -0.001542   -0.000706
 step:   0.6793(harm=  0.7251)  dis= 0.00922  next Energy=  -624.054199 (dE=-0.140E-02)
 bond charge predicted
       N       E                     dE             d eps       ncg     rms          rms(c)
DAV:   1    -0.615669326033E+03   -0.89481E-04   -0.63534E-01  1440   0.186E+00    0.205E-01
RMM:   2    -0.615670381511E+03   -0.10555E-02   -0.14282E-02  1428   0.265E-01    0.115E-01
RMM:   3    -0.615670223576E+03    0.15794E-03   -0.57133E-04  1429   0.674E-02    0.652E-02
RMM:   4    -0.615670184422E+03    0.39154E-04   -0.25710E-04  1470   0.324E-02    0.138E-02
RMM:   5    -0.615670181177E+03    0.32449E-05   -0.19579E-05  1444   0.899E-03    0.534E-03
RMM:   6    -0.615670180964E+03    0.21276E-06   -0.14020E-06  1458   0.268E-03    0.286E-03
RMM:   7    -0.615670180843E+03    0.12184E-06   -0.89887E-07  1312   0.160E-03    0.108E-03
RMM:   8    -0.615670180818E+03    0.24484E-07   -0.21093E-07   964   0.890E-04
 194 F= -.62405424E+03 E0= -.62405424E+03  d E =-.143746E-02
 curvature: -10.27 expect dE=-0.297E-01 dE for cont linesearch -0.562E-05
 trial: gam= 0.78571 g(F)=  0.281E-02 g(S)=  0.781E-04 ort = 0.249E-03 (trialstep = 0.450E+00)
 search vector abs. value=  0.732E-01
 bond charge predicted
       N       E                     dE             d eps       ncg     rms          rms(c)
DAV:   1    -0.615670214037E+03   -0.33194E-04   -0.10479E+00  1428   0.238E+00    0.250E-01
RMM:   2    -0.615672005675E+03   -0.17916E-02   -0.23167E-02  1428   0.337E-01    0.146E-01
RMM:   3    -0.615671764789E+03    0.24089E-03   -0.92398E-04  1429   0.852E-02    0.839E-02
RMM:   4    -0.615671708705E+03    0.56084E-04   -0.45568E-04  1462   0.425E-02    0.194E-02
RMM:   5    -0.615671701218E+03    0.74874E-05   -0.42933E-05  1444   0.131E-02    0.706E-03
RMM:   6    -0.615671700904E+03    0.31423E-06   -0.25103E-06  1475   0.384E-03    0.372E-03
RMM:   7    -0.615671700824E+03    0.79053E-07   -0.17436E-06  1384   0.222E-03    0.150E-03
RMM:   8    -0.615671700783E+03    0.41207E-07   -0.36129E-07  1017   0.114E-03
 195 F= -.62405525E+03 E0= -.62405525E+03  d E =-.101302E-02
 trial-energy change:   -0.001013  1 .order   -0.001005   -0.001390   -0.000621
 step:   0.7808(harm=  0.8146)  dis= 0.00833  next Energy=  -624.055482 (dE=-0.124E-02)
 bond charge predicted
       N       E                     dE             d eps       ncg     rms          rms(c)
DAV:   1    -0.615671522425E+03    0.17840E-03   -0.56418E-01  1440   0.174E+00    0.184E-01
RMM:   2    -0.615672486628E+03   -0.96420E-03   -0.12464E-02  1428   0.247E-01    0.107E-01
RMM:   3    -0.615672357110E+03    0.12952E-03   -0.49726E-04  1429   0.625E-02    0.615E-02
RMM:   4    -0.615672327003E+03    0.30107E-04   -0.24481E-04  1460   0.312E-02    0.142E-02
RMM:   5    -0.615672323031E+03    0.39711E-05   -0.22981E-05  1448   0.961E-03    0.517E-03
RMM:   6    -0.615672322865E+03    0.16608E-06   -0.13389E-06  1448   0.279E-03    0.272E-03
RMM:   7    -0.615672322820E+03    0.45522E-07   -0.93249E-07  1312   0.165E-03
 196 F= -.62405551E+03 E0= -.62405551E+03  d E =-.126862E-02
 curvature:  -9.58 expect dE=-0.244E-01 dE for cont linesearch -0.215E-05
 trial: gam= 0.90222 g(F)=  0.242E-02 g(S)=  0.123E-03 ort = 0.128E-03 (trialstep = 0.516E+00)
 search vector abs. value=  0.624E-01
 bond charge predicted
       N       E                     dE             d eps       ncg     rms          rms(c)
DAV:   1    -0.615671624147E+03    0.69872E-03   -0.11681E+00  1428   0.251E+00    0.254E-01
RMM:   2    -0.615673648340E+03   -0.20242E-02   -0.24976E-02  1428   0.346E-01    0.148E-01
RMM:   3    -0.615673410442E+03    0.23790E-03   -0.97550E-04  1432   0.877E-02    0.875E-02
RMM:   4    -0.615673355114E+03    0.55328E-04   -0.51035E-04  1450   0.439E-02    0.206E-02
RMM:   5    -0.615673345395E+03    0.97194E-05   -0.53773E-05  1452   0.145E-02    0.757E-03
RMM:   6    -0.615673344883E+03    0.51189E-06   -0.27306E-06  1477   0.411E-03    0.379E-03
RMM:   7    -0.615673344655E+03    0.22818E-06   -0.21431E-06  1401   0.241E-03    0.148E-03
RMM:   8    -0.615673344596E+03    0.58819E-07   -0.28157E-07   992   0.105E-03
 197 F= -.62405654E+03 E0= -.62405654E+03  d E =-.102997E-02
 trial-energy change:   -0.001030  1 .order   -0.001021   -0.001375   -0.000667
 step:   0.9446(harm=  1.0030)  dis= 0.01032  next Energy=  -624.056818 (dE=-0.131E-02)
 bond charge predicted
       N       E                     dE             d eps       ncg     rms          rms(c)
DAV:   1    -0.615672464685E+03    0.87997E-03   -0.80267E-01  1428   0.208E+00    0.210E-01
RMM:   2    -0.615673853880E+03   -0.13892E-02   -0.17133E-02  1428   0.286E-01    0.122E-01
RMM:   3    -0.615673691413E+03    0.16247E-03   -0.66887E-04  1432   0.726E-02    0.724E-02
RMM:   4    -0.615673653524E+03    0.37890E-04   -0.34853E-04  1450   0.363E-02    0.169E-02
RMM:   5    -0.615673646921E+03    0.66028E-05   -0.36306E-05  1454   0.119E-02    0.623E-03
RMM:   6    -0.615673646571E+03    0.34986E-06   -0.18355E-06  1456   0.336E-03    0.313E-03
RMM:   7    -0.615673646404E+03    0.16700E-06   -0.14501E-06  1367   0.199E-03    0.120E-03
RMM:   8    -0.615673646362E+03    0.42346E-07   -0.18012E-07   932   0.870E-04
 198 F= -.62405685E+03 E0= -.62405685E+03  d E =-.134483E-02
 curvature: -11.57 expect dE=-0.367E-01 dE for cont linesearch -0.416E-05
 trial: gam= 1.20668 g(F)=  0.312E-02 g(S)=  0.440E-04 ort = 0.150E-03 (trialstep = 0.398E+00)
 search vector abs. value=  0.943E-01
 bond charge predicted
       N       E                     dE             d eps       ncg     rms          rms(c)
DAV:   1    -0.615672879091E+03    0.76731E-03   -0.98763E-01  1428   0.231E+00    0.237E-01
RMM:   2    -0.615674508093E+03   -0.16290E-02   -0.20305E-02  1428   0.310E-01    0.137E-01
RMM:   3    -0.615674306137E+03    0.20196E-03   -0.80402E-04  1430   0.795E-02    0.792E-02
RMM:   4    -0.615674263373E+03    0.42764E-04   -0.39094E-04  1456   0.385E-02    0.175E-02
RMM:   5    -0.615674256777E+03    0.65963E-05   -0.37215E-05  1458   0.123E-02    0.662E-03
RMM:   6    -0.615674256363E+03    0.41333E-06   -0.20272E-06  1461   0.335E-03    0.332E-03
RMM:   7    -0.615674256158E+03    0.20569E-06   -0.14868E-06  1371   0.201E-03    0.137E-03
RMM:   8    -0.615674256115E+03    0.42601E-07   -0.29769E-07   997   0.105E-03
 199 F= -.62405789E+03 E0= -.62405789E+03  d E =-.104221E-02
 trial-energy change:   -0.001042  1 .order   -0.001037   -0.001333   -0.000741
 step:   0.8459(harm=  0.8967)  dis= 0.01157  next Energy=  -624.058318 (dE=-0.147E-02)
 bond charge predicted
       N       E                     dE             d eps       ncg     rms          rms(c)
DAV:   1    -0.615672484355E+03    0.17718E-02   -0.12504E+00  1428   0.260E+00    0.267E-01
RMM:   2    -0.615674545820E+03   -0.20615E-02   -0.25707E-02  1428   0.349E-01    0.154E-01
RMM:   3    -0.615674290287E+03    0.25553E-03   -0.10179E-03  1430   0.894E-02    0.891E-02
RMM:   4    -0.615674235979E+03    0.54308E-04   -0.49453E-04  1454   0.433E-02    0.197E-02
RMM:   5    -0.615674227696E+03    0.82823E-05   -0.46857E-05  1459   0.139E-02    0.743E-03
RMM:   6    -0.615674227185E+03    0.51097E-06   -0.25625E-06  1468   0.376E-03    0.373E-03
RMM:   7    -0.615674226937E+03    0.24810E-06   -0.18671E-06  1393   0.225E-03    0.153E-03
RMM:   8    -0.615674226885E+03    0.52114E-07   -0.36870E-07  1021   0.115E-03
 200 F= -.62405836E+03 E0= -.62405836E+03  d E =-.150781E-02
 curvature: -12.50 expect dE=-0.326E-01 dE for cont linesearch -0.471E-05
 trial: gam= 0.82798 g(F)=  0.253E-02 g(S)=  0.789E-04 ort = 0.189E-03 (trialstep = 0.488E+00)
 search vector abs. value=  0.676E-01
 bond charge predicted
       N       E                     dE             d eps       ncg     rms          rms(c)
DAV:   1    -0.615674011313E+03    0.21562E-03   -0.10874E+00  1428   0.242E+00    0.241E-01
RMM:   2    -0.615675750378E+03   -0.17391E-02   -0.21291E-02  1428   0.322E-01    0.142E-01
RMM:   3    -0.615675546523E+03    0.20385E-03   -0.85263E-04  1435   0.814E-02    0.819E-02
RMM:   4    -0.615675502813E+03    0.43710E-04   -0.41701E-04  1450   0.400E-02    0.176E-02
RMM:   5    -0.615675495863E+03    0.69494E-05   -0.37049E-05  1460   0.126E-02    0.675E-03
RMM:   6    -0.615675495553E+03    0.31070E-06   -0.20670E-06  1462   0.339E-03    0.334E-03
RMM:   7    -0.615675495430E+03    0.12291E-06   -0.15004E-06  1371   0.209E-03    0.117E-03
RMM:   8    -0.615675495393E+03    0.36482E-07   -0.19655E-07   940   0.907E-04
 201 F= -.62405940E+03 E0= -.62405940E+03  d E =-.103701E-02
 trial-energy change:   -0.001037  1 .order   -0.001034   -0.001346   -0.000722
 step:   1.0178(harm=  1.0511)  dis= 0.01149  next Energy=  -624.059792 (dE=-0.143E-02)
 bond charge predicted
       N       E                     dE             d eps       ncg     rms          rms(c)
DAV:   1    -0.615674403187E+03    0.10922E-02   -0.12859E+00  1428   0.263E+00    0.262E-01
RMM:   2    -0.615676461293E+03   -0.20581E-02   -0.25193E-02  1428   0.350E-01    0.154E-01
RMM:   3    -0.615676220097E+03    0.24120E-03   -0.10086E-03  1435   0.885E-02    0.891E-02
RMM:   4    -0.615676168404E+03    0.51693E-04   -0.49372E-04  1450   0.435E-02    0.192E-02
RMM:   5    -0.615676160155E+03    0.82494E-05   -0.43923E-05  1460   0.137E-02    0.735E-03
RMM:   6    -0.615676159787E+03    0.36778E-06   -0.24488E-06  1465   0.370E-03    0.363E-03
RMM:   7    -0.615676159643E+03    0.14434E-06   -0.17772E-06  1401   0.227E-03    0.128E-03
RMM:   8    -0.615676159601E+03    0.41429E-07   -0.23632E-07   971   0.983E-04
 202 F= -.62405982E+03 E0= -.62405982E+03  d E =-.145808E-02
 curvature: -12.82 expect dE=-0.452E-01 dE for cont linesearch -0.141E-05
 trial: gam= 1.37906 g(F)=  0.344E-02 g(S)=  0.818E-04 ort = 0.863E-04 (trialstep = 0.303E+00)
 search vector abs. value=  0.132E+00
 bond charge predicted
       N       E                     dE             d eps       ncg     rms          rms(c)
DAV:   1    -0.615675848185E+03    0.31146E-03   -0.77801E-01  1440   0.205E+00    0.205E-01
RMM:   2    -0.615677053731E+03   -0.12055E-02   -0.14997E-02  1428   0.270E-01    0.121E-01
RMM:   3    -0.615676906717E+03    0.14701E-03   -0.61526E-04  1434   0.691E-02    0.691E-02
RMM:   4    -0.615676876656E+03    0.30061E-04   -0.28705E-04  1454   0.327E-02    0.147E-02
RMM:   5    -0.615676872105E+03    0.45508E-05   -0.27266E-05  1458   0.107E-02    0.584E-03
RMM:   6    -0.615676871790E+03    0.31461E-06   -0.16202E-06  1445   0.294E-03    0.281E-03
RMM:   7    -0.615676871689E+03    0.10115E-06   -0.11488E-06  1341   0.176E-03    0.106E-03
RMM:   8    -0.615676871643E+03    0.46337E-07   -0.18411E-07   931   0.869E-04
 203 F= -.62406068E+03 E0= -.62406068E+03  d E =-.867753E-03
 trial-energy change:   -0.000868  1 .order   -0.000868   -0.001104   -0.000633
 step:   0.7103(harm=  0.7103)  dis= 0.01152  next Energy=  -624.061110 (dE=-0.129E-02)
 bond charge predicted
       N       E                     dE             d eps       ncg     rms          rms(c)
DAV:   1    -0.615675231247E+03    0.16404E-02   -0.14018E+00  1428   0.275E+00    0.275E-01
RMM:   2    -0.615677404100E+03   -0.21729E-02   -0.27041E-02  1428   0.363E-01    0.163E-01
RMM:   3    -0.615677139163E+03    0.26494E-03   -0.11085E-03  1434   0.928E-02    0.928E-02
RMM:   4    -0.615677084789E+03    0.54375E-04   -0.51818E-04  1455   0.440E-02    0.198E-02
RMM:   5    -0.615677076470E+03    0.83190E-05   -0.49248E-05  1457   0.143E-02    0.787E-03
RMM:   6    -0.615677075878E+03    0.59215E-06   -0.29315E-06  1468   0.396E-03    0.378E-03
RMM:   7    -0.615677075680E+03    0.19770E-06   -0.20777E-06  1411   0.234E-03    0.144E-03
RMM:   8    -0.615677075606E+03    0.73811E-07   -0.33910E-07  1010   0.114E-03
 204 F= -.62406111E+03 E0= -.62406111E+03  d E =-.128946E-02
 curvature: -12.90 expect dE=-0.361E-01 dE for cont linesearch -0.982E-09
 trial: gam= 0.80216 g(F)=  0.268E-02 g(S)=  0.117E-03 ort =-0.317E-05 (trialstep = 0.385E+00)
 search vector abs. value=  0.879E-01
 bond charge predicted
       N       E                     dE             d eps       ncg     rms          rms(c)
DAV:   1    -0.615675878992E+03    0.11967E-02   -0.79651E-01  1440   0.208E+00    0.220E-01
RMM:   2    -0.615677104055E+03   -0.12251E-02   -0.15651E-02  1428   0.277E-01    0.127E-01
RMM:   3    -0.615676944144E+03    0.15991E-03   -0.66468E-04  1439   0.724E-02    0.715E-02
RMM:   4    -0.615676910537E+03    0.33607E-04   -0.28433E-04  1466   0.327E-02    0.148E-02
RMM:   5    -0.615676906467E+03    0.40700E-05   -0.23817E-05  1446   0.996E-03    0.561E-03
RMM:   6    -0.615676906245E+03    0.22205E-06   -0.15076E-06  1445   0.279E-03    0.285E-03
RMM:   7    -0.615676906116E+03    0.12959E-06   -0.10136E-06  1351   0.172E-03    0.119E-03
RMM:   8    -0.615676906079E+03    0.36925E-07   -0.27215E-07   988   0.983E-04
 205 F= -.62406193E+03 E0= -.62406193E+03  d E =-.826809E-03
 trial-energy change:   -0.000827  1 .order   -0.000825   -0.001075   -0.000575
 step:   0.8066(harm=  0.8273)  dis= 0.01046  next Energy=  -624.062251 (dE=-0.114E-02)
 bond charge predicted
       N       E                     dE             d eps       ncg     rms          rms(c)
DAV:   1    -0.615674905569E+03    0.20005E-02   -0.95834E-01  1440   0.228E+00    0.241E-01
RMM:   2    -0.615676378821E+03   -0.14733E-02   -0.18837E-02  1428   0.304E-01    0.140E-01
RMM:   3    -0.615676186265E+03    0.19256E-03   -0.79980E-04  1438   0.795E-02    0.785E-02
RMM:   4    -0.615676145763E+03    0.40502E-04   -0.34241E-04  1466   0.360E-02    0.163E-02
RMM:   5    -0.615676140884E+03    0.48786E-05   -0.28672E-05  1447   0.109E-02    0.615E-03
RMM:   6    -0.615676140620E+03    0.26404E-06   -0.18150E-06  1454   0.306E-03    0.312E-03
RMM:   7    -0.615676140471E+03    0.14946E-06   -0.12161E-06  1367   0.188E-03    0.130E-03
RMM:   8    -0.615676140428E+03    0.42317E-07   -0.32767E-07  1010   0.107E-03
 206 F= -.62406227E+03 E0= -.62406227E+03  d E =-.116090E-02
 curvature: -12.99 expect dE=-0.340E-01 dE for cont linesearch -0.800E-06
 trial: gam= 0.87944 g(F)=  0.244E-02 g(S)=  0.173E-03 ort = 0.736E-04 (trialstep = 0.469E+00)
 search vector abs. value=  0.707E-01
 bond charge predicted
       N       E                     dE             d eps       ncg     rms          rms(c)
DAV:   1    -0.615675041592E+03    0.10989E-02   -0.94947E-01  1440   0.227E+00    0.236E-01
RMM:   2    -0.615676481874E+03   -0.14403E-02   -0.18490E-02  1428   0.306E-01    0.141E-01
RMM:   3    -0.615676282127E+03    0.19975E-03   -0.80512E-04  1437   0.785E-02    0.783E-02
RMM:   4    -0.615676240141E+03    0.41986E-04   -0.35416E-04  1460   0.362E-02    0.164E-02
RMM:   5    -0.615676234733E+03    0.54074E-05   -0.33349E-05  1450   0.116E-02    0.662E-03
RMM:   6    -0.615676234317E+03    0.41594E-06   -0.21132E-06  1454   0.334E-03    0.314E-03
RMM:   7    -0.615676234158E+03    0.15914E-06   -0.13381E-06  1367   0.196E-03    0.132E-03
RMM:   8    -0.615676234112E+03    0.46042E-07   -0.30997E-07  1001   0.105E-03
 207 F= -.62406310E+03 E0= -.62406310E+03  d E =-.833840E-03
 trial-energy change:   -0.000834  1 .order   -0.000827   -0.001257   -0.000397
 step:   0.6723(harm=  0.6858)  dis= 0.00743  next Energy=  -624.063188 (dE=-0.920E-03)
 bond charge predicted
       N       E                     dE             d eps       ncg     rms          rms(c)
DAV:   1    -0.615675779163E+03    0.45500E-03   -0.17828E-01  1464   0.981E-01    0.102E-01
RMM:   2    -0.615676049820E+03   -0.27066E-03   -0.34673E-03  1428   0.132E-01    0.611E-02
RMM:   3    -0.615676012517E+03    0.37303E-04   -0.15096E-04  1437   0.340E-02    0.339E-02
RMM:   4    -0.615676004791E+03    0.77264E-05   -0.66430E-05  1461   0.157E-02    0.710E-03
RMM:   5    -0.615676003765E+03    0.10261E-05   -0.62393E-06  1449   0.503E-03    0.286E-03
RMM:   6    -0.615676003686E+03    0.79046E-07   -0.35969E-07  1025   0.145E-03
 208 F= -.62406319E+03 E0= -.62406319E+03  d E =-.926436E-03
 curvature:  -9.02 expect dE=-0.165E-01 dE for cont linesearch -0.191E-06
 trial: gam= 0.72770 g(F)=  0.178E-02 g(S)=  0.528E-04 ort = 0.387E-04 (trialstep = 0.510E+00)
 search vector abs. value=  0.394E-01
 bond charge predicted
       N       E                     dE             d eps       ncg     rms          rms(c)
DAV:   1    -0.615676015309E+03   -0.11544E-04   -0.59560E-01  1440   0.179E+00    0.192E-01
RMM:   2    -0.615676870268E+03   -0.85496E-03   -0.11308E-02  1428   0.242E-01    0.114E-01
RMM:   3    -0.615676745945E+03    0.12432E-03   -0.52709E-04  1436   0.623E-02    0.607E-02
RMM:   4    -0.615676722330E+03    0.23615E-04   -0.19395E-04  1466   0.275E-02    0.122E-02
RMM:   5    -0.615676719972E+03    0.23580E-05   -0.16731E-05  1449   0.876E-03    0.515E-03
RMM:   6    -0.615676719787E+03    0.18509E-06   -0.13464E-06  1429   0.250E-03    0.229E-03
RMM:   7    -0.615676719702E+03    0.84779E-07   -0.58823E-07  1235   0.138E-03
 209 F= -.62406389E+03 E0= -.62406389E+03  d E =-.691431E-03
 trial-energy change:   -0.000691  1 .order   -0.000683   -0.000949   -0.000416
 step:   0.8509(harm=  0.9070)  dis= 0.00719  next Energy=  -624.064027 (dE=-0.833E-03)
 bond charge predicted
       N       E                     dE             d eps       ncg     rms          rms(c)
DAV:   1    -0.615676580737E+03    0.13905E-03   -0.26683E-01  1464   0.120E+00    0.129E-01
RMM:   2    -0.615676963896E+03   -0.38316E-03   -0.50666E-03  1428   0.162E-01    0.764E-02
RMM:   3    -0.615676907782E+03    0.56114E-04   -0.23702E-04  1436   0.418E-02    0.406E-02
RMM:   4    -0.615676897207E+03    0.10575E-04   -0.86990E-05  1466   0.184E-02    0.822E-03
RMM:   5    -0.615676896151E+03    0.10564E-05   -0.76025E-06  1449   0.590E-03    0.346E-03
RMM:   6    -0.615676896062E+03    0.89036E-07   -0.58990E-07  1203   0.169E-03
 210 F= -.62406405E+03 E0= -.62406405E+03  d E =-.853728E-03
 curvature:  -9.39 expect dE=-0.148E-01 dE for cont linesearch -0.283E-05
 trial: gam= 0.80792 g(F)=  0.150E-02 g(S)=  0.762E-04 ort = 0.109E-03 (trialstep = 0.578E+00)
 search vector abs. value=  0.274E-01
 bond charge predicted
       N       E                     dE             d eps       ncg     rms          rms(c)
DAV:   1    -0.615678400343E+03   -0.15042E-02   -0.53509E-01  1440   0.171E+00    0.189E-01
RMM:   2    -0.615679066584E+03   -0.66624E-03   -0.97797E-03  1428   0.231E-01    0.107E-01
RMM:   3    -0.615678952294E+03    0.11429E-03   -0.48038E-04  1437   0.600E-02    0.547E-02
RMM:   4    -0.615678927062E+03    0.25232E-04   -0.15345E-04  1474   0.258E-02    0.100E-02
RMM:   5    -0.615678926301E+03    0.76130E-06   -0.80069E-06  1450   0.652E-03    0.470E-03
RMM:   6    -0.615678926056E+03    0.24507E-06   -0.13670E-06  1415   0.228E-03    0.174E-03
RMM:   7    -0.615678925987E+03    0.68736E-07   -0.26609E-07   941   0.108E-03
 211 F= -.62406474E+03 E0= -.62406474E+03  d E =-.696196E-03
 trial-energy change:   -0.000696  1 .order   -0.000682   -0.000962   -0.000403
 step:   0.9150(harm=  0.9947)  dis= 0.00600  next Energy=  -624.064864 (dE=-0.816E-03)
 bond charge predicted
       N       E                     dE             d eps       ncg     rms          rms(c)
DAV:   1    -0.615679671973E+03   -0.74592E-03   -0.18185E-01  1464   0.996E-01    0.110E-01
RMM:   2    -0.615679898012E+03   -0.22604E-03   -0.33204E-03  1428   0.135E-01    0.625E-02
RMM:   3    -0.615679858955E+03    0.39057E-04   -0.16324E-04  1437   0.350E-02    0.318E-02
RMM:   4    -0.615679850193E+03    0.87621E-05   -0.52128E-05  1474   0.150E-02    0.587E-03
RMM:   5    -0.615679849910E+03    0.28292E-06   -0.27221E-06  1450   0.380E-03    0.275E-03
RMM:   6    -0.615679849805E+03    0.10512E-06   -0.43813E-07  1141   0.133E-03    0.101E-03
RMM:   7    -0.615679849769E+03    0.35863E-07   -0.10817E-07   882   0.762E-04
 212 F= -.62406489E+03 E0= -.62406489E+03  d E =-.844025E-03
 curvature:  -7.90 expect dE=-0.146E-01 dE for cont linesearch -0.542E-05
 trial: gam= 1.18238 g(F)=  0.182E-02 g(S)=  0.254E-04 ort = 0.137E-03 (trialstep = 0.437E+00)
 search vector abs. value=  0.405E-01
 bond charge predicted
       N       E                     dE             d eps       ncg     rms          rms(c)
DAV:   1    -0.615681731181E+03   -0.18814E-02   -0.44772E-01  1440   0.156E+00    0.182E-01
RMM:   2    -0.615682190156E+03   -0.45898E-03   -0.78309E-03  1428   0.209E-01    0.996E-02
RMM:   3    -0.615682092736E+03    0.97419E-04   -0.41663E-04  1438   0.552E-02    0.499E-02
RMM:   4    -0.615682072742E+03    0.19995E-04   -0.12131E-04  1483   0.230E-02    0.104E-02
RMM:   5    -0.615682071890E+03    0.85195E-06   -0.69312E-06  1442   0.618E-03    0.485E-03
RMM:   6    -0.615682071428E+03    0.46130E-06   -0.14609E-06  1396   0.224E-03    0.162E-03
RMM:   7    -0.615682071287E+03    0.14188E-06   -0.24754E-07   937   0.103E-03    0.595E-04
RMM:   8    -0.615682071254E+03    0.32654E-07   -0.81547E-08   882   0.615E-04
 213 F= -.62406559E+03 E0= -.62406559E+03  d E =-.694431E-03
 trial-energy change:   -0.000694  1 .order   -0.000684   -0.000878   -0.000490
 step:   0.8552(harm=  0.9872)  dis= 0.00601  next Energy=  -624.065830 (dE=-0.938E-03)
 bond charge predicted
       N       E                     dE             d eps       ncg     rms          rms(c)
DAV:   1    -0.615683518377E+03   -0.14471E-02   -0.41054E-01  1440   0.150E+00    0.174E-01
RMM:   2    -0.615683939268E+03   -0.42089E-03   -0.71824E-03  1428   0.200E-01    0.954E-02
RMM:   3    -0.615683849885E+03    0.89383E-04   -0.38180E-04  1438   0.529E-02    0.478E-02
RMM:   4    -0.615683831436E+03    0.18449E-04   -0.11140E-04  1483   0.221E-02    0.997E-03
RMM:   5    -0.615683830636E+03    0.79996E-06   -0.63713E-06  1441   0.592E-03    0.465E-03
RMM:   6    -0.615683830200E+03    0.43566E-06   -0.13459E-06  1386   0.215E-03    0.155E-03
RMM:   7    -0.615683830064E+03    0.13636E-06   -0.23073E-07   926   0.988E-04    0.574E-04
RMM:   8    -0.615683830033E+03    0.30785E-07   -0.77266E-08   882   0.595E-04
 214 F= -.62406589E+03 E0= -.62406589E+03  d E =-.993985E-03
 curvature:  -9.38 expect dE=-0.148E-01 dE for cont linesearch -0.164E-04
 trial: gam= 0.83258 g(F)=  0.154E-02 g(S)=  0.469E-04 ort = 0.267E-03 (trialstep = 0.521E+00)
 search vector abs. value=  0.301E-01
 bond charge predicted
       N       E                     dE             d eps       ncg     rms          rms(c)
DAV:   1    -0.615686685931E+03   -0.28559E-02   -0.47862E-01  1440   0.163E+00    0.200E-01
RMM:   2    -0.615687087432E+03   -0.40150E-03   -0.86563E-03  1428   0.224E-01    0.105E-01
RMM:   3    -0.615686974366E+03    0.11307E-03   -0.48476E-04  1436   0.586E-02    0.522E-02
RMM:   4    -0.615686948566E+03    0.25800E-04   -0.13227E-04  1483   0.244E-02    0.111E-02
RMM:   5    -0.615686947481E+03    0.10855E-05   -0.80737E-06  1466   0.645E-03    0.508E-03
RMM:   6    -0.615686946931E+03    0.54967E-06   -0.19567E-06  1405   0.252E-03    0.171E-03
RMM:   7    -0.615686946783E+03    0.14840E-06   -0.28764E-07   963   0.114E-03    0.734E-04
RMM:   8    -0.615686946732E+03    0.50903E-07   -0.13724E-07   882   0.726E-04
 215 F= -.62406658E+03 E0= -.62406658E+03  d E =-.698327E-03
 trial-energy change:   -0.000698  1 .order   -0.000687   -0.000939   -0.000435
 step:   0.8882(harm=  0.9701)  dis= 0.00569  next Energy=  -624.066742 (dE=-0.856E-03)
 bond charge predicted
       N       E                     dE             d eps       ncg     rms          rms(c)
DAV:   1    -0.615688709512E+03   -0.17627E-02   -0.23868E-01  1464   0.115E+00    0.141E-01
RMM:   2    -0.615688909859E+03   -0.20035E-03   -0.43166E-03  1428   0.158E-01    0.741E-02
RMM:   3    -0.615688853423E+03    0.56436E-04   -0.24158E-04  1436   0.414E-02    0.368E-02
RMM:   4    -0.615688840372E+03    0.13051E-04   -0.66133E-05  1483   0.173E-02    0.787E-03
RMM:   5    -0.615688839772E+03    0.60004E-06   -0.40445E-06  1467   0.456E-03    0.360E-03
RMM:   6    -0.615688839463E+03    0.30912E-06   -0.98233E-07  1360   0.179E-03    0.121E-03
RMM:   7    -0.615688839377E+03    0.85951E-07   -0.13987E-07   886   0.820E-04
 216 F= -.62406677E+03 E0= -.62406677E+03  d E =-.885637E-03
 curvature:  -7.83 expect dE=-0.165E-01 dE for cont linesearch -0.605E-05
 trial: gam= 1.42879 g(F)=  0.205E-02 g(S)=  0.608E-04 ort = 0.153E-03 (trialstep = 0.279E+00)
 search vector abs. value=  0.640E-01
 bond charge predicted
       N       E                     dE             d eps       ncg     rms          rms(c)
DAV:   1    -0.615691620624E+03   -0.27812E-02   -0.27792E-01  1440   0.125E+00    0.161E-01
RMM:   2    -0.615691783972E+03   -0.16335E-03   -0.51992E-03  1428   0.177E-01    0.835E-02
RMM:   3    -0.615691712226E+03    0.71746E-04   -0.31788E-04  1436   0.463E-02    0.401E-02
RMM:   4    -0.615691696536E+03    0.15690E-04   -0.69952E-05  1485   0.181E-02    0.942E-03
RMM:   5    -0.615691695769E+03    0.76745E-06   -0.49359E-06  1467   0.519E-03    0.407E-03
RMM:   6    -0.615691695391E+03    0.37841E-06   -0.11780E-06  1368   0.193E-03    0.129E-03
RMM:   7    -0.615691695301E+03    0.89211E-07   -0.13224E-07   887   0.825E-04
 217 F= -.62406733E+03 E0= -.62406733E+03  d E =-.554300E-03
 trial-energy change:   -0.000554  1 .order   -0.000546   -0.000652   -0.000441
 step:   0.6571(harm=  0.8628)  dis= 0.00593  next Energy=  -624.067643 (dE=-0.872E-03)
 bond charge predicted
       N       E                     dE             d eps       ncg     rms          rms(c)
DAV:   1    -0.615695075669E+03   -0.33803E-02   -0.50767E-01  1428   0.169E+00    0.217E-01
RMM:   2    -0.615695374377E+03   -0.29871E-03   -0.94950E-03  1428   0.239E-01    0.113E-01
RMM:   3    -0.615695243570E+03    0.13081E-03   -0.58061E-04  1436   0.625E-02    0.542E-02
RMM:   4    -0.615695215324E+03    0.28246E-04   -0.12754E-04  1485   0.244E-02    0.127E-02
RMM:   5    -0.615695214093E+03    0.12308E-05   -0.90256E-06  1467   0.703E-03    0.550E-03
RMM:   6    -0.615695213490E+03    0.60239E-06   -0.21533E-06  1429   0.260E-03    0.175E-03
RMM:   7    -0.615695213344E+03    0.14636E-06   -0.24573E-07   932   0.111E-03    0.761E-04
RMM:   8    -0.615695213284E+03    0.59699E-07   -0.14373E-07   882   0.753E-04
 218 F= -.62406774E+03 E0= -.62406774E+03  d E =-.965929E-03
 curvature: -10.37 expect dE=-0.125E-01 dE for cont linesearch -0.506E-04
 ZBRENT: increasing intervall
 opt :   1.4124  next Energy=  -624.067391 (dE=-0.620E-03)
 bond charge predicted
       N       E                     dE             d eps       ncg     rms          rms(c)
DAV:   1    -0.615700519509E+03   -0.53062E-02   -0.20308E+00  1428   0.339E+00    0.434E-01
RMM:   2    -0.615701722013E+03   -0.12025E-02   -0.37914E-02  1428   0.480E-01    0.226E-01
RMM:   3    -0.615701199546E+03    0.52247E-03   -0.23227E-03  1436   0.125E-01    0.108E-01
RMM:   4    -0.615701089436E+03    0.11011E-03   -0.50564E-04  1485   0.484E-02    0.254E-02
RMM:   5    -0.615701085479E+03    0.39563E-05   -0.36093E-05  1467   0.141E-02    0.109E-02
RMM:   6    -0.615701083600E+03    0.18795E-05   -0.84108E-06  1444   0.517E-03    0.350E-03
RMM:   7    -0.615701083138E+03    0.46155E-06   -0.11351E-06  1391   0.217E-03    0.153E-03
RMM:   8    -0.615701082914E+03    0.22417E-06   -0.45072E-07  1135   0.120E-03    0.720E-04
RMM:   9    -0.615701082814E+03    0.99575E-07   -0.15326E-07   895   0.815E-04
 219 F= -.62406741E+03 E0= -.62406741E+03  d E =-.637542E-03
 curvature:  70.96 expect dE= 0.440E+00 dE for cont linesearch  0.242E-02
 ZBRENT: bracketing found
 ZBRENT: interpolating
 opt :   0.8643  next Energy=  -624.067795 (dE=-0.102E-02)
 bond charge predicted
       N       E                     dE             d eps       ncg     rms          rms(c)
DAV:   1    -0.615696685827E+03    0.43971E-02   -0.10690E+00  1428   0.245E+00    0.316E-01
RMM:   2    -0.615697304799E+03   -0.61897E-03   -0.20089E-02  1428   0.347E-01    0.164E-01
RMM:   3    -0.615697035607E+03    0.26919E-03   -0.12180E-03  1436   0.912E-02    0.791E-02
RMM:   4    -0.615696979828E+03    0.55779E-04   -0.27266E-04  1485   0.359E-02    0.185E-02
RMM:   5    -0.615696979074E+03    0.75350E-06   -0.18700E-05  1467   0.101E-02    0.811E-03
RMM:   6    -0.615696978644E+03    0.43050E-06   -0.45324E-06  1435   0.380E-03    0.253E-03
RMM:   7    -0.615696978515E+03    0.12917E-06   -0.55436E-07  1208   0.160E-03    0.107E-03
RMM:   8    -0.615696978440E+03    0.74575E-07   -0.22177E-07   905   0.877E-04
 220 F= -.62406780E+03 E0= -.62406780E+03  d E =-.102848E-02
 curvature:  -1.70 expect dE=-0.328E-02 dE for cont linesearch -0.169E-09
 trial: gam= 0.95947 g(F)=  0.189E-02 g(S)=  0.481E-04 ort =-0.253E-05 (trialstep = 0.396E+00)
 search vector abs. value=  0.609E-01
 bond charge predicted
       N       E                     dE             d eps       ncg     rms          rms(c)
DAV:   1    -0.615700841082E+03   -0.38626E-02   -0.52880E-01  1428   0.173E+00    0.230E-01
RMM:   2    -0.615701105962E+03   -0.26488E-03   -0.10516E-02  1428   0.253E-01    0.119E-01
RMM:   3    -0.615700947466E+03    0.15850E-03   -0.65839E-04  1436   0.661E-02    0.571E-02
RMM:   4    -0.615700913312E+03    0.34155E-04   -0.14530E-04  1485   0.255E-02    0.139E-02
RMM:   5    -0.615700911705E+03    0.16072E-05   -0.10033E-05  1455   0.753E-03    0.583E-03
RMM:   6    -0.615700910982E+03    0.72284E-06   -0.25235E-06  1429   0.282E-03    0.177E-03
RMM:   7    -0.615700910830E+03    0.15208E-06   -0.29298E-07   964   0.123E-03    0.748E-04
RMM:   8    -0.615700910781E+03    0.48196E-07   -0.14472E-07   882   0.742E-04
 221 F= -.62406836E+03 E0= -.62406836E+03  d E =-.559256E-03
 trial-energy change:   -0.000559  1 .order   -0.000548   -0.000766   -0.000329
 step:   0.6338(harm=  0.6951)  dis= 0.00518  next Energy=  -624.068460 (dE=-0.660E-03)
 bond charge predicted
       N       E                     dE             d eps       ncg     rms          rms(c)
DAV:   1    -0.615703028619E+03   -0.21178E-02   -0.18976E-01  1440   0.104E+00    0.138E-01
RMM:   2    -0.615703123783E+03   -0.95164E-04   -0.37722E-03  1428   0.151E-01    0.713E-02
RMM:   3    -0.615703066491E+03    0.57292E-04   -0.23569E-04  1436   0.396E-02    0.342E-02
RMM:   4    -0.615703053758E+03    0.12733E-04   -0.52673E-05  1484   0.154E-02    0.833E-03
RMM:   5    -0.615703052993E+03    0.76473E-06   -0.36786E-06  1458   0.454E-03    0.352E-03
RMM:   6    -0.615703052636E+03    0.35759E-06   -0.94191E-07  1349   0.171E-03    0.108E-03
RMM:   7    -0.615703052559E+03    0.77067E-07   -0.11144E-07   885   0.763E-04
 222 F= -.62406848E+03 E0= -.62406848E+03  d E =-.683282E-03
 curvature: -10.49 expect dE=-0.149E-01 dE for cont linesearch -0.483E-05
 trial: gam= 0.57390 g(F)=  0.138E-02 g(S)=  0.453E-04 ort = 0.167E-03 (trialstep = 0.444E+00)
 search vector abs. value=  0.217E-01
 bond charge predicted
       N       E                     dE             d eps       ncg     rms          rms(c)
DAV:   1    -0.615706095497E+03   -0.30429E-02   -0.23739E-01  1428   0.117E+00    0.166E-01
RMM:   2    -0.615706194412E+03   -0.98915E-04   -0.52648E-03  1428   0.180E-01    0.843E-02
RMM:   3    -0.615706111304E+03    0.83108E-04   -0.33382E-04  1436   0.468E-02    0.409E-02
RMM:   4    -0.615706091091E+03    0.20213E-04   -0.73338E-05  1485   0.179E-02    0.101E-02
RMM:   5    -0.615706089803E+03    0.12881E-05   -0.51700E-06  1456   0.531E-03    0.422E-03
RMM:   6    -0.615706089294E+03    0.50905E-06   -0.14474E-06  1394   0.208E-03    0.135E-03
RMM:   7    -0.615706089191E+03    0.10274E-06   -0.17265E-07   909   0.959E-04    0.568E-04
RMM:   8    -0.615706089169E+03    0.21486E-07   -0.90303E-08   882   0.587E-04
 223 F= -.62406899E+03 E0= -.62406899E+03  d E =-.505571E-03
 trial-energy change:   -0.000506  1 .order   -0.000500   -0.000674   -0.000326
 step:   0.8000(harm=  0.8614)  dis= 0.00343  next Energy=  -624.069122 (dE=-0.639E-03)
 bond charge predicted
       N       E                     dE             d eps       ncg     rms          rms(c)
DAV:   1    -0.615708278599E+03   -0.21894E-02   -0.15275E-01  1440   0.941E-01    0.133E-01
RMM:   2    -0.615708342699E+03   -0.64100E-04   -0.33904E-03  1428   0.144E-01    0.676E-02
RMM:   3    -0.615708289087E+03    0.53612E-04   -0.21465E-04  1436   0.376E-02    0.328E-02
RMM:   4    -0.615708275890E+03    0.13197E-04   -0.47263E-05  1485   0.144E-02    0.811E-03
RMM:   5    -0.615708274980E+03    0.91073E-06   -0.33264E-06  1456   0.426E-03    0.338E-03
RMM:   6    -0.615708274616E+03    0.36351E-06   -0.92244E-07  1347   0.167E-03    0.108E-03
RMM:   7    -0.615708274545E+03    0.71013E-07   -0.10859E-07   882   0.770E-04
 224 F= -.62406915E+03 E0= -.62406915E+03  d E =-.662719E-03
 curvature:  -6.02 expect dE=-0.744E-02 dE for cont linesearch -0.336E-05
 trial: gam= 0.90952 g(F)=  0.121E-02 g(S)=  0.263E-04 ort = 0.110E-03 (trialstep = 0.515E+00)
 search vector abs. value=  0.194E-01
 bond charge predicted
       N       E                     dE             d eps       ncg     rms          rms(c)
DAV:   1    -0.615711558674E+03   -0.32841E-02   -0.28854E-01  1428   0.129E+00    0.189E-01
RMM:   2    -0.615711671421E+03   -0.11275E-03   -0.62870E-03  1428   0.199E-01    0.945E-02
RMM:   3    -0.615711570726E+03    0.10070E-03   -0.41695E-04  1432   0.516E-02    0.452E-02
RMM:   4    -0.615711547381E+03    0.23344E-04   -0.87984E-05  1489   0.198E-02    0.112E-02
RMM:   5    -0.615711546146E+03    0.12348E-05   -0.62677E-06  1465   0.605E-03    0.487E-03
RMM:   6    -0.615711545653E+03    0.49378E-06   -0.15593E-06  1393   0.226E-03    0.160E-03
RMM:   7    -0.615711545532E+03    0.12034E-06   -0.19574E-07   915   0.980E-04    0.673E-04
RMM:   8    -0.615711545493E+03    0.39312E-07   -0.10634E-07   882   0.671E-04
 225 F= -.62406964E+03 E0= -.62406964E+03  d E =-.498099E-03
 trial-energy change:   -0.000498  1 .order   -0.000488   -0.000689   -0.000287
 step:   0.8106(harm=  0.8826)  dis= 0.00328  next Energy=  -624.069728 (dE=-0.582E-03)
 bond charge predicted
       N       E                     dE             d eps       ncg     rms          rms(c)
DAV:   1    -0.615713242583E+03   -0.16971E-02   -0.94976E-02  1440   0.742E-01    0.109E-01
RMM:   2    -0.615713279939E+03   -0.37356E-04   -0.20717E-03  1428   0.114E-01    0.542E-02
RMM:   3    -0.615713246475E+03    0.33463E-04   -0.13717E-04  1432   0.296E-02    0.260E-02
RMM:   4    -0.615713238478E+03    0.79977E-05   -0.29104E-05  1489   0.114E-02    0.644E-03
RMM:   5    -0.615713237944E+03    0.53406E-06   -0.20824E-06  1469   0.348E-03    0.280E-03
RMM:   6    -0.615713237721E+03    0.22278E-06   -0.50142E-07  1231   0.130E-03    0.925E-04
RMM:   7    -0.615713237665E+03    0.55454E-07   -0.74169E-08   882   0.647E-04
 226 F= -.62406975E+03 E0= -.62406975E+03  d E =-.601244E-03
 curvature:  -6.14 expect dE=-0.669E-02 dE for cont linesearch -0.386E-05
 trial: gam= 0.87884 g(F)=  0.106E-02 g(S)=  0.330E-04 ort = 0.110E-03 (trialstep = 0.574E+00)
 search vector abs. value=  0.162E-01
 bond charge predicted
       N       E                     dE             d eps       ncg     rms          rms(c)
DAV:   1    -0.615715581200E+03   -0.23435E-02   -0.30633E-01  1428   0.131E+00    0.175E-01
RMM:   2    -0.615715807390E+03   -0.22619E-03   -0.60013E-03  1428   0.189E-01    0.921E-02
RMM:   3    -0.615715708846E+03    0.98544E-04   -0.36068E-04  1431   0.491E-02    0.437E-02
RMM:   4    -0.615715686562E+03    0.22284E-04   -0.94673E-05  1487   0.204E-02    0.898E-03
RMM:   5    -0.615715685555E+03    0.10073E-05   -0.62091E-06  1478   0.563E-03    0.431E-03
RMM:   6    -0.615715685184E+03    0.37035E-06   -0.15277E-06  1384   0.218E-03    0.159E-03
RMM:   7    -0.615715685075E+03    0.10876E-06   -0.22860E-07   928   0.102E-03    0.744E-04
RMM:   8    -0.615715685027E+03    0.48349E-07   -0.14669E-07   885   0.705E-04
 227 F= -.62407020E+03 E0= -.62407020E+03  d E =-.454211E-03
 trial-energy change:   -0.000454  1 .order   -0.000447   -0.000681   -0.000212
 step:   0.8032(harm=  0.8341)  dis= 0.00286  next Energy=  -624.070244 (dE=-0.497E-03)
 bond charge predicted
       N       E                     dE             d eps       ncg     rms          rms(c)
DAV:   1    -0.615716514073E+03   -0.82900E-03   -0.48706E-02  1480   0.522E-01    0.698E-02
RMM:   2    -0.615716550030E+03   -0.35957E-04   -0.95408E-04  1428   0.753E-02    0.367E-02
RMM:   3    -0.615716534218E+03    0.15812E-04   -0.57312E-05  1431   0.196E-02    0.174E-02
RMM:   4    -0.615716530527E+03    0.36906E-05   -0.15151E-05  1487   0.817E-03    0.358E-03
RMM:   5    -0.615716530325E+03    0.20231E-06   -0.99550E-07  1415   0.225E-03    0.171E-03
RMM:   6    -0.615716530247E+03    0.77653E-07   -0.21832E-07   909   0.888E-04
 228 F= -.62407025E+03 E0= -.62407025E+03  d E =-.505615E-03
 curvature:  -5.63 expect dE=-0.823E-02 dE for cont linesearch -0.607E-06
 trial: gam= 1.40006 g(F)=  0.139E-02 g(S)=  0.769E-04 ort = 0.419E-04 (trialstep = 0.301E+00)
 search vector abs. value=  0.334E-01
 bond charge predicted
       N       E                     dE             d eps       ncg     rms          rms(c)
DAV:   1    -0.615717837411E+03   -0.13071E-02   -0.17613E-01  1428   0.983E-01    0.121E-01
RMM:   2    -0.615717988490E+03   -0.15108E-03   -0.31687E-03  1428   0.135E-01    0.683E-02
RMM:   3    -0.615717936395E+03    0.52094E-04   -0.18715E-04  1434   0.357E-02    0.315E-02
RMM:   4    -0.615717926642E+03    0.97537E-05   -0.48708E-05  1487   0.147E-02    0.628E-03
RMM:   5    -0.615717926192E+03    0.44990E-06   -0.30074E-06  1478   0.415E-03    0.315E-03
RMM:   6    -0.615717925996E+03    0.19623E-06   -0.64459E-07  1301   0.150E-03    0.107E-03
RMM:   7    -0.615717925934E+03    0.61584E-07   -0.99184E-08   882   0.697E-04
 229 F= -.62407066E+03 E0= -.62407066E+03  d E =-.411700E-03
 trial-energy change:   -0.000412  1 .order   -0.000408   -0.000458   -0.000358
 step:   0.9560(harm=  1.3808)  dis= 0.00486  next Energy=  -624.071088 (dE=-0.836E-03)
 bond charge predicted
       N       E                     dE             d eps       ncg     rms          rms(c)
DAV:   1    -0.615720199828E+03   -0.22738E-02   -0.83120E-01  1428   0.214E+00    0.264E-01
RMM:   2    -0.615720912794E+03   -0.71297E-03   -0.14949E-02  1428   0.293E-01    0.148E-01
RMM:   3    -0.615720666472E+03    0.24632E-03   -0.88237E-04  1434   0.774E-02    0.685E-02
RMM:   4    -0.615720621053E+03    0.45419E-04   -0.22935E-04  1487   0.319E-02    0.136E-02
RMM:   5    -0.615720619307E+03    0.17456E-05   -0.14177E-05  1477   0.902E-03    0.680E-03
RMM:   6    -0.615720618586E+03    0.72097E-06   -0.30610E-06  1444   0.324E-03    0.233E-03
RMM:   7    -0.615720618358E+03    0.22836E-06   -0.47967E-07  1144   0.140E-03    0.103E-03
RMM:   8    -0.615720618239E+03    0.11920E-06   -0.21792E-07   912   0.897E-04    0.544E-04
RMM:   9    -0.615720618192E+03    0.46210E-07   -0.84358E-08   882   0.722E-04
 230 F= -.62407123E+03 E0= -.62407123E+03  d E =-.972581E-03
 curvature: -12.82 expect dE=-0.158E-01 dE for cont linesearch -0.852E-04
 ZBRENT: increasing intervall
 opt :   2.2653  next Energy=  -624.070902 (dE=-0.650E-03)
 bond charge predicted
       N       E                     dE             d eps       ncg     rms          rms(c)
DAV:   1    -0.615722855964E+03   -0.22377E-02   -0.33246E+00  1428   0.427E+00    0.527E-01
RMM:   2    -0.615725721028E+03   -0.28651E-02   -0.59773E-02  1428   0.586E-01    0.297E-01
RMM:   3    -0.615724735649E+03    0.98538E-03   -0.35269E-03  1434   0.154E-01    0.137E-01
RMM:   4    -0.615724555331E+03    0.18032E-03   -0.91394E-04  1487   0.636E-02    0.272E-02
RMM:   5    -0.615724548958E+03    0.63736E-05   -0.56808E-05  1477   0.180E-02    0.135E-02
RMM:   6    -0.615724546454E+03    0.25040E-05   -0.11989E-05  1447   0.643E-03    0.469E-03
RMM:   7    -0.615724545649E+03    0.80445E-06   -0.20314E-06  1448   0.279E-03    0.204E-03
RMM:   8    -0.615724545223E+03    0.42679E-06   -0.80541E-07  1313   0.148E-03    0.981E-04
RMM:   9    -0.615724545035E+03    0.18771E-06   -0.26346E-07   987   0.849E-04    0.499E-04
RMM:  10    -0.615724544932E+03    0.10309E-06   -0.18561E-07   907   0.669E-04    0.275E-04
RMM:  11    -0.615724544916E+03    0.15247E-07   -0.50904E-08   876   0.466E-04
 231 F= -.62407091E+03 E0= -.62407091E+03  d E =-.662353E-03
 curvature:  48.55 expect dE= 0.301E+00 dE for cont linesearch  0.136E-02
 ZBRENT: bracketing found
 ZBRENT: interpolating
 opt :   1.3849  next Energy=  -624.071326 (dE=-0.107E-02)
 bond charge predicted
       N       E                     dE             d eps       ncg     rms          rms(c)
DAV:   1    -0.615721359495E+03    0.31854E-02   -0.15036E+00  1428   0.287E+00    0.355E-01
RMM:   2    -0.615722642541E+03   -0.12830E-02   -0.27100E-02  1428   0.392E-01    0.199E-01
RMM:   3    -0.615722199358E+03    0.44318E-03   -0.15876E-03  1433   0.105E-01    0.924E-02
RMM:   4    -0.615722118279E+03    0.81080E-04   -0.42017E-04  1489   0.433E-02    0.184E-02
RMM:   5    -0.615722116161E+03    0.21171E-05   -0.25476E-05  1481   0.121E-02    0.930E-03
RMM:   6    -0.615722115280E+03    0.88167E-06   -0.54344E-06  1442   0.433E-03    0.311E-03
RMM:   7    -0.615722115002E+03    0.27743E-06   -0.89077E-07  1354   0.185E-03    0.137E-03
RMM:   8    -0.615722114842E+03    0.16057E-06   -0.34972E-07  1062   0.103E-03    0.651E-04
RMM:   9    -0.615722114807E+03    0.34321E-07   -0.12680E-07   886   0.732E-04
 232 F= -.62407133E+03 E0= -.62407133E+03  d E =-.107730E-02
 curvature:  -3.61 expect dE=-0.788E-02 dE for cont linesearch -0.207E-08
 trial: gam= 1.41503 g(F)=  0.214E-02 g(S)=  0.475E-04 ort =-0.438E-05 (trialstep = 0.251E+00)
 search vector abs. value=  0.691E-01
 bond charge predicted
       N       E                     dE             d eps       ncg     rms          rms(c)
DAV:   1    -0.615723437912E+03   -0.13231E-02   -0.26098E-01  1428   0.119E+00    0.146E-01
RMM:   2    -0.615723696700E+03   -0.25879E-03   -0.48217E-03  1428   0.165E-01    0.810E-02
RMM:   3    -0.615723622049E+03    0.74651E-04   -0.25743E-04  1429   0.427E-02    0.387E-02
RMM:   4    -0.615723606990E+03    0.15059E-04   -0.79069E-05  1489   0.185E-02    0.706E-03
RMM:   5    -0.615723606317E+03    0.67294E-06   -0.42757E-06  1456   0.487E-03    0.348E-03
RMM:   6    -0.615723606104E+03    0.21291E-06   -0.84726E-07  1359   0.171E-03    0.139E-03
RMM:   7    -0.615723606025E+03    0.78511E-07   -0.15261E-07   886   0.858E-04
 233 F= -.62407179E+03 E0= -.62407179E+03  d E =-.457134E-03
 trial-energy change:   -0.000457  1 .order   -0.000451   -0.000546   -0.000357
 step:   0.5802(harm=  0.7231)  dis= 0.00445  next Energy=  -624.072035 (dE=-0.705E-03)
 bond charge predicted
       N       E                     dE             d eps       ncg     rms          rms(c)
DAV:   1    -0.615724982641E+03   -0.13765E-02   -0.45167E-01  1428   0.157E+00    0.192E-01
RMM:   2    -0.615725429189E+03   -0.44655E-03   -0.83319E-03  1428   0.216E-01    0.106E-01
RMM:   3    -0.615725299365E+03    0.12982E-03   -0.44501E-04  1429   0.561E-02    0.509E-02
RMM:   4    -0.615725273196E+03    0.26169E-04   -0.13711E-04  1489   0.243E-02    0.927E-03
RMM:   5    -0.615725272017E+03    0.11786E-05   -0.74453E-06  1456   0.642E-03    0.458E-03
RMM:   6    -0.615725271632E+03    0.38463E-06   -0.15309E-06  1400   0.228E-03    0.185E-03
RMM:   7    -0.615725271484E+03    0.14847E-06   -0.29390E-07   978   0.112E-03    0.732E-04
RMM:   8    -0.615725271434E+03    0.49804E-07   -0.12259E-07   882   0.735E-04
 234 F= -.62407210E+03 E0= -.62407210E+03  d E =-.766413E-03
 curvature: -10.42 expect dE=-0.141E-01 dE for cont linesearch -0.282E-04
 ZBRENT: extrapolating
 opt :   0.7242  next Energy=  -624.072127 (dE=-0.798E-03)
 bond charge predicted
       N       E                     dE             d eps       ncg     rms          rms(c)
DAV:   1    -0.615725842089E+03   -0.57061E-03   -0.86164E-02  1464   0.686E-01    0.840E-02
RMM:   2    -0.615725927337E+03   -0.85248E-04   -0.15895E-03  1428   0.945E-02    0.465E-02
RMM:   3    -0.615725902493E+03    0.24844E-04   -0.84827E-05  1429   0.245E-02    0.222E-02
RMM:   4    -0.615725897354E+03    0.51385E-05   -0.26216E-05  1489   0.106E-02    0.405E-03
RMM:   5    -0.615725897077E+03    0.27749E-06   -0.14261E-06  1458   0.281E-03    0.201E-03
RMM:   6    -0.615725896971E+03    0.10596E-06   -0.25826E-07   954   0.997E-04    0.800E-04
RMM:   7    -0.615725896934E+03    0.36980E-07   -0.74107E-08   882   0.633E-04
 235 F= -.62407213E+03 E0= -.62407213E+03  d E =-.800947E-03
 curvature: -11.49 expect dE=-0.224E-01 dE for cont linesearch -0.102E-08
 trial: gam= 0.86347 g(F)=  0.189E-02 g(S)=  0.532E-04 ort =-0.248E-05 (trialstep = 0.345E+00)
 search vector abs. value=  0.534E-01
 bond charge predicted
       N       E                     dE             d eps       ncg     rms          rms(c)
DAV:   1    -0.615727301627E+03   -0.14047E-02   -0.39552E-01  1428   0.147E+00    0.175E-01
RMM:   2    -0.615727721689E+03   -0.42006E-03   -0.75086E-03  1428   0.205E-01    0.101E-01
RMM:   3    -0.615727600694E+03    0.12100E-03   -0.40087E-04  1434   0.529E-02    0.472E-02
RMM:   4    -0.615727576703E+03    0.23991E-04   -0.11869E-04  1490   0.225E-02    0.875E-03
RMM:   5    -0.615727575728E+03    0.97503E-06   -0.61189E-06  1445   0.596E-03    0.441E-03
RMM:   6    -0.615727575338E+03    0.38965E-06   -0.13227E-06  1390   0.211E-03    0.157E-03
RMM:   7    -0.615727575200E+03    0.13876E-06   -0.23067E-07   931   0.998E-04    0.644E-04
RMM:   8    -0.615727575149E+03    0.50430E-07   -0.11237E-07   882   0.727E-04
 236 F= -.62407269E+03 E0= -.62407269E+03  d E =-.562097E-03
 trial-energy change:   -0.000562  1 .order   -0.000557   -0.000672   -0.000442
 step:   0.8441(harm=  1.0105)  dis= 0.00639  next Energy=  -624.073028 (dE=-0.897E-03)
 bond charge predicted
       N       E                     dE             d eps       ncg     rms          rms(c)
DAV:   1    -0.615729010790E+03   -0.14356E-02   -0.82500E-01  1428   0.212E+00    0.252E-01
RMM:   2    -0.615729887747E+03   -0.87696E-03   -0.15660E-02  1428   0.297E-01    0.145E-01
RMM:   3    -0.615729635688E+03    0.25206E-03   -0.83601E-04  1435   0.763E-02    0.682E-02
RMM:   4    -0.615729586019E+03    0.49669E-04   -0.24716E-04  1489   0.324E-02    0.126E-02
RMM:   5    -0.615729584092E+03    0.19270E-05   -0.12742E-05  1443   0.861E-03    0.635E-03
RMM:   6    -0.615729583353E+03    0.73870E-06   -0.27839E-06  1456   0.307E-03    0.228E-03
RMM:   7    -0.615729583095E+03    0.25863E-06   -0.51308E-07  1157   0.143E-03    0.922E-04
RMM:   8    -0.615729582988E+03    0.10643E-06   -0.18649E-07   902   0.842E-04    0.543E-04
RMM:   9    -0.615729582944E+03    0.44263E-07   -0.83841E-08   882   0.680E-04
 237 F= -.62407310E+03 E0= -.62407310E+03  d E =-.965200E-03
 curvature: -13.01 expect dE=-0.220E-01 dE for cont linesearch -0.252E-04
 trial: gam= 0.70902 g(F)=  0.166E-02 g(S)=  0.323E-04 ort = 0.322E-03 (trialstep = 0.445E+00)
 search vector abs. value=  0.290E-01
 bond charge predicted
       N       E                     dE             d eps       ncg     rms          rms(c)
DAV:   1    -0.615730122839E+03   -0.53985E-03   -0.35878E-01  1428   0.140E+00    0.163E-01
RMM:   2    -0.615730550891E+03   -0.42805E-03   -0.67169E-03  1428   0.191E-01    0.936E-02
RMM:   3    -0.615730450541E+03    0.10035E-03   -0.32975E-04  1430   0.488E-02    0.444E-02
RMM:   4    -0.615730431548E+03    0.18993E-04   -0.10177E-04  1485   0.212E-02    0.786E-03
RMM:   5    -0.615730430716E+03    0.83278E-06   -0.60496E-06  1439   0.560E-03    0.378E-03
RMM:   6    -0.615730430587E+03    0.12860E-06   -0.97191E-07  1398   0.187E-03    0.165E-03
RMM:   7    -0.615730430507E+03    0.80254E-07   -0.19621E-07   909   0.929E-04
 238 F= -.62407373E+03 E0= -.62407373E+03  d E =-.633224E-03
 trial-energy change:   -0.000633  1 .order   -0.000630   -0.000855   -0.000406
 step:   0.8204(harm=  0.8473)  dis= 0.00445  next Energy=  -624.073902 (dE=-0.806E-03)
 bond charge predicted
       N       E                     dE             d eps       ncg     rms          rms(c)
DAV:   1    -0.615730572958E+03   -0.14237E-03   -0.25516E-01  1428   0.118E+00    0.137E-01
RMM:   2    -0.615730877336E+03   -0.30438E-03   -0.47781E-03  1428   0.161E-01    0.789E-02
RMM:   3    -0.615730805679E+03    0.71658E-04   -0.23491E-04  1430   0.412E-02    0.374E-02
RMM:   4    -0.615730792109E+03    0.13569E-04   -0.72638E-05  1484   0.179E-02    0.665E-03
RMM:   5    -0.615730791489E+03    0.62017E-06   -0.43543E-06  1438   0.475E-03    0.320E-03
RMM:   6    -0.615730791381E+03    0.10815E-06   -0.67975E-07  1283   0.158E-03    0.139E-03
RMM:   7    -0.615730791316E+03    0.64701E-07   -0.15664E-07   889   0.847E-04
 239 F= -.62407391E+03 E0= -.62407391E+03  d E =-.816012E-03
 curvature:  -6.37 expect dE=-0.126E-01 dE for cont linesearch -0.981E-06
 trial: gam= 1.34993 g(F)=  0.186E-02 g(S)=  0.114E-03 ort = 0.669E-04 (trialstep = 0.274E+00)
 search vector abs. value=  0.550E-01
 bond charge predicted
       N       E                     dE             d eps       ncg     rms          rms(c)
DAV:   1    -0.615730485211E+03    0.30617E-03   -0.28737E-01  1428   0.125E+00    0.138E-01
RMM:   2    -0.615730844176E+03   -0.35897E-03   -0.54435E-03  1428   0.171E-01    0.798E-02
RMM:   3    -0.615730767871E+03    0.76305E-04   -0.26164E-04  1436   0.434E-02    0.394E-02
RMM:   4    -0.615730752004E+03    0.15868E-04   -0.90409E-05  1482   0.192E-02    0.639E-03
RMM:   5    -0.615730751421E+03    0.58295E-06   -0.35941E-06  1438   0.464E-03    0.339E-03
RMM:   6    -0.615730751308E+03    0.11266E-06   -0.99694E-07  1368   0.183E-03    0.123E-03
RMM:   7    -0.615730751270E+03    0.38497E-07   -0.13849E-07   892   0.810E-04
 240 F= -.62407439E+03 E0= -.62407439E+03  d E =-.480433E-03
 trial-energy change:   -0.000480  1 .order   -0.000478   -0.000567   -0.000390
 step:   0.7758(harm=  0.8757)  dis= 0.00578  next Energy=  -624.074762 (dE=-0.849E-03)
 bond charge predicted
       N       E                     dE             d eps       ncg     rms          rms(c)
DAV:   1    -0.615729319212E+03    0.14321E-02   -0.96131E-01  1428   0.228E+00    0.253E-01
RMM:   2    -0.615730518281E+03   -0.11991E-02   -0.18206E-02  1428   0.312E-01    0.146E-01
RMM:   3    -0.615730262583E+03    0.25570E-03   -0.87505E-04  1436   0.794E-02    0.721E-02
RMM:   4    -0.615730208759E+03    0.53824E-04   -0.30271E-04  1482   0.352E-02    0.117E-02
RMM:   5    -0.615730206830E+03    0.19294E-05   -0.11946E-05  1440   0.847E-03    0.622E-03
RMM:   6    -0.615730206436E+03    0.39357E-06   -0.33816E-06  1453   0.334E-03    0.225E-03
RMM:   7    -0.615730206309E+03    0.12739E-06   -0.48620E-07  1094   0.140E-03    0.920E-04
RMM:   8    -0.615730206230E+03    0.78573E-07   -0.15381E-07   887   0.772E-04
 241 F= -.62407481E+03 E0= -.62407481E+03  d E =-.893909E-03
 curvature: -11.33 expect dE=-0.218E-01 dE for cont linesearch -0.112E-04
 trial: gam= 0.76923 g(F)=  0.190E-02 g(S)=  0.272E-04 ort = 0.233E-03 (trialstep = 0.375E+00)
 search vector abs. value=  0.348E-01
 bond charge predicted
       N       E                     dE             d eps       ncg     rms          rms(c)
DAV:   1    -0.615729636864E+03    0.56944E-03   -0.34257E-01  1428   0.136E+00    0.154E-01
RMM:   2    -0.615730053716E+03   -0.41685E-03   -0.65078E-03  1428   0.185E-01    0.865E-02
RMM:   3    -0.615729966792E+03    0.86924E-04   -0.31851E-04  1430   0.485E-02    0.430E-02
RMM:   4    -0.615729949672E+03    0.17120E-04   -0.10420E-04  1486   0.212E-02    0.760E-03
RMM:   5    -0.615729949194E+03    0.47784E-06   -0.46480E-06  1463   0.515E-03    0.405E-03
RMM:   6    -0.615729949162E+03    0.31774E-07   -0.12662E-06  1391   0.207E-03    0.145E-03
RMM:   7    -0.615729949154E+03    0.83455E-08   -0.11622E-07   882   0.796E-04
 242 F= -.62407541E+03 E0= -.62407541E+03  d E =-.603508E-03
 trial-energy change:   -0.000604  1 .order   -0.000604   -0.000787   -0.000420
 step:   0.8020(harm=  0.8020)  dis= 0.00473  next Energy=  -624.075649 (dE=-0.843E-03)
 bond charge predicted
       N       E                     dE             d eps       ncg     rms          rms(c)
DAV:   1    -0.615728798461E+03    0.11507E-02   -0.44631E-01  1428   0.156E+00    0.176E-01
RMM:   2    -0.615729341954E+03   -0.54349E-03   -0.84864E-03  1428   0.211E-01    0.988E-02
RMM:   3    -0.615729228608E+03    0.11335E-03   -0.41505E-04  1430   0.553E-02    0.491E-02
RMM:   4    -0.615729206173E+03    0.22435E-04   -0.13606E-04  1486   0.242E-02    0.868E-03
RMM:   5    -0.615729205544E+03    0.62866E-06   -0.60497E-06  1463   0.588E-03    0.463E-03
RMM:   6    -0.615729205497E+03    0.47847E-07   -0.16521E-06  1403   0.236E-03    0.166E-03
RMM:   7    -0.615729205485E+03    0.11689E-07   -0.14909E-07   887   0.900E-04
 243 F= -.62407565E+03 E0= -.62407565E+03  d E =-.845754E-03
 curvature:  -6.65 expect dE=-0.117E-01 dE for cont linesearch -0.658E-08
 trial: gam= 1.04668 g(F)=  0.173E-02 g(S)=  0.253E-04 ort = 0.588E-05 (trialstep = 0.401E+00)
 search vector abs. value=  0.399E-01
 bond charge predicted
       N       E                     dE             d eps       ncg     rms          rms(c)
DAV:   1    -0.615728586859E+03    0.61864E-03   -0.45915E-01  1428   0.158E+00    0.172E-01
RMM:   2    -0.615729166909E+03   -0.58005E-03   -0.87099E-03  1428   0.211E-01    0.976E-02
RMM:   3    -0.615729057166E+03    0.10974E-03   -0.41276E-04  1437   0.554E-02    0.496E-02
RMM:   4    -0.615729033508E+03    0.23658E-04   -0.13825E-04  1480   0.244E-02    0.825E-03
RMM:   5    -0.615729033119E+03    0.38923E-06   -0.59079E-06  1487   0.586E-03    0.467E-03
RMM:   6    -0.615729033123E+03   -0.39217E-08   -0.14001E-06  1405   0.235E-03    0.156E-03
RMM:   7    -0.615729033120E+03    0.34743E-08   -0.14255E-07   886   0.869E-04
 244 F= -.62407624E+03 E0= -.62407624E+03  d E =-.587663E-03
 trial-energy change:   -0.000588  1 .order   -0.000585   -0.000708   -0.000461
 step:   1.0352(harm=  1.1493)  dis= 0.00671  next Energy=  -624.076615 (dE=-0.963E-03)
 bond charge predicted
       N       E                     dE             d eps       ncg     rms          rms(c)
DAV:   1    -0.615727137595E+03    0.18955E-02   -0.11456E+00  1428   0.249E+00    0.272E-01
RMM:   2    -0.615728584843E+03   -0.14472E-02   -0.21747E-02  1428   0.333E-01    0.154E-01
RMM:   3    -0.615728310731E+03    0.27411E-03   -0.10299E-03  1437   0.876E-02    0.783E-02
RMM:   4    -0.615728250831E+03    0.59900E-04   -0.34545E-04  1480   0.386E-02    0.131E-02
RMM:   5    -0.615728249741E+03    0.10902E-05   -0.14752E-05  1487   0.928E-03    0.739E-03
RMM:   6    -0.615728249661E+03    0.79646E-07   -0.35097E-06  1450   0.370E-03    0.247E-03
RMM:   7    -0.615728249641E+03    0.20271E-07   -0.37862E-07  1037   0.136E-03
 245 F= -.62407666E+03 E0= -.62407666E+03  d E =-.101194E-02
 curvature: -12.70 expect dE=-0.287E-01 dE for cont linesearch -0.974E-05
 trial: gam= 1.05407 g(F)=  0.223E-02 g(S)=  0.278E-04 ort = 0.175E-03 (trialstep = 0.449E+00)
 search vector abs. value=  0.470E-01
 bond charge predicted
       N       E                     dE             d eps       ncg     rms          rms(c)
DAV:   1    -0.615727985498E+03    0.26416E-03   -0.69151E-01  1428   0.194E+00    0.213E-01
RMM:   2    -0.615728953763E+03   -0.96826E-03   -0.13660E-02  1428   0.264E-01    0.118E-01
RMM:   3    -0.615728784965E+03    0.16880E-03   -0.63612E-04  1435   0.683E-02    0.617E-02
RMM:   4    -0.615728746605E+03    0.38360E-04   -0.23612E-04  1477   0.308E-02    0.107E-02
RMM:   5    -0.615728744696E+03    0.19088E-05   -0.10689E-05  1449   0.770E-03    0.536E-03
RMM:   6    -0.615728744580E+03    0.11567E-06   -0.29569E-06  1466   0.309E-03    0.222E-03
RMM:   7    -0.615728744466E+03    0.11437E-06   -0.36470E-07  1014   0.134E-03    0.964E-04
RMM:   8    -0.615728744430E+03    0.36001E-07   -0.14958E-07   884   0.767E-04
 246 F= -.62407744E+03 E0= -.62407744E+03  d E =-.775490E-03
 trial-energy change:   -0.000775  1 .order   -0.000778   -0.001095   -0.000460
 step:   0.7874(harm=  0.7742)  dis= 0.00601  next Energy=  -624.077612 (dE=-0.948E-03)
 bond charge predicted
       N       E                     dE             d eps       ncg     rms          rms(c)
DAV:   1    -0.615728263973E+03    0.48049E-03   -0.39388E-01  1444   0.146E+00    0.161E-01
RMM:   2    -0.615728815071E+03   -0.55110E-03   -0.77758E-03  1428   0.199E-01    0.893E-02
RMM:   3    -0.615728718955E+03    0.96116E-04   -0.36211E-04  1435   0.515E-02    0.466E-02
RMM:   4    -0.615728697184E+03    0.21770E-04   -0.13435E-04  1477   0.233E-02    0.808E-03
RMM:   5    -0.615728696128E+03    0.10564E-05   -0.60894E-06  1448   0.581E-03    0.404E-03
RMM:   6    -0.615728696081E+03    0.47192E-07   -0.16702E-06  1416   0.234E-03    0.167E-03
RMM:   7    -0.615728696014E+03    0.66648E-07   -0.19921E-07   921   0.102E-03
 247 F= -.62407761E+03 E0= -.62407761E+03  d E =-.942363E-03
 curvature:  -7.44 expect dE=-0.169E-01 dE for cont linesearch -0.347E-06
 trial: gam= 1.17456 g(F)=  0.226E-02 g(S)=  0.759E-05 ort =-0.468E-04 (trialstep = 0.362E+00)
 search vector abs. value=  0.670E-01
 bond charge predicted
       N       E                     dE             d eps       ncg     rms          rms(c)
DAV:   1    -0.615728312990E+03    0.38309E-03   -0.62890E-01  1428   0.184E+00    0.197E-01
RMM:   2    -0.615729189373E+03   -0.87638E-03   -0.12313E-02  1428   0.249E-01    0.115E-01
RMM:   3    -0.615729039473E+03    0.14990E-03   -0.57512E-04  1433   0.650E-02    0.587E-02
RMM:   4    -0.615729007834E+03    0.31639E-04   -0.19429E-04  1479   0.286E-02    0.104E-02
RMM:   5    -0.615729006360E+03    0.14740E-05   -0.11292E-05  1438   0.776E-03    0.499E-03
RMM:   6    -0.615729006255E+03    0.10453E-06   -0.16766E-06  1461   0.252E-03    0.226E-03
RMM:   7    -0.615729006185E+03    0.70202E-07   -0.36371E-07  1041   0.126E-03
 248 F= -.62407823E+03 E0= -.62407823E+03  d E =-.626322E-03
 trial-energy change:   -0.000626  1 .order   -0.000626   -0.000803   -0.000448
 step:   0.8199(harm=  0.8199)  dis= 0.00735  next Energy=  -624.078515 (dE=-0.909E-03)
 bond charge predicted
       N       E                     dE             d eps       ncg     rms          rms(c)
DAV:   1    -0.615727785116E+03    0.12211E-02   -0.10034E+00  1428   0.233E+00    0.248E-01
RMM:   2    -0.615729183769E+03   -0.13987E-02   -0.19652E-02  1428   0.315E-01    0.145E-01
RMM:   3    -0.615728944292E+03    0.23948E-03   -0.91895E-04  1434   0.821E-02    0.741E-02
RMM:   4    -0.615728893566E+03    0.50726E-04   -0.31001E-04  1479   0.361E-02    0.131E-02
RMM:   5    -0.615728891193E+03    0.23731E-05   -0.18012E-05  1438   0.982E-03    0.631E-03
RMM:   6    -0.615728891030E+03    0.16316E-06   -0.26882E-06  1496   0.319E-03    0.286E-03
RMM:   7    -0.615728890926E+03    0.10420E-06   -0.59802E-07  1207   0.159E-03    0.938E-04
RMM:   8    -0.615728890886E+03    0.39479E-07   -0.13274E-07   883   0.792E-04
 249 F= -.62407852E+03 E0= -.62407852E+03  d E =-.917332E-03
 curvature: -12.39 expect dE=-0.384E-01 dE for cont linesearch -0.898E-07
 trial: gam= 1.18140 g(F)=  0.308E-02 g(S)=  0.227E-04 ort = 0.220E-04 (trialstep = 0.315E+00)
 search vector abs. value=  0.967E-01
 bond charge predicted
       N       E                     dE             d eps       ncg     rms          rms(c)
DAV:   1    -0.615728244432E+03    0.64649E-03   -0.69979E-01  1428   0.195E+00    0.210E-01
RMM:   2    -0.615729258306E+03   -0.10139E-02   -0.13980E-02  1428   0.267E-01    0.121E-01
RMM:   3    -0.615729089584E+03    0.16872E-03   -0.63513E-04  1438   0.691E-02    0.632E-02
RMM:   4    -0.615729050225E+03    0.39359E-04   -0.23208E-04  1471   0.309E-02    0.109E-02
RMM:   5    -0.615729048429E+03    0.17964E-05   -0.12001E-05  1441   0.804E-03    0.517E-03
RMM:   6    -0.615729048347E+03    0.81818E-07   -0.19021E-06  1474   0.268E-03    0.250E-03
RMM:   7    -0.615729048300E+03    0.46966E-07   -0.41222E-07  1071   0.135E-03
 250 F= -.62407933E+03 E0= -.62407933E+03  d E =-.808566E-03
 trial-energy change:   -0.000809  1 .order   -0.000809   -0.000983   -0.000635
 step:   0.8879(harm=  0.8879)  dis= 0.01058  next Energy=  -624.079911 (dE=-0.139E-02)
 bond charge predicted
       N       E                     dE             d eps       ncg     rms          rms(c)
DAV:   1    -0.615725766113E+03    0.32822E-02   -0.23250E+00  1428   0.355E+00    0.383E-01
RMM:   2    -0.615729135556E+03   -0.33694E-02   -0.46511E-02  1428   0.486E-01    0.220E-01
RMM:   3    -0.615728573546E+03    0.56201E-03   -0.21137E-03  1438   0.126E-01    0.115E-01
RMM:   4    -0.615728441357E+03    0.13219E-03   -0.77381E-04  1471   0.563E-02    0.199E-02
RMM:   5    -0.615728435367E+03    0.59901E-05   -0.40046E-05  1441   0.147E-02    0.945E-03
RMM:   6    -0.615728435097E+03    0.27037E-06   -0.63346E-06  1502   0.489E-03    0.458E-03
RMM:   7    -0.615728434953E+03    0.14385E-06   -0.14623E-06  1428   0.245E-03    0.139E-03
RMM:   8    -0.615728434903E+03    0.50335E-07   -0.24073E-07   962   0.988E-04
 251 F= -.62407992E+03 E0= -.62407992E+03  d E =-.139589E-02
 curvature: -13.73 expect dE=-0.343E-01 dE for cont linesearch -0.179E-06
 trial: gam= 0.84327 g(F)=  0.249E-02 g(S)=  0.855E-05 ort = 0.355E-04 (trialstep = 0.429E+00)
 search vector abs. value=  0.713E-01
 bond charge predicted
       N       E                     dE             d eps       ncg     rms          rms(c)
DAV:   1    -0.615727858805E+03    0.57615E-03   -0.91176E-01  1428   0.222E+00    0.243E-01
RMM:   2    -0.615729148001E+03   -0.12892E-02   -0.17980E-02  1428   0.301E-01    0.139E-01
RMM:   3    -0.615728925826E+03    0.22217E-03   -0.81688E-04  1435   0.779E-02    0.710E-02
RMM:   4    -0.615728876002E+03    0.49824E-04   -0.27968E-04  1467   0.343E-02    0.116E-02
RMM:   5    -0.615728874453E+03    0.15497E-05   -0.14497E-05  1451   0.894E-03    0.588E-03
RMM:   6    -0.615728874391E+03    0.61082E-07   -0.22825E-06  1489   0.291E-03    0.259E-03
RMM:   7    -0.615728874375E+03    0.16295E-07   -0.47816E-07  1106   0.138E-03
 252 F= -.62408074E+03 E0= -.62408074E+03  d E =-.823695E-03
 trial-energy change:   -0.000824  1 .order   -0.000821   -0.001084   -0.000559
 step:   0.8617(harm=  0.8862)  dis= 0.00898  next Energy=  -624.081027 (dE=-0.111E-02)
 bond charge predicted
       N       E                     dE             d eps       ncg     rms          rms(c)
DAV:   1    -0.615727753578E+03    0.11208E-02   -0.92571E-01  1428   0.223E+00    0.245E-01
RMM:   2    -0.615729062493E+03   -0.13089E-02   -0.18268E-02  1428   0.304E-01    0.140E-01
RMM:   3    -0.615728836015E+03    0.22648E-03   -0.83080E-04  1435   0.785E-02    0.716E-02
RMM:   4    -0.615728785273E+03    0.50742E-04   -0.28512E-04  1469   0.346E-02    0.118E-02
RMM:   5    -0.615728783673E+03    0.15996E-05   -0.14619E-05  1448   0.896E-03    0.593E-03
RMM:   6    -0.615728783612E+03    0.60652E-07   -0.23301E-06  1492   0.294E-03    0.260E-03
RMM:   7    -0.615728783594E+03    0.17819E-07   -0.49185E-07  1114   0.140E-03
 253 F= -.62408105E+03 E0= -.62408105E+03  d E =-.112702E-02
 curvature: -12.48 expect dE=-0.393E-01 dE for cont linesearch -0.105E-05
 trial: gam= 1.24292 g(F)=  0.310E-02 g(S)=  0.501E-04 ort = 0.775E-04 (trialstep = 0.324E+00)
 search vector abs. value=  0.113E+00
 bond charge predicted
       N       E                     dE             d eps       ncg     rms          rms(c)
DAV:   1    -0.615728923246E+03   -0.13963E-03   -0.83552E-01  1428   0.212E+00    0.231E-01
RMM:   2    -0.615730081461E+03   -0.11582E-02   -0.16189E-02  1428   0.287E-01    0.134E-01
RMM:   3    -0.615729877243E+03    0.20422E-03   -0.75841E-04  1432   0.739E-02    0.673E-02
RMM:   4    -0.615729834884E+03    0.42359E-04   -0.25233E-04  1479   0.326E-02    0.116E-02
RMM:   5    -0.615729833230E+03    0.16543E-05   -0.13694E-05  1451   0.872E-03    0.599E-03
RMM:   6    -0.615729833092E+03    0.13739E-06   -0.24007E-06  1474   0.300E-03    0.234E-03
RMM:   7    -0.615729833044E+03    0.47999E-07   -0.38113E-07  1062   0.133E-03
 254 F= -.62408190E+03 E0= -.62408190E+03  d E =-.850435E-03
 trial-energy change:   -0.000850  1 .order   -0.000842   -0.001051   -0.000632
 step:   0.7063(harm=  0.8116)  dis= 0.00879  next Energy=  -624.082284 (dE=-0.124E-02)
 bond charge predicted
       N       E                     dE             d eps       ncg     rms          rms(c)
DAV:   1    -0.615729293908E+03    0.53918E-03   -0.11636E+00  1428   0.250E+00    0.273E-01
RMM:   2    -0.615730907342E+03   -0.16134E-02   -0.22553E-02  1428   0.339E-01    0.158E-01
RMM:   3    -0.615730622776E+03    0.28457E-03   -0.10561E-03  1432   0.872E-02    0.794E-02
RMM:   4    -0.615730563668E+03    0.59108E-04   -0.35160E-04  1479   0.385E-02    0.137E-02
RMM:   5    -0.615730561334E+03    0.23337E-05   -0.19127E-05  1451   0.103E-02    0.708E-03
RMM:   6    -0.615730561132E+03    0.20139E-06   -0.33774E-06  1482   0.352E-03    0.278E-03
RMM:   7    -0.615730561062E+03    0.70708E-07   -0.55552E-07  1191   0.158E-03
 255 F= -.62408240E+03 E0= -.62408240E+03  d E =-.135173E-02
 curvature: -13.53 expect dE=-0.319E-01 dE for cont linesearch -0.216E-04
 trial: gam= 0.66368 g(F)=  0.227E-02 g(S)=  0.845E-04 ort = 0.426E-03 (trialstep = 0.400E+00)
 search vector abs. value=  0.529E-01
 bond charge predicted
       N       E                     dE             d eps       ncg     rms          rms(c)
DAV:   1    -0.615731915415E+03   -0.13543E-02   -0.60972E-01  1428   0.182E+00    0.195E-01
RMM:   2    -0.615732774115E+03   -0.85870E-03   -0.12037E-02  1428   0.248E-01    0.111E-01
RMM:   3    -0.615732631305E+03    0.14281E-03   -0.54845E-04  1434   0.641E-02    0.587E-02
RMM:   4    -0.615732596992E+03    0.34313E-04   -0.20101E-04  1472   0.290E-02    0.102E-02
RMM:   5    -0.615732595266E+03    0.17261E-05   -0.97863E-06  1461   0.727E-03    0.516E-03
RMM:   6    -0.615732594931E+03    0.33521E-06   -0.23490E-06  1459   0.283E-03    0.213E-03
RMM:   7    -0.615732594813E+03    0.11811E-06   -0.30423E-07   985   0.126E-03    0.802E-04
RMM:   8    -0.615732594782E+03    0.30679E-07   -0.12502E-07   882   0.724E-04
 256 F= -.62408323E+03 E0= -.62408323E+03  d E =-.828685E-03
 trial-energy change:   -0.000829  1 .order   -0.000824   -0.001057   -0.000592
 step:   0.8527(harm=  0.9097)  dis= 0.00763  next Energy=  -624.083567 (dE=-0.117E-02)
 bond charge predicted
       N       E                     dE             d eps       ncg     rms          rms(c)
DAV:   1    -0.615733458582E+03   -0.86377E-03   -0.77727E-01  1428   0.205E+00    0.220E-01
RMM:   2    -0.615734553375E+03   -0.10948E-02   -0.15338E-02  1428   0.280E-01    0.126E-01
RMM:   3    -0.615734371818E+03    0.18156E-03   -0.69837E-04  1434   0.723E-02    0.662E-02
RMM:   4    -0.615734328191E+03    0.43627E-04   -0.25569E-04  1471   0.327E-02    0.115E-02
RMM:   5    -0.615734326032E+03    0.21582E-05   -0.12478E-05  1462   0.822E-03    0.581E-03
RMM:   6    -0.615734325629E+03    0.40385E-06   -0.29746E-06  1464   0.319E-03    0.240E-03
RMM:   7    -0.615734325489E+03    0.13971E-06   -0.40112E-07  1086   0.141E-03    0.898E-04
RMM:   8    -0.615734325450E+03    0.38526E-07   -0.13668E-07   885   0.732E-04
 257 F= -.62408360E+03 E0= -.62408360E+03  d E =-.120379E-02
 curvature:  -9.01 expect dE=-0.240E-01 dE for cont linesearch -0.410E-05
 trial: gam= 1.26416 g(F)=  0.263E-02 g(S)=  0.328E-04 ort = 0.155E-03 (trialstep = 0.296E+00)
 search vector abs. value=  0.876E-01
 bond charge predicted
       N       E                     dE             d eps       ncg     rms          rms(c)
DAV:   1    -0.615735985895E+03   -0.16604E-02   -0.53722E-01  1428   0.171E+00    0.186E-01
RMM:   2    -0.615736695262E+03   -0.70937E-03   -0.10466E-02  1428   0.232E-01    0.106E-01
RMM:   3    -0.615736574860E+03    0.12040E-03   -0.49564E-04  1433   0.608E-02    0.550E-02
RMM:   4    -0.615736546977E+03    0.27882E-04   -0.15924E-04  1467   0.266E-02    0.971E-03
RMM:   5    -0.615736546120E+03    0.85717E-06   -0.86609E-06  1467   0.698E-03    0.496E-03
RMM:   6    -0.615736545820E+03    0.30014E-06   -0.16066E-06  1419   0.238E-03    0.193E-03
RMM:   7    -0.615736545722E+03    0.98516E-07   -0.25385E-07   948   0.107E-03
 258 F= -.62408433E+03 E0= -.62408433E+03  d E =-.730553E-03
 trial-energy change:   -0.000731  1 .order   -0.000724   -0.000847   -0.000600
 step:   0.7950(harm=  1.0162)  dis= 0.00920  next Energy=  -624.084869 (dE=-0.127E-02)
 bond charge predicted
       N       E                     dE             d eps       ncg     rms          rms(c)
DAV:   1    -0.615738128624E+03   -0.15828E-02   -0.15192E+00  1428   0.288E+00    0.313E-01
RMM:   2    -0.615740137895E+03   -0.20093E-02   -0.29583E-02  1428   0.390E-01    0.178E-01
RMM:   3    -0.615739798132E+03    0.33976E-03   -0.14010E-03  1432   0.102E-01    0.924E-02
RMM:   4    -0.615739720661E+03    0.77472E-04   -0.44953E-04  1467   0.447E-02    0.163E-02
RMM:   5    -0.615739718457E+03    0.22040E-05   -0.24593E-05  1468   0.118E-02    0.831E-03
RMM:   6    -0.615739717771E+03    0.68581E-06   -0.44848E-06  1465   0.399E-03    0.323E-03
RMM:   7    -0.615739717574E+03    0.19711E-06   -0.79057E-07  1315   0.179E-03    0.988E-04
RMM:   8    -0.615739717523E+03    0.50572E-07   -0.12865E-07   885   0.718E-04
 259 F= -.62408501E+03 E0= -.62408501E+03  d E =-.140559E-02
 curvature: -14.10 expect dE=-0.429E-01 dE for cont linesearch -0.672E-04
 ZBRENT: extrapolating
 opt :   1.0289  next Energy=  -624.085083 (dE=-0.148E-02)
 bond charge predicted
       N       E                     dE             d eps       ncg     rms          rms(c)
DAV:   1    -0.615740613935E+03   -0.89636E-03   -0.33414E-01  1464   0.135E+00    0.147E-01
RMM:   2    -0.615741055874E+03   -0.44194E-03   -0.65073E-03  1428   0.183E-01    0.834E-02
RMM:   3    -0.615740981108E+03    0.74766E-04   -0.30760E-04  1433   0.479E-02    0.433E-02
RMM:   4    -0.615740963636E+03    0.17472E-04   -0.98882E-05  1468   0.210E-02    0.764E-03
RMM:   5    -0.615740963076E+03    0.55959E-06   -0.53538E-06  1466   0.548E-03    0.390E-03
RMM:   6    -0.615740962872E+03    0.20369E-06   -0.98066E-07  1384   0.187E-03    0.152E-03
RMM:   7    -0.615740962801E+03    0.71079E-07   -0.15491E-07   884   0.867E-04
 260 F= -.62408509E+03 E0= -.62408509E+03  d E =-.148355E-02
 curvature: -15.85 expect dE=-0.765E-01 dE for cont linesearch -0.436E-07
 trial: gam= 1.78963 g(F)=  0.476E-02 g(S)=  0.683E-04 ort =-0.155E-04 (trialstep = 0.136E+00)
 search vector abs. value=  0.285E+00
 bond charge predicted
       N       E                     dE             d eps       ncg     rms          rms(c)
DAV:   1    -0.615742063494E+03   -0.11006E-02   -0.38009E-01  1428   0.144E+00    0.148E-01
RMM:   2    -0.615742590183E+03   -0.52669E-03   -0.73008E-03  1428   0.193E-01    0.865E-02
RMM:   3    -0.615742509252E+03    0.80931E-04   -0.33538E-04  1432   0.500E-02    0.452E-02
RMM:   4    -0.615742490622E+03    0.18630E-04   -0.11514E-04  1464   0.223E-02    0.791E-03
RMM:   5    -0.615742489801E+03    0.82063E-06   -0.67261E-06  1464   0.606E-03    0.382E-03
RMM:   6    -0.615742489669E+03    0.13269E-06   -0.90807E-07  1371   0.185E-03    0.173E-03
RMM:   7    -0.615742489618E+03    0.50724E-07   -0.21601E-07   917   0.952E-04
 261 F= -.62408570E+03 E0= -.62408570E+03  d E =-.616027E-03
 ZBRENT: can't locate minimum, use default step
 trial-energy change:   -0.000616  1 .order   -0.000607   -0.000652   -0.000561
 step:   0.5440(harm=  0.9724)  dis= 0.01062  next Energy=  -624.087418 (dE=-0.233E-02)
 bond charge predicted
       N       E                     dE             d eps       ncg     rms          rms(c)
DAV:   1    -0.615742650283E+03   -0.16061E-03   -0.34201E+00  1428   0.431E+00    0.444E-01
RMM:   2    -0.615747395822E+03   -0.47455E-02   -0.65658E-02  1428   0.580E-01    0.259E-01
RMM:   3    -0.615746669039E+03    0.72678E-03   -0.30199E-03  1432   0.150E-01    0.136E-01
RMM:   4    -0.615746504947E+03    0.16409E-03   -0.10321E-03  1465   0.668E-02    0.237E-02
RMM:   5    -0.615746498180E+03    0.67675E-05   -0.60213E-05  1462   0.181E-02    0.114E-02
RMM:   6    -0.615746497321E+03    0.85869E-06   -0.82315E-06  1479   0.554E-03    0.518E-03
RMM:   7    -0.615746497066E+03    0.25531E-06   -0.21094E-06  1428   0.275E-03    0.147E-03
RMM:   8    -0.615746497002E+03    0.63956E-07   -0.29791E-07   994   0.111E-03
 262 F= -.62408699E+03 E0= -.62408699E+03  d E =-.190562E-02
 curvature: -21.33 expect dE=-0.640E-01 dE for cont linesearch -0.343E-03
 ZBRENT: increasing intervall
 opt :   1.3599  next Energy=  -624.087121 (dE=-0.204E-02)
 bond charge predicted
       N       E                     dE             d eps       ncg     rms          rms(c)
DAV:   1    -0.615736523311E+03    0.99738E-02   -0.13675E+01  1428   0.862E+00    0.886E-01
RMM:   2    -0.615755577287E+03   -0.19054E-01   -0.26263E-01  1428   0.116E+00    0.519E-01
RMM:   3    -0.615752680258E+03    0.28970E-02   -0.12092E-02  1432   0.299E-01    0.272E-01
RMM:   4    -0.615752025787E+03    0.65447E-03   -0.41254E-03  1466   0.134E-01    0.476E-02
RMM:   5    -0.615751998824E+03    0.26963E-04   -0.24090E-04  1458   0.361E-02    0.226E-02
RMM:   6    -0.615751995781E+03    0.30432E-05   -0.32806E-05  1486   0.110E-02    0.104E-02
RMM:   7    -0.615751994902E+03    0.87925E-06   -0.84049E-06  1443   0.553E-03    0.294E-03
RMM:   8    -0.615751994687E+03    0.21489E-06   -0.13305E-06  1416   0.218E-03    0.165E-03
RMM:   9    -0.615751994498E+03    0.18901E-06   -0.75730E-07  1285   0.151E-03    0.878E-04
RMM:  10    -0.615751994415E+03    0.83513E-07   -0.15396E-07   895   0.738E-04
 263 F= -.62408712E+03 E0= -.62408712E+03  d E =-.203409E-02
 curvature:  -8.06 expect dE=-0.872E-01 dE for cont linesearch -0.997E-04
 ZBRENT: bracketing found
 ZBRENT: interpolating
 opt :   0.9787  next Energy=  -624.087477 (dE=-0.239E-02)
 bond charge predicted
       N       E                     dE             d eps       ncg     rms          rms(c)
DAV:   1    -0.615746471436E+03    0.55231E-02   -0.29861E+00  1428   0.402E+00    0.416E-01
RMM:   2    -0.615750620632E+03   -0.41492E-02   -0.57570E-02  1428   0.541E-01    0.242E-01
RMM:   3    -0.615749993565E+03    0.62707E-03   -0.26279E-03  1432   0.140E-01    0.127E-01
RMM:   4    -0.615749851605E+03    0.14196E-03   -0.91484E-04  1465   0.626E-02    0.223E-02
RMM:   5    -0.615749846046E+03    0.55589E-05   -0.52966E-05  1463   0.170E-02    0.108E-02
RMM:   6    -0.615749845557E+03    0.48930E-06   -0.71149E-06  1481   0.518E-03    0.494E-03
RMM:   7    -0.615749845480E+03    0.76667E-07   -0.18449E-06  1428   0.256E-03    0.135E-03
RMM:   8    -0.615749845442E+03    0.38461E-07   -0.24082E-07   966   0.103E-03
 264 F= -.62408747E+03 E0= -.62408747E+03  d E =-.238222E-02
 curvature: -28.95 expect dE=-0.162E+00 dE for cont linesearch -0.398E-07
 trial: gam= 1.01832 g(F)=  0.527E-02 g(S)=  0.311E-03 ort = 0.198E-04 (trialstep = 0.288E+00)
 search vector abs. value=  0.302E+00
 bond charge predicted
       N       E                     dE             d eps       ncg     rms          rms(c)
DAV:   1    -0.615749592750E+03    0.25273E-03   -0.18527E+00  1428   0.317E+00    0.330E-01
RMM:   2    -0.615752278418E+03   -0.26857E-02   -0.35722E-02  1428   0.426E-01    0.190E-01
RMM:   3    -0.615751884737E+03    0.39368E-03   -0.15837E-03  1434   0.109E-01    0.102E-01
RMM:   4    -0.615751790621E+03    0.94116E-04   -0.60322E-04  1461   0.499E-02    0.182E-02
RMM:   5    -0.615751785191E+03    0.54298E-05   -0.37790E-05  1449   0.141E-02    0.829E-03
RMM:   6    -0.615751784953E+03    0.23878E-06   -0.40480E-06  1523   0.414E-03    0.425E-03
RMM:   7    -0.615751784874E+03    0.78871E-07   -0.14597E-06  1420   0.215E-03    0.120E-03
RMM:   8    -0.615751784847E+03    0.26455E-07   -0.17573E-07   926   0.913E-04
 265 F= -.62408881E+03 E0= -.62408881E+03  d E =-.134008E-02
 trial-energy change:   -0.001340  1 .order   -0.001339   -0.001615   -0.001062
 step:   0.8413(harm=  0.8413)  dis= 0.01682  next Energy=  -624.089825 (dE=-0.236E-02)
 bond charge predicted
       N       E                     dE             d eps       ncg     rms          rms(c)
DAV:   1    -0.615745866025E+03    0.59188E-02   -0.68211E+00  1428   0.607E+00    0.633E-01
RMM:   2    -0.615755754905E+03   -0.98889E-02   -0.13143E-01  1428   0.818E-01    0.364E-01
RMM:   3    -0.615754307084E+03    0.14478E-02   -0.58298E-03  1433   0.209E-01    0.195E-01
RMM:   4    -0.615753961393E+03    0.34569E-03   -0.22145E-03  1460   0.957E-02    0.348E-02
RMM:   5    -0.615753941902E+03    0.19491E-04   -0.13938E-04  1449   0.270E-02    0.159E-02
RMM:   6    -0.615753941046E+03    0.85642E-06   -0.14992E-05  1523   0.795E-03    0.811E-03
RMM:   7    -0.615753940725E+03    0.32057E-06   -0.53774E-06  1439   0.412E-03    0.231E-03
RMM:   8    -0.615753940638E+03    0.87130E-07   -0.74504E-07  1252   0.175E-03
 266 F= -.62408985E+03 E0= -.62408985E+03  d E =-.237924E-02
 curvature: -22.63 expect dE=-0.154E+00 dE for cont linesearch -0.454E-06
 trial: gam= 1.21650 g(F)=  0.669E-02 g(S)=  0.116E-03 ort = 0.777E-04 (trialstep = 0.265E+00)
 search vector abs. value=  0.453E+00
 bond charge predicted
       N       E                     dE             d eps       ncg     rms          rms(c)
DAV:   1    -0.615753404656E+03    0.53607E-03   -0.22604E+00  1428   0.350E+00    0.370E-01
RMM:   2    -0.615756525177E+03   -0.31205E-02   -0.42911E-02  1428   0.468E-01    0.217E-01
RMM:   3    -0.615756020914E+03    0.50426E-03   -0.19636E-03  1430   0.121E-01    0.114E-01
RMM:   4    -0.615755910308E+03    0.11061E-03   -0.69591E-04  1456   0.539E-02    0.211E-02
RMM:   5    -0.615755904028E+03    0.62808E-05   -0.53323E-05  1453   0.166E-02    0.961E-03
RMM:   6    -0.615755903596E+03    0.43137E-06   -0.49930E-06  1524   0.460E-03    0.487E-03
RMM:   7    -0.615755903399E+03    0.19768E-06   -0.19138E-06  1420   0.245E-03    0.142E-03
RMM:   8    -0.615755903343E+03    0.55432E-07   -0.27626E-07   983   0.107E-03
 267 F= -.62409136E+03 E0= -.62409136E+03  d E =-.151026E-02
 trial-energy change:   -0.001510  1 .order   -0.001513   -0.001831   -0.001194
 step:   0.7628(harm=  0.7628)  dis= 0.01963  next Energy=  -624.092479 (dE=-0.263E-02)
 bond charge predicted
       N       E                     dE             d eps       ncg     rms          rms(c)
DAV:   1    -0.615749049798E+03    0.68536E-02   -0.79446E+00  1428   0.655E+00    0.694E-01
RMM:   2    -0.615760030302E+03   -0.10981E-01   -0.15098E-01  1428   0.877E-01    0.406E-01
RMM:   3    -0.615758250387E+03    0.17799E-02   -0.69094E-03  1429   0.227E-01    0.213E-01
RMM:   4    -0.615757861094E+03    0.38929E-03   -0.24523E-03  1458   0.101E-01    0.397E-02
RMM:   5    -0.615757839323E+03    0.21771E-04   -0.18828E-04  1452   0.310E-02    0.180E-02
RMM:   6    -0.615757837954E+03    0.13688E-05   -0.17296E-05  1524   0.859E-03    0.909E-03
RMM:   7    -0.615757837403E+03    0.55118E-06   -0.67211E-06  1443   0.458E-03    0.267E-03
RMM:   8    -0.615757837246E+03    0.15687E-06   -0.10644E-06  1345   0.200E-03    0.148E-03
RMM:   9    -0.615757837138E+03    0.10831E-06   -0.48039E-07  1164   0.121E-03    0.655E-04
RMM:  10    -0.615757837088E+03    0.49960E-07   -0.93176E-08   882   0.639E-04
 268 F= -.62409248E+03 E0= -.62409248E+03  d E =-.263707E-02
 curvature: -25.05 expect dE=-0.177E+00 dE for cont linesearch -0.323E-07
 trial: gam= 1.08101 g(F)=  0.682E-02 g(S)=  0.232E-03 ort = 0.242E-04 (trialstep = 0.308E+00)
 search vector abs. value=  0.537E+00
 bond charge predicted
       N       E                     dE             d eps       ncg     rms          rms(c)
DAV:   1    -0.615757341902E+03    0.49524E-03   -0.36774E+00  1428   0.446E+00    0.468E-01
RMM:   2    -0.615762340631E+03   -0.49987E-02   -0.69635E-02  1428   0.599E-01    0.275E-01
RMM:   3    -0.615761524724E+03    0.81591E-03   -0.32074E-03  1430   0.155E-01    0.144E-01
RMM:   4    -0.615761338908E+03    0.18582E-03   -0.11403E-03  1463   0.696E-02    0.267E-02
RMM:   5    -0.615761328987E+03    0.99211E-05   -0.82320E-05  1449   0.205E-02    0.120E-02
RMM:   6    -0.615761328074E+03    0.91346E-06   -0.83302E-06  1511   0.592E-03    0.620E-03
RMM:   7    -0.615761327651E+03    0.42319E-06   -0.34599E-06  1430   0.327E-03    0.187E-03
RMM:   8    -0.615761327551E+03    0.10004E-06   -0.58743E-07  1120   0.149E-03    0.113E-03
RMM:   9    -0.615761327475E+03    0.75739E-07   -0.26169E-07   986   0.929E-04
 269 F= -.62409436E+03 E0= -.62409436E+03  d E =-.187958E-02
 trial-energy change:   -0.001880  1 .order   -0.001879   -0.002180   -0.001579
 step:   1.1174(harm=  1.1174)  dis= 0.03191  next Energy=  -624.096437 (dE=-0.395E-02)
 bond charge predicted
       N       E                     dE             d eps       ncg     rms          rms(c)
DAV:   1    -0.615739806470E+03    0.21521E-01   -0.25367E+01  1428   0.117E+01    0.123E+00
RMM:   2    -0.615774450246E+03   -0.34644E-01   -0.48118E-01  1428   0.158E+00    0.722E-01
RMM:   3    -0.615768848311E+03    0.56019E-02   -0.22214E-02  1430   0.405E-01    0.380E-01
RMM:   4    -0.615767558656E+03    0.12897E-02   -0.78674E-03  1465   0.184E-01    0.707E-02
RMM:   5    -0.615767491193E+03    0.67463E-04   -0.56804E-04  1447   0.538E-02    0.314E-02
RMM:   6    -0.615767485621E+03    0.55722E-05   -0.57101E-05  1511   0.155E-02    0.162E-02
RMM:   7    -0.615767483149E+03    0.24714E-05   -0.24004E-05  1437   0.862E-03    0.497E-03
RMM:   8    -0.615767482558E+03    0.59137E-06   -0.43977E-06  1445   0.394E-03    0.301E-03
RMM:   9    -0.615767482055E+03    0.50233E-06   -0.19685E-06  1394   0.248E-03    0.128E-03
RMM:  10    -0.615767481903E+03    0.15268E-06   -0.36545E-07  1060   0.108E-03    0.780E-04
RMM:  11    -0.615767481830E+03    0.73218E-07   -0.11609E-07   884   0.683E-04
 270 F= -.62409640E+03 E0= -.62409640E+03  d E =-.391969E-02
 curvature: -42.38 expect dE=-0.368E+00 dE for cont linesearch -0.113E-05
 trial: gam= 1.25114 g(F)=  0.846E-02 g(S)=  0.227E-03 ort =-0.120E-03 (trialstep = 0.297E+00)
 search vector abs. value=  0.849E+00
 bond charge predicted
       N       E                     dE             d eps       ncg     rms          rms(c)
DAV:   1    -0.615766140096E+03    0.13418E-02   -0.54927E+00  1428   0.547E+00    0.581E-01
RMM:   2    -0.615773706279E+03   -0.75662E-02   -0.10581E-01  1428   0.740E-01    0.337E-01
RMM:   3    -0.615772469081E+03    0.12372E-02   -0.48958E-03  1433   0.191E-01    0.179E-01
RMM:   4    -0.615772177783E+03    0.29130E-03   -0.17248E-03  1469   0.859E-02    0.326E-02
RMM:   5    -0.615772164949E+03    0.12835E-04   -0.11084E-04  1447   0.242E-02    0.148E-02
RMM:   6    -0.615772163859E+03    0.10895E-05   -0.12690E-05  1513   0.715E-03    0.745E-03
RMM:   7    -0.615772163429E+03    0.43073E-06   -0.47611E-06  1431   0.394E-03    0.216E-03
RMM:   8    -0.615772163329E+03    0.99451E-07   -0.75385E-07  1230   0.171E-03
 271 F= -.62409845E+03 E0= -.62409845E+03  d E =-.205135E-02
 trial-energy change:   -0.002051  1 .order   -0.002045   -0.002538   -0.001551
 step:   0.7217(harm=  0.7640)  dis= 0.02525  next Energy=  -624.099582 (dE=-0.318E-02)
 bond charge predicted
       N       E                     dE             d eps       ncg     rms          rms(c)
DAV:   1    -0.615764861534E+03    0.73019E-02   -0.11200E+01  1428   0.781E+00    0.828E-01
RMM:   2    -0.615780314847E+03   -0.15453E-01   -0.21572E-01  1428   0.106E+00    0.481E-01
RMM:   3    -0.615777800958E+03    0.25139E-02   -0.99830E-03  1433   0.272E-01    0.255E-01
RMM:   4    -0.615777207486E+03    0.59347E-03   -0.35102E-03  1468   0.123E-01    0.466E-02
RMM:   5    -0.615777181426E+03    0.26060E-04   -0.22617E-04  1445   0.346E-02    0.211E-02
RMM:   6    -0.615777179372E+03    0.20547E-05   -0.25993E-05  1516   0.102E-02    0.106E-02
RMM:   7    -0.615777178571E+03    0.80081E-06   -0.98719E-06  1433   0.566E-03    0.314E-03
RMM:   8    -0.615777178375E+03    0.19554E-06   -0.16582E-06  1379   0.249E-03    0.184E-03
RMM:   9    -0.615777178192E+03    0.18361E-06   -0.75159E-07  1281   0.160E-03    0.827E-04
RMM:  10    -0.615777178133E+03    0.58659E-07   -0.11784E-07   882   0.693E-04
 272 F= -.62409978E+03 E0= -.62409978E+03  d E =-.337422E-02
 curvature: -37.65 expect dE=-0.256E+00 dE for cont linesearch -0.952E-05
 trial: gam= 0.67778 g(F)=  0.666E-02 g(S)=  0.144E-03 ort = 0.463E-03 (trialstep = 0.382E+00)
 search vector abs. value=  0.397E+00
 bond charge predicted
       N       E                     dE             d eps       ncg     rms          rms(c)
DAV:   1    -0.615776020207E+03    0.11580E-02   -0.41005E+00  1428   0.472E+00    0.496E-01
RMM:   2    -0.615781734476E+03   -0.57143E-02   -0.79177E-02  1428   0.638E-01    0.295E-01
RMM:   3    -0.615780800234E+03    0.93424E-03   -0.36536E-03  1432   0.165E-01    0.157E-01
RMM:   4    -0.615780585805E+03    0.21443E-03   -0.13335E-03  1465   0.746E-02    0.304E-02
RMM:   5    -0.615780572828E+03    0.12977E-04   -0.11088E-04  1450   0.229E-02    0.134E-02
RMM:   6    -0.615780571785E+03    0.10421E-05   -0.90121E-06  1504   0.640E-03    0.710E-03
RMM:   7    -0.615780571392E+03    0.39370E-06   -0.48110E-06  1435   0.381E-03    0.234E-03
RMM:   8    -0.615780571269E+03    0.12287E-06   -0.95131E-07  1256   0.179E-03    0.130E-03
RMM:   9    -0.615780571178E+03    0.90913E-07   -0.29458E-07  1016   0.101E-03
 273 F= -.62410198E+03 E0= -.62410198E+03  d E =-.220190E-02
 trial-energy change:   -0.002202  1 .order   -0.002193   -0.002720   -0.001667
 step:   0.9229(harm=  0.9869)  dis= 0.02127  next Energy=  -624.103183 (dE=-0.341E-02)
 bond charge predicted
       N       E                     dE             d eps       ncg     rms          rms(c)
DAV:   1    -0.615774365729E+03    0.62055E-02   -0.82095E+00  1428   0.667E+00    0.702E-01
RMM:   2    -0.615785827786E+03   -0.11462E-01   -0.15865E-01  1428   0.903E-01    0.417E-01
RMM:   3    -0.615783959624E+03    0.18682E-02   -0.73141E-03  1431   0.233E-01    0.222E-01
RMM:   4    -0.615783531162E+03    0.42846E-03   -0.26744E-03  1468   0.106E-01    0.430E-02
RMM:   5    -0.615783505128E+03    0.26034E-04   -0.22249E-04  1449   0.323E-02    0.190E-02
RMM:   6    -0.615783503107E+03    0.20208E-05   -0.17911E-05  1502   0.902E-03    0.100E-02
RMM:   7    -0.615783502402E+03    0.70536E-06   -0.96918E-06  1436   0.541E-03    0.333E-03
RMM:   8    -0.615783502169E+03    0.23274E-06   -0.19594E-06  1372   0.256E-03    0.185E-03
RMM:   9    -0.615783501998E+03    0.17066E-06   -0.62622E-07  1244   0.145E-03    0.700E-04
RMM:  10    -0.615783501959E+03    0.39490E-07   -0.10274E-07   882   0.682E-04
 274 F= -.62410327E+03 E0= -.62410327E+03  d E =-.349074E-02
 curvature: -27.23 expect dE=-0.213E+00 dE for cont linesearch -0.106E-04
 trial: gam= 1.19149 g(F)=  0.761E-02 g(S)=  0.209E-03 ort = 0.394E-03 (trialstep = 0.340E+00)
 search vector abs. value=  0.573E+00
 bond charge predicted
       N       E                     dE             d eps       ncg     rms          rms(c)
DAV:   1    -0.615780040350E+03    0.34616E-02   -0.48576E+00  1428   0.513E+00    0.538E-01
RMM:   2    -0.615786943447E+03   -0.69031E-02   -0.93720E-02  1428   0.692E-01    0.315E-01
RMM:   3    -0.615785867928E+03    0.10755E-02   -0.42358E-03  1434   0.178E-01    0.169E-01
RMM:   4    -0.615785614122E+03    0.25381E-03   -0.15841E-03  1467   0.807E-02    0.324E-02
RMM:   5    -0.615785599397E+03    0.14724E-04   -0.12290E-04  1448   0.243E-02    0.143E-02
RMM:   6    -0.615785598503E+03    0.89482E-06   -0.10001E-05  1502   0.680E-03    0.762E-03
RMM:   7    -0.615785598226E+03    0.27694E-06   -0.55685E-06  1436   0.407E-03    0.252E-03
RMM:   8    -0.615785598100E+03    0.12576E-06   -0.10490E-06  1284   0.191E-03    0.131E-03
RMM:   9    -0.615785598012E+03    0.87704E-07   -0.28092E-07   999   0.993E-04
 275 F= -.62410547E+03 E0= -.62410547E+03  d E =-.220417E-02
 trial-energy change:   -0.002204  1 .order   -0.002205   -0.002820   -0.001590
 step:   0.7794(harm=  0.7794)  dis= 0.02121  next Energy=  -624.106500 (dE=-0.323E-02)
 bond charge predicted
       N       E                     dE             d eps       ncg     rms          rms(c)
DAV:   1    -0.615777141733E+03    0.84564E-02   -0.81067E+00  1428   0.663E+00    0.696E-01
RMM:   2    -0.615788666421E+03   -0.11525E-01   -0.15650E-01  1428   0.894E-01    0.407E-01
RMM:   3    -0.615786871672E+03    0.17947E-02   -0.70766E-03  1434   0.229E-01    0.219E-01
RMM:   4    -0.615786447998E+03    0.42367E-03   -0.26455E-03  1468   0.104E-01    0.419E-02
RMM:   5    -0.615786423494E+03    0.24504E-04   -0.20437E-04  1447   0.313E-02    0.185E-02
RMM:   6    -0.615786422010E+03    0.14846E-05   -0.16589E-05  1503   0.877E-03    0.981E-03
RMM:   7    -0.615786421577E+03    0.43217E-06   -0.92488E-06  1435   0.524E-03    0.325E-03
RMM:   8    -0.615786421375E+03    0.20225E-06   -0.17632E-06  1355   0.247E-03    0.170E-03
RMM:   9    -0.615786421235E+03    0.14019E-06   -0.48807E-07  1188   0.127E-03    0.637E-04
RMM:  10    -0.615786421205E+03    0.29682E-07   -0.79507E-08   882   0.607E-04
 276 F= -.62410648E+03 E0= -.62410648E+03  d E =-.321080E-02
 curvature: -26.92 expect dE=-0.232E+00 dE for cont linesearch -0.132E-06
 trial: gam= 1.18010 g(F)=  0.856E-02 g(S)=  0.509E-04 ort =-0.530E-04 (trialstep = 0.304E+00)
 search vector abs. value=  0.806E+00
 bond charge predicted
       N       E                     dE             d eps       ncg     rms          rms(c)
DAV:   1    -0.615781627925E+03    0.47933E-02   -0.54424E+00  1428   0.543E+00    0.574E-01
RMM:   2    -0.615789304989E+03   -0.76771E-02   -0.10489E-01  1428   0.730E-01    0.332E-01
RMM:   3    -0.615788088619E+03    0.12164E-02   -0.47242E-03  1434   0.188E-01    0.178E-01
RMM:   4    -0.615787805376E+03    0.28324E-03   -0.17248E-03  1460   0.845E-02    0.338E-02
RMM:   5    -0.615787789974E+03    0.15401E-04   -0.13252E-04  1452   0.258E-02    0.147E-02
RMM:   6    -0.615787789252E+03    0.72199E-06   -0.11250E-05  1513   0.709E-03    0.781E-03
RMM:   7    -0.615787789014E+03    0.23867E-06   -0.55724E-06  1440   0.408E-03    0.257E-03
RMM:   8    -0.615787788888E+03    0.12595E-06   -0.10514E-06  1306   0.192E-03    0.134E-03
RMM:   9    -0.615787788786E+03    0.10171E-06   -0.31889E-07  1028   0.107E-03    0.538E-04
RMM:  10    -0.615787788770E+03    0.15891E-07   -0.59947E-08   882   0.580E-04
 277 F= -.62410862E+03 E0= -.62410862E+03  d E =-.213890E-02
 trial-energy change:   -0.002139  1 .order   -0.002138   -0.002600   -0.001676
 step:   0.8559(harm=  0.8559)  dis= 0.02754  next Energy=  -624.110139 (dE=-0.366E-02)
 bond charge predicted
       N       E                     dE             d eps       ncg     rms          rms(c)
DAV:   1    -0.615767472706E+03    0.20316E-01   -0.17921E+01  1428   0.986E+00    0.104E+00
RMM:   2    -0.615792804987E+03   -0.25332E-01   -0.34654E-01  1428   0.133E+00    0.603E-01
RMM:   3    -0.615788812256E+03    0.39927E-02   -0.15591E-02  1434   0.341E-01    0.325E-01
RMM:   4    -0.615787871772E+03    0.94048E-03   -0.57199E-03  1461   0.154E-01    0.620E-02
RMM:   5    -0.615787820588E+03    0.51185E-04   -0.43989E-04  1452   0.467E-02    0.269E-02
RMM:   6    -0.615787818119E+03    0.24684E-05   -0.36675E-05  1510   0.128E-02    0.142E-02
RMM:   7    -0.615787817441E+03    0.67831E-06   -0.18554E-05  1443   0.743E-03    0.473E-03
RMM:   8    -0.615787817070E+03    0.37124E-06   -0.36421E-06  1426   0.354E-03    0.246E-03
RMM:   9    -0.615787816789E+03    0.28080E-06   -0.11028E-06  1336   0.195E-03    0.100E-03
RMM:  10    -0.615787816733E+03    0.55690E-07   -0.15852E-07   893   0.763E-04
 278 F= -.62411013E+03 E0= -.62411013E+03  d E =-.365184E-02
 curvature: -40.35 expect dE=-0.323E+00 dE for cont linesearch -0.722E-07
 trial: gam= 0.82955 g(F)=  0.784E-02 g(S)=  0.162E-03 ort =-0.380E-04 (trialstep = 0.414E+00)
 search vector abs. value=  0.563E+00
 bond charge predicted
       N       E                     dE             d eps       ncg     rms          rms(c)
DAV:   1    -0.615781405939E+03    0.64108E-02   -0.70031E+00  1428   0.616E+00    0.648E-01
RMM:   2    -0.615791086337E+03   -0.96804E-02   -0.13470E-01  1428   0.830E-01    0.383E-01
RMM:   3    -0.615789490934E+03    0.15954E-02   -0.61892E-03  1431   0.213E-01    0.202E-01
RMM:   4    -0.615789129499E+03    0.36144E-03   -0.21984E-03  1463   0.957E-02    0.396E-02
RMM:   5    -0.615789108319E+03    0.21180E-04   -0.19098E-04  1454   0.301E-02    0.173E-02
RMM:   6    -0.615789106585E+03    0.17338E-05   -0.14701E-05  1492   0.829E-03    0.888E-03
RMM:   7    -0.615789106026E+03    0.55881E-06   -0.76695E-06  1442   0.466E-03    0.311E-03
RMM:   8    -0.615789105811E+03    0.21566E-06   -0.17823E-06  1358   0.243E-03    0.171E-03
RMM:   9    -0.615789105635E+03    0.17597E-06   -0.58971E-07  1223   0.140E-03    0.707E-04
RMM:  10    -0.615789105604E+03    0.30574E-07   -0.99041E-08   882   0.646E-04
 279 F= -.62411249E+03 E0= -.62411249E+03  d E =-.235861E-02
 trial-energy change:   -0.002359  1 .order   -0.002364   -0.003301   -0.001427
 step:   0.7410(harm=  0.7301)  dis= 0.02025  next Energy=  -624.113049 (dE=-0.292E-02)
 bond charge predicted
       N       E                     dE             d eps       ncg     rms          rms(c)
DAV:   1    -0.615783984138E+03    0.51215E-02   -0.43489E+00  1440   0.485E+00    0.511E-01
RMM:   2    -0.615789998413E+03   -0.60143E-02   -0.83676E-02  1428   0.654E-01    0.302E-01
RMM:   3    -0.615789007105E+03    0.99131E-03   -0.38490E-03  1431   0.168E-01    0.159E-01
RMM:   4    -0.615788783267E+03    0.22384E-03   -0.13655E-03  1465   0.754E-02    0.312E-02
RMM:   5    -0.615788770048E+03    0.13219E-04   -0.11820E-04  1451   0.236E-02    0.136E-02
RMM:   6    -0.615788769016E+03    0.10317E-05   -0.91828E-06  1493   0.654E-03    0.700E-03
RMM:   7    -0.615788768671E+03    0.34532E-06   -0.47450E-06  1436   0.368E-03    0.246E-03
RMM:   8    -0.615788768531E+03    0.13941E-06   -0.11047E-06  1290   0.192E-03    0.134E-03
RMM:   9    -0.615788768415E+03    0.11639E-06   -0.34854E-07  1033   0.109E-03    0.540E-04
RMM:  10    -0.615788768399E+03    0.16487E-07   -0.68707E-08   882   0.619E-04
 280 F= -.62411303E+03 E0= -.62411303E+03  d E =-.289533E-02
 curvature: -25.75 expect dE=-0.230E+00 dE for cont linesearch -0.101E-05
 trial: gam= 1.12487 g(F)=  0.877E-02 g(S)=  0.155E-03 ort =-0.149E-03 (trialstep = 0.375E+00)
 search vector abs. value=  0.721E+00
 bond charge predicted
       N       E                     dE             d eps       ncg     rms          rms(c)
DAV:   1    -0.615782223275E+03    0.65451E-02   -0.74169E+00  1428   0.634E+00    0.679E-01
RMM:   2    -0.615792398189E+03   -0.10175E-01   -0.14248E-01  1428   0.854E-01    0.396E-01
RMM:   3    -0.615790652411E+03    0.17458E-02   -0.65218E-03  1431   0.219E-01    0.209E-01
RMM:   4    -0.615790262994E+03    0.38942E-03   -0.22984E-03  1469   0.979E-02    0.403E-02
RMM:   5    -0.615790242127E+03    0.20867E-04   -0.18890E-04  1450   0.301E-02    0.176E-02
RMM:   6    -0.615790240891E+03    0.12354E-05   -0.14787E-05  1496   0.828E-03    0.904E-03
RMM:   7    -0.615790240662E+03    0.22967E-06   -0.71676E-06  1438   0.460E-03    0.293E-03
RMM:   8    -0.615790240534E+03    0.12777E-06   -0.13999E-06  1347   0.224E-03    0.155E-03
RMM:   9    -0.615790240433E+03    0.10063E-06   -0.40146E-07  1085   0.118E-03    0.564E-04
RMM:  10    -0.615790240419E+03    0.14079E-07   -0.67482E-08   882   0.612E-04
 281 F= -.62411575E+03 E0= -.62411575E+03  d E =-.272621E-02
 trial-energy change:   -0.002726  1 .order   -0.002733   -0.003280   -0.002185
 step:   1.2177(harm=  1.1220)  dis= 0.03768  next Energy=  -624.118139 (dE=-0.511E-02)
 bond charge predicted
       N       E                     dE             d eps       ncg     rms          rms(c)
DAV:   1    -0.615748492945E+03    0.41747E-01   -0.37530E+01  1428   0.143E+01    0.153E+00
RMM:   2    -0.615800281090E+03   -0.51788E-01   -0.72658E-01  1428   0.193E+00    0.893E-01
RMM:   3    -0.615791515896E+03    0.87652E-02   -0.33198E-02  1431   0.495E-01    0.474E-01
RMM:   4    -0.615789500541E+03    0.20154E-02   -0.11825E-02  1465   0.222E-01    0.924E-02
RMM:   5    -0.615789393388E+03    0.10715E-03   -0.98848E-04  1454   0.692E-02    0.402E-02
RMM:   6    -0.615789387162E+03    0.62261E-05   -0.74979E-05  1495   0.187E-02    0.206E-02
RMM:   7    -0.615789386374E+03    0.78773E-06   -0.37273E-05  1442   0.105E-02    0.675E-03
RMM:   8    -0.615789385773E+03    0.60123E-06   -0.74893E-06  1443   0.514E-03    0.351E-03
RMM:   9    -0.615789385344E+03    0.42886E-06   -0.20410E-06  1419   0.266E-03    0.128E-03
RMM:  10    -0.615789385267E+03    0.76518E-07   -0.28668E-07   994   0.102E-03
 282 F= -.62411790E+03 E0= -.62411790E+03  d E =-.487247E-02
 curvature: -45.41 expect dE=-0.639E+00 dE for cont linesearch -0.382E-04
 trial: gam= 1.59720 g(F)=  0.136E-01 g(S)=  0.463E-03 ort =-0.778E-03 (trialstep = 0.212E+00)
 search vector abs. value=  0.185E+01
 bond charge predicted
       N       E                     dE             d eps       ncg     rms          rms(c)
DAV:   1    -0.615783526578E+03    0.58588E-02   -0.60906E+00  1428   0.575E+00    0.625E-01
RMM:   2    -0.615791753501E+03   -0.82269E-02   -0.11820E-01  1428   0.781E-01    0.364E-01
RMM:   3    -0.615790246456E+03    0.15070E-02   -0.54654E-03  1433   0.200E-01    0.191E-01
RMM:   4    -0.615789907202E+03    0.33925E-03   -0.19399E-03  1474   0.894E-02    0.369E-02
RMM:   5    -0.615789889768E+03    0.17434E-04   -0.15368E-04  1443   0.272E-02    0.161E-02
RMM:   6    -0.615789888677E+03    0.10909E-05   -0.12858E-05  1497   0.770E-03    0.827E-03
RMM:   7    -0.615789888435E+03    0.24190E-06   -0.59866E-06  1433   0.427E-03    0.266E-03
RMM:   8    -0.615789888322E+03    0.11315E-06   -0.11926E-06  1330   0.208E-03    0.145E-03
RMM:   9    -0.615789888216E+03    0.10522E-06   -0.36569E-07  1040   0.112E-03    0.544E-04
RMM:  10    -0.615789888204E+03    0.12369E-07   -0.62073E-08   882   0.590E-04
 283 F= -.62412012E+03 E0= -.62412012E+03  d E =-.222046E-02
 trial-energy change:   -0.002220  1 .order   -0.002234   -0.002717   -0.001752
 step:   0.7754(harm=  0.5962)  dis= 0.03749  next Energy=  -624.122190 (dE=-0.429E-02)
 bond charge predicted
       N       E                     dE             d eps       ncg     rms          rms(c)
DAV:   1    -0.615740759824E+03    0.49128E-01   -0.43184E+01  1428   0.153E+01    0.167E+00
RMM:   2    -0.615799458517E+03   -0.58699E-01   -0.84631E-01  1428   0.209E+00    0.970E-01
RMM:   3    -0.615788877080E+03    0.10581E-01   -0.38971E-02  1433   0.536E-01    0.515E-01
RMM:   4    -0.615786402459E+03    0.24746E-02   -0.14075E-02  1474   0.241E-01    0.101E-01
RMM:   5    -0.615786274322E+03    0.12814E-03   -0.11159E-03  1441   0.731E-02    0.438E-02
RMM:   6    -0.615786266697E+03    0.76253E-05   -0.91879E-05  1497   0.207E-02    0.223E-02
RMM:   7    -0.615786265424E+03    0.12732E-05   -0.44261E-05  1434   0.116E-02    0.737E-03
RMM:   8    -0.615786264696E+03    0.72729E-06   -0.91772E-06  1445   0.572E-03    0.389E-03
RMM:   9    -0.615786264115E+03    0.58160E-06   -0.25903E-06  1428   0.297E-03    0.145E-03
RMM:  10    -0.615786264021E+03    0.93991E-07   -0.37801E-07  1079   0.115E-03
 284 F= -.62412128E+03 E0= -.62412128E+03  d E =-.338033E-02
 curvature: -33.62 expect dE=-0.536E+00 dE for cont linesearch -0.310E-03
 ZBRENT: interpolating
 opt :   0.5878  next Energy=  -624.121667 (dE=-0.377E-02)
 bond charge predicted
       N       E                     dE             d eps       ncg     rms          rms(c)
DAV:   1    -0.615783252123E+03    0.30120E-02   -0.47876E+00  1440   0.510E+00    0.554E-01
RMM:   2    -0.615789743941E+03   -0.64918E-02   -0.92913E-02  1428   0.695E-01    0.323E-01
RMM:   3    -0.615788558259E+03    0.11857E-02   -0.42923E-03  1433   0.177E-01    0.170E-01
RMM:   4    -0.615788291124E+03    0.26714E-03   -0.15346E-03  1475   0.794E-02    0.328E-02
RMM:   5    -0.615788276364E+03    0.14760E-04   -0.12321E-04  1438   0.243E-02    0.142E-02
RMM:   6    -0.615788275557E+03    0.80661E-06   -0.10416E-05  1503   0.704E-03    0.742E-03
RMM:   7    -0.615788275475E+03    0.82528E-07   -0.46289E-06  1429   0.378E-03    0.236E-03
RMM:   8    -0.615788275434E+03    0.40945E-07   -0.88529E-07  1256   0.182E-03
 285 F= -.62412166E+03 E0= -.62412166E+03  d E =-.376562E-02
 curvature: -42.02 expect dE=-0.398E+00 dE for cont linesearch -0.246E-06
 trial: gam= 0.50702 g(F)=  0.894E-02 g(S)=  0.524E-03 ort = 0.104E-03 (trialstep = 0.287E+00)
 search vector abs. value=  0.485E+00
 bond charge predicted
       N       E                     dE             d eps       ncg     rms          rms(c)
DAV:   1    -0.615786101148E+03    0.21743E-02   -0.28247E+00  1452   0.392E+00    0.456E-01
RMM:   2    -0.615789716772E+03   -0.36156E-02   -0.56084E-02  1428   0.541E-01    0.261E-01
RMM:   3    -0.615788930037E+03    0.78673E-03   -0.27185E-03  1431   0.140E-01    0.136E-01
RMM:   4    -0.615788757741E+03    0.17230E-03   -0.95870E-04  1477   0.625E-02    0.284E-02
RMM:   5    -0.615788748057E+03    0.96839E-05   -0.87540E-05  1437   0.200E-02    0.120E-02
RMM:   6    -0.615788747413E+03    0.64351E-06   -0.71209E-06  1480   0.585E-03    0.613E-03
RMM:   7    -0.615788747297E+03    0.11631E-06   -0.32513E-06  1428   0.313E-03    0.217E-03
RMM:   8    -0.615788747215E+03    0.82433E-07   -0.79565E-07  1209   0.165E-03
 286 F= -.62412394E+03 E0= -.62412394E+03  d E =-.227841E-02
 trial-energy change:   -0.002278  1 .order   -0.002283   -0.002731   -0.001835
 step:   0.8743(harm=  0.8743)  dis= 0.02037  next Energy=  -624.125826 (dE=-0.416E-02)
 bond charge predicted
       N       E                     dE             d eps       ncg     rms          rms(c)
DAV:   1    -0.615775788662E+03    0.12959E-01   -0.11839E+01  1428   0.803E+00    0.936E-01
RMM:   2    -0.615790923428E+03   -0.15135E-01   -0.23548E-01  1428   0.111E+00    0.534E-01
RMM:   3    -0.615787644318E+03    0.32791E-02   -0.11408E-02  1431   0.288E-01    0.279E-01
RMM:   4    -0.615786917509E+03    0.72681E-03   -0.40246E-03  1478   0.128E-01    0.582E-02
RMM:   5    -0.615786876875E+03    0.40634E-04   -0.36223E-04  1435   0.407E-02    0.248E-02
RMM:   6    -0.615786873913E+03    0.29617E-05   -0.30161E-05  1482   0.120E-02    0.125E-02
RMM:   7    -0.615786873332E+03    0.58138E-06   -0.13638E-05  1428   0.640E-03    0.445E-03
RMM:   8    -0.615786873019E+03    0.31316E-06   -0.34757E-06  1426   0.341E-03    0.243E-03
RMM:   9    -0.615786872727E+03    0.29137E-06   -0.11953E-06  1328   0.188E-03    0.991E-04
RMM:  10    -0.615786872688E+03    0.39261E-07   -0.12932E-07   883   0.724E-04
 287 F= -.62412584E+03 E0= -.62412584E+03  d E =-.417196E-02
 curvature: -22.27 expect dE=-0.203E+00 dE for cont linesearch -0.455E-08
 trial: gam= 1.00614 g(F)=  0.889E-02 g(S)=  0.233E-03 ort = 0.995E-05 (trialstep = 0.392E+00)
 search vector abs. value=  0.500E+00
 bond charge predicted
       N       E                     dE             d eps       ncg     rms          rms(c)
DAV:   1    -0.615782275911E+03    0.45968E-02   -0.54713E+00  1428   0.546E+00    0.634E-01
RMM:   2    -0.615789134914E+03   -0.68590E-02   -0.10815E-01  1428   0.755E-01    0.367E-01
RMM:   3    -0.615787563545E+03    0.15714E-02   -0.53583E-03  1433   0.196E-01    0.189E-01
RMM:   4    -0.615787227705E+03    0.33584E-03   -0.17909E-03  1480   0.859E-02    0.393E-02
RMM:   5    -0.615787211555E+03    0.16150E-04   -0.16314E-04  1436   0.275E-02    0.165E-02
RMM:   6    -0.615787210778E+03    0.77706E-06   -0.12939E-05  1488   0.788E-03    0.841E-03
RMM:   7    -0.615787210932E+03   -0.15385E-06   -0.60935E-06  1428   0.433E-03    0.305E-03
RMM:   8    -0.615787210822E+03    0.11058E-06   -0.15320E-06  1346   0.228E-03    0.146E-03
RMM:   9    -0.615787210734E+03    0.87286E-07   -0.30382E-07   996   0.110E-03
 288 F= -.62412864E+03 E0= -.62412864E+03  d E =-.280753E-02
 trial-energy change:   -0.002808  1 .order   -0.002822   -0.003582   -0.002063
 step:   1.0207(harm=  0.9245)  dis= 0.02304  next Energy=  -624.130236 (dE=-0.440E-02)
 bond charge predicted
       N       E                     dE             d eps       ncg     rms          rms(c)
DAV:   1    -0.615771797816E+03    0.15413E-01   -0.14058E+01  1428   0.875E+00    0.102E+00
RMM:   2    -0.615789415344E+03   -0.17618E-01   -0.27871E-01  1428   0.121E+00    0.589E-01
RMM:   3    -0.615785389721E+03    0.40256E-02   -0.13793E-02  1433   0.315E-01    0.304E-01
RMM:   4    -0.615784521545E+03    0.86818E-03   -0.46228E-03  1480   0.138E-01    0.632E-02
RMM:   5    -0.615784479985E+03    0.41560E-04   -0.41702E-04  1435   0.441E-02    0.266E-02
RMM:   6    -0.615784477933E+03    0.20524E-05   -0.33308E-05  1486   0.126E-02    0.135E-02
RMM:   7    -0.615784478336E+03   -0.40341E-06   -0.15737E-05  1428   0.695E-03    0.491E-03
RMM:   8    -0.615784478075E+03    0.26181E-06   -0.39898E-06  1417   0.367E-03    0.234E-03
RMM:   9    -0.615784477894E+03    0.18050E-06   -0.80804E-07  1291   0.174E-03    0.726E-04
RMM:  10    -0.615784477891E+03    0.33979E-08   -0.76980E-08   882   0.606E-04
 289 F= -.62412997E+03 E0= -.62412997E+03  d E =-.412879E-02
 curvature: -24.48 expect dE=-0.267E+00 dE for cont linesearch -0.504E-04
 trial: gam= 1.29868 g(F)=  0.108E-01 g(S)=  0.151E-03 ort =-0.101E-02 (trialstep = 0.304E+00)
 search vector abs. value=  0.852E+00
 bond charge predicted
       N       E                     dE             d eps       ncg     rms          rms(c)
DAV:   1    -0.615779453161E+03    0.50247E-02   -0.56510E+00  1428   0.555E+00    0.637E-01
RMM:   2    -0.615786557230E+03   -0.71041E-02   -0.11063E-01  1428   0.768E-01    0.369E-01
RMM:   3    -0.615784938845E+03    0.16184E-02   -0.54365E-03  1437   0.197E-01    0.189E-01
RMM:   4    -0.615784592604E+03    0.34624E-03   -0.18222E-03  1483   0.863E-02    0.376E-02
RMM:   5    -0.615784576425E+03    0.16179E-04   -0.15214E-04  1436   0.267E-02    0.161E-02
RMM:   6    -0.615784575290E+03    0.11343E-05   -0.12953E-05  1478   0.768E-03    0.811E-03
RMM:   7    -0.615784575251E+03    0.39014E-07   -0.57305E-06  1429   0.421E-03    0.282E-03
RMM:   8    -0.615784575150E+03    0.10167E-06   -0.14414E-06  1342   0.223E-03    0.158E-03
RMM:   9    -0.615784575035E+03    0.11465E-06   -0.41976E-07  1077   0.120E-03    0.548E-04
RMM:  10    -0.615784575032E+03    0.26848E-08   -0.57244E-08   882   0.592E-04
 290 F= -.62413224E+03 E0= -.62413224E+03  d E =-.227096E-02
 trial-energy change:   -0.002271  1 .order   -0.002272   -0.002917   -0.001627
 step:   0.6874(harm=  0.6874)  dis= 0.02018  next Energy=  -624.133263 (dE=-0.330E-02)
 bond charge predicted
       N       E                     dE             d eps       ncg     rms          rms(c)
DAV:   1    -0.615774641224E+03    0.99338E-02   -0.89831E+00  1428   0.699E+00    0.804E-01
RMM:   2    -0.615785925913E+03   -0.11285E-01   -0.17608E-01  1428   0.969E-01    0.465E-01
RMM:   3    -0.615783353186E+03    0.25727E-02   -0.86500E-03  1436   0.248E-01    0.238E-01
RMM:   4    -0.615782802301E+03    0.55089E-03   -0.29025E-03  1481   0.109E-01    0.476E-02
RMM:   5    -0.615782776599E+03    0.25702E-04   -0.24381E-04  1436   0.339E-02    0.203E-02
RMM:   6    -0.615782774813E+03    0.17865E-05   -0.20891E-05  1480   0.978E-03    0.102E-02
RMM:   7    -0.615782774779E+03    0.33855E-07   -0.90604E-06  1429   0.529E-03    0.356E-03
RMM:   8    -0.615782774630E+03    0.14880E-06   -0.23049E-06  1381   0.281E-03    0.199E-03
RMM:   9    -0.615782774465E+03    0.16504E-06   -0.67981E-07  1253   0.150E-03    0.694E-04
RMM:  10    -0.615782774454E+03    0.10881E-07   -0.77207E-08   882   0.601E-04
 291 F= -.62413324E+03 E0= -.62413324E+03  d E =-.327897E-02
 curvature: -30.52 expect dE=-0.323E+00 dE for cont linesearch -0.314E-06
 trial: gam= 0.73863 g(F)=  0.103E-01 g(S)=  0.319E-03 ort =-0.936E-04 (trialstep = 0.381E+00)
 search vector abs. value=  0.475E+00
 bond charge predicted
       N       E                     dE             d eps       ncg     rms          rms(c)
DAV:   1    -0.615780070974E+03    0.27035E-02   -0.49077E+00  1440   0.517E+00    0.578E-01
RMM:   2    -0.615786205621E+03   -0.61346E-02   -0.93325E-02  1428   0.708E-01    0.343E-01
RMM:   3    -0.615784837999E+03    0.13676E-02   -0.46299E-03  1434   0.181E-01    0.172E-01
RMM:   4    -0.615784564668E+03    0.27333E-03   -0.14714E-03  1482   0.781E-02    0.349E-02
RMM:   5    -0.615784550835E+03    0.13833E-04   -0.13566E-04  1439   0.250E-02    0.149E-02
RMM:   6    -0.615784549956E+03    0.87860E-06   -0.11091E-05  1478   0.723E-03    0.698E-03
RMM:   7    -0.615784549947E+03    0.89021E-08   -0.39329E-06  1437   0.354E-03    0.229E-03
RMM:   8    -0.615784549893E+03    0.53780E-07   -0.10004E-06  1265   0.188E-03    0.136E-03
RMM:   9    -0.615784549818E+03    0.75608E-07   -0.32048E-07  1008   0.105E-03
 292 F= -.62413659E+03 E0= -.62413659E+03  d E =-.334307E-02
 trial-energy change:   -0.003343  1 .order   -0.003357   -0.004003   -0.002710
 step:   1.4235(harm=  1.1788)  dis= 0.03021  next Energy=  -624.140021 (dE=-0.678E-02)
 bond charge predicted
       N       E                     dE             d eps       ncg     rms          rms(c)
DAV:   1    -0.615748635680E+03    0.35914E-01   -0.36772E+01  1428   0.141E+01    0.159E+00
RMM:   2    -0.615794821086E+03   -0.46185E-01   -0.70522E-01  1428   0.194E+00    0.941E-01
RMM:   3    -0.615784660772E+03    0.10160E-01   -0.34823E-02  1435   0.498E-01    0.476E-01
RMM:   4    -0.615782554645E+03    0.21061E-02   -0.11279E-02  1478   0.216E-01    0.970E-02
RMM:   5    -0.615782446762E+03    0.10788E-03   -0.10365E-03  1440   0.694E-02    0.413E-02
RMM:   6    -0.615782440280E+03    0.64817E-05   -0.82681E-05  1482   0.199E-02    0.193E-02
RMM:   7    -0.615782440634E+03   -0.35324E-06   -0.30648E-05  1438   0.981E-03    0.645E-03
RMM:   8    -0.615782440294E+03    0.33970E-06   -0.79122E-06  1450   0.523E-03    0.370E-03
RMM:   9    -0.615782439857E+03    0.43666E-06   -0.23887E-06  1421   0.275E-03    0.135E-03
RMM:  10    -0.615782439797E+03    0.60281E-07   -0.27572E-07   984   0.102E-03
 293 F= -.62413898E+03 E0= -.62413898E+03  d E =-.573513E-02
 curvature: -24.13 expect dE=-0.471E+00 dE for cont linesearch -0.328E-03
 ZBRENT: interpolating
 opt :   1.1492  next Energy=  -624.139328 (dE=-0.608E-02)
 bond charge predicted
       N       E                     dE             d eps       ncg     rms          rms(c)
DAV:   1    -0.615781664275E+03    0.77558E-03   -0.25479E+00  1452   0.372E+00    0.416E-01
RMM:   2    -0.615784863711E+03   -0.31994E-02   -0.48471E-02  1428   0.511E-01    0.247E-01
RMM:   3    -0.615784153635E+03    0.71008E-03   -0.24042E-03  1435   0.130E-01    0.124E-01
RMM:   4    -0.615784013676E+03    0.13996E-03   -0.76425E-04  1481   0.563E-02    0.251E-02
RMM:   5    -0.615784006025E+03    0.76507E-05   -0.70694E-05  1436   0.181E-02    0.107E-02
RMM:   6    -0.615784005636E+03    0.38930E-06   -0.58155E-06  1479   0.527E-03    0.507E-03
RMM:   7    -0.615784005704E+03   -0.68107E-07   -0.19853E-06  1430   0.253E-03    0.162E-03
RMM:   8    -0.615784005701E+03    0.31214E-08   -0.45132E-07  1047   0.131E-03
 294 F= -.62413933E+03 E0= -.62413933E+03  d E =-.608620E-02
 curvature: -25.65 expect dE=-0.311E+00 dE for cont linesearch -0.164E-06
 trial: gam= 1.19862 g(F)=  0.119E-01 g(S)=  0.208E-03 ort = 0.552E-04 (trialstep = 0.365E+00)
 search vector abs. value=  0.695E+00
 bond charge predicted
       N       E                     dE             d eps       ncg     rms          rms(c)
DAV:   1    -0.615776864099E+03    0.71416E-02   -0.70751E+00  1428   0.620E+00    0.692E-01
RMM:   2    -0.615785880080E+03   -0.90160E-02   -0.13509E-01  1428   0.850E-01    0.397E-01
RMM:   3    -0.615784038982E+03    0.18411E-02   -0.64893E-03  1436   0.216E-01    0.204E-01
RMM:   4    -0.615783633029E+03    0.40595E-03   -0.21620E-03  1483   0.944E-02    0.385E-02
RMM:   5    -0.615783618380E+03    0.14650E-04   -0.14755E-04  1437   0.276E-02    0.171E-02
RMM:   6    -0.615783617850E+03    0.52929E-06   -0.15236E-05  1482   0.816E-03    0.781E-03
RMM:   7    -0.615783618067E+03   -0.21614E-06   -0.47879E-06  1434   0.405E-03    0.238E-03
RMM:   8    -0.615783618072E+03   -0.55152E-08   -0.92258E-07  1277   0.192E-03
 295 F= -.62414210E+03 E0= -.62414210E+03  d E =-.277033E-02
 trial-energy change:   -0.002770  1 .order   -0.002791   -0.004455   -0.001127
 step:   0.4957(harm=  0.4891)  dis= 0.01198  next Energy=  -624.142301 (dE=-0.297E-02)
 bond charge predicted
       N       E                     dE             d eps       ncg     rms          rms(c)
DAV:   1    -0.615781810182E+03    0.18079E-02   -0.89887E-01  1464   0.221E+00    0.246E-01
RMM:   2    -0.615782953480E+03   -0.11433E-02   -0.17104E-02  1428   0.303E-01    0.141E-01
RMM:   3    -0.615782720174E+03    0.23331E-03   -0.82344E-04  1437   0.768E-02    0.724E-02
RMM:   4    -0.615782669270E+03    0.50905E-04   -0.27204E-04  1483   0.335E-02    0.136E-02
RMM:   5    -0.615782667527E+03    0.17423E-05   -0.18523E-05  1436   0.979E-03    0.605E-03
RMM:   6    -0.615782667488E+03    0.39014E-07   -0.19472E-06  1473   0.290E-03    0.277E-03
RMM:   7    -0.615782667517E+03   -0.28620E-07   -0.58686E-07  1232   0.145E-03
 296 F= -.62414229E+03 E0= -.62414229E+03  d E =-.295925E-02
 curvature: -13.90 expect dE=-0.950E-01 dE for cont linesearch -0.611E-06
 trial: gam= 0.56754 g(F)=  0.662E-02 g(S)=  0.211E-03 ort =-0.175E-03 (trialstep = 0.391E+00)
 search vector abs. value=  0.230E+00
 bond charge predicted
       N       E                     dE             d eps       ncg     rms          rms(c)
DAV:   1    -0.615779242895E+03    0.34246E-02   -0.25769E+00  1428   0.377E+00    0.429E-01
RMM:   2    -0.615782168126E+03   -0.29252E-02   -0.49224E-02  1428   0.514E-01    0.242E-01
RMM:   3    -0.615781491629E+03    0.67650E-03   -0.24781E-03  1435   0.134E-01    0.122E-01
RMM:   4    -0.615781346180E+03    0.14545E-03   -0.72908E-04  1483   0.560E-02    0.236E-02
RMM:   5    -0.615781342775E+03    0.34053E-05   -0.45488E-05  1439   0.157E-02    0.106E-02
RMM:   6    -0.615781342663E+03    0.11211E-06   -0.67378E-06  1484   0.498E-03    0.448E-03
RMM:   7    -0.615781342669E+03   -0.59699E-08   -0.13247E-06  1421   0.230E-03    0.140E-03
RMM:   8    -0.615781342623E+03    0.46002E-07   -0.23353E-07   957   0.986E-04
 297 F= -.62414450E+03 E0= -.62414450E+03  d E =-.220664E-02
 trial-energy change:   -0.002207  1 .order   -0.002208   -0.002636   -0.001780
 step:   1.2066(harm=  1.2066)  dis= 0.01618  next Energy=  -624.146351 (dE=-0.406E-02)
 bond charge predicted
       N       E                     dE             d eps       ncg     rms          rms(c)
DAV:   1    -0.615766660533E+03    0.14682E-01   -0.11167E+01  1428   0.783E+00    0.895E-01
RMM:   2    -0.615779309020E+03   -0.12648E-01   -0.21428E-01  1428   0.107E+00    0.503E-01
RMM:   3    -0.615776386953E+03    0.29221E-02   -0.10760E-02  1437   0.280E-01    0.256E-01
RMM:   4    -0.615775744082E+03    0.64287E-03   -0.31916E-03  1483   0.117E-01    0.495E-02
RMM:   5    -0.615775728275E+03    0.15807E-04   -0.19449E-04  1437   0.327E-02    0.224E-02
RMM:   6    -0.615775727196E+03    0.10790E-05   -0.29766E-05  1485   0.104E-02    0.932E-03
RMM:   7    -0.615775727089E+03    0.10708E-06   -0.57483E-06  1451   0.480E-03    0.290E-03
RMM:   8    -0.615775726954E+03    0.13503E-06   -0.11063E-06  1401   0.199E-03    0.142E-03
RMM:   9    -0.615775726800E+03    0.15472E-06   -0.46621E-07  1127   0.119E-03    0.694E-04
RMM:  10    -0.615775726764E+03    0.36060E-07   -0.90953E-08   882   0.677E-04
 298 F= -.62414630E+03 E0= -.62414630E+03  d E =-.401457E-02
 curvature: -20.66 expect dE=-0.225E+00 dE for cont linesearch -0.557E-06
 trial: gam= 1.56864 g(F)=  0.107E-01 g(S)=  0.213E-03 ort =-0.789E-04 (trialstep = 0.221E+00)
 search vector abs. value=  0.578E+00
 bond charge predicted
       N       E                     dE             d eps       ncg     rms          rms(c)
DAV:   1    -0.615773213406E+03    0.25134E-02   -0.20644E+00  1440   0.336E+00    0.382E-01
RMM:   2    -0.615775524973E+03   -0.23116E-02   -0.39284E-02  1428   0.461E-01    0.222E-01
RMM:   3    -0.615774963377E+03    0.56160E-03   -0.20581E-03  1436   0.120E-01    0.109E-01
RMM:   4    -0.615774849915E+03    0.11346E-03   -0.58484E-04  1485   0.501E-02    0.219E-02
RMM:   5    -0.615774847262E+03    0.26522E-05   -0.41486E-05  1440   0.148E-02    0.101E-02
RMM:   6    -0.615774847077E+03    0.18543E-06   -0.51906E-06  1468   0.455E-03    0.405E-03
RMM:   7    -0.615774847075E+03    0.21682E-08   -0.12133E-06  1405   0.213E-03    0.125E-03
RMM:   8    -0.615774847017E+03    0.57429E-07   -0.23228E-07   960   0.965E-04
 299 F= -.62414835E+03 E0= -.62414835E+03  d E =-.204611E-02
 trial-energy change:   -0.002046  1 .order   -0.002048   -0.002384   -0.001711
 step:   0.7832(harm=  0.7832)  dis= 0.01637  next Energy=  -624.150526 (dE=-0.422E-02)
 bond charge predicted
       N       E                     dE             d eps       ncg     rms          rms(c)
DAV:   1    -0.615758959098E+03    0.15888E-01   -0.13321E+01  1428   0.853E+00    0.974E-01
RMM:   2    -0.615773859808E+03   -0.14901E-01   -0.25496E-01  1428   0.117E+00    0.563E-01
RMM:   3    -0.615770245340E+03    0.36145E-02   -0.13304E-02  1437   0.308E-01    0.278E-01
RMM:   4    -0.615769497887E+03    0.74745E-03   -0.38339E-03  1485   0.128E-01    0.561E-02
RMM:   5    -0.615769479474E+03    0.18413E-04   -0.26546E-04  1439   0.377E-02    0.259E-02
RMM:   6    -0.615769477626E+03    0.18477E-05   -0.33958E-05  1469   0.116E-02    0.103E-02
RMM:   7    -0.615769477557E+03    0.69871E-07   -0.78362E-06  1465   0.543E-03    0.315E-03
RMM:   8    -0.615769477333E+03    0.22395E-06   -0.16285E-06  1421   0.237E-03    0.176E-03
RMM:   9    -0.615769477120E+03    0.21300E-06   -0.74855E-07  1251   0.145E-03    0.904E-04
RMM:  10    -0.615769477077E+03    0.42884E-07   -0.12746E-07   882   0.734E-04
 300 F= -.62415049E+03 E0= -.62415049E+03  d E =-.418913E-02
 curvature: -20.99 expect dE=-0.228E+00 dE for cont linesearch -0.332E-06
 trial: gam= 0.98303 g(F)=  0.104E-01 g(S)=  0.470E-03 ort =-0.956E-04 (trialstep = 0.334E+00)
 search vector abs. value=  0.569E+00
 bond charge predicted
       N       E                     dE             d eps       ncg     rms          rms(c)
DAV:   1    -0.615765502333E+03    0.39748E-02   -0.46687E+00  1428   0.504E+00    0.571E-01
RMM:   2    -0.615771229488E+03   -0.57272E-02   -0.90075E-02  1428   0.696E-01    0.328E-01
RMM:   3    -0.615769955499E+03    0.12740E-02   -0.43970E-03  1435   0.178E-01    0.165E-01
RMM:   4    -0.615769684185E+03    0.27131E-03   -0.14300E-03  1486   0.776E-02    0.302E-02
RMM:   5    -0.615769676659E+03    0.75261E-05   -0.86496E-05  1442   0.212E-02    0.145E-02
RMM:   6    -0.615769676631E+03    0.28656E-07   -0.10733E-05  1484   0.654E-03    0.653E-03
RMM:   7    -0.615769676831E+03   -0.20060E-06   -0.27922E-06  1429   0.328E-03    0.180E-03
RMM:   8    -0.615769676819E+03    0.11874E-07   -0.40223E-07  1019   0.135E-03
 301 F= -.62415344E+03 E0= -.62415344E+03  d E =-.294858E-02
 trial-energy change:   -0.002949  1 .order   -0.002955   -0.003599   -0.002310
 step:   0.9312(harm=  0.9312)  dis= 0.01985  next Energy=  -624.155517 (dE=-0.502E-02)
 bond charge predicted
       N       E                     dE             d eps       ncg     rms          rms(c)
DAV:   1    -0.615753286338E+03    0.16390E-01   -0.14973E+01  1428   0.903E+00    0.102E+00
RMM:   2    -0.615771675447E+03   -0.18389E-01   -0.29015E-01  1428   0.125E+00    0.589E-01
RMM:   3    -0.615767599236E+03    0.40762E-02   -0.14128E-02  1435   0.320E-01    0.296E-01
RMM:   4    -0.615766719831E+03    0.87941E-03   -0.46376E-03  1485   0.140E-01    0.545E-02
RMM:   5    -0.615766694968E+03    0.24863E-04   -0.27940E-04  1441   0.383E-02    0.261E-02
RMM:   6    -0.615766694716E+03    0.25181E-06   -0.35089E-05  1484   0.118E-02    0.117E-02
RMM:   7    -0.615766695347E+03   -0.63164E-06   -0.89885E-06  1429   0.588E-03    0.322E-03
RMM:   8    -0.615766695352E+03   -0.46493E-08   -0.14221E-06  1423   0.242E-03    0.168E-03
RMM:   9    -0.615766695255E+03    0.97538E-07   -0.45892E-07  1163   0.124E-03
 302 F= -.62415548E+03 E0= -.62415548E+03  d E =-.498774E-02
 curvature: -24.56 expect dE=-0.215E+00 dE for cont linesearch -0.334E-06
 trial: gam= 0.77937 g(F)=  0.836E-02 g(S)=  0.391E-03 ort =-0.879E-04 (trialstep = 0.453E+00)
 search vector abs. value=  0.354E+00
 bond charge predicted
       N       E                     dE             d eps       ncg     rms          rms(c)
DAV:   1    -0.615763399490E+03    0.32959E-02   -0.52964E+00  1440   0.537E+00    0.625E-01
RMM:   2    -0.615769912278E+03   -0.65128E-02   -0.10348E-01  1428   0.753E-01    0.360E-01
RMM:   3    -0.615768313915E+03    0.15984E-02   -0.52228E-03  1437   0.190E-01    0.175E-01
RMM:   4    -0.615767989971E+03    0.32394E-03   -0.15921E-03  1486   0.820E-02    0.314E-02
RMM:   5    -0.615767983347E+03    0.66236E-05   -0.92375E-05  1446   0.223E-02    0.156E-02
RMM:   6    -0.615767982771E+03    0.57594E-06   -0.13507E-05  1474   0.720E-03    0.610E-03
RMM:   7    -0.615767982765E+03    0.61700E-08   -0.26867E-06  1436   0.324E-03    0.194E-03
RMM:   8    -0.615767982662E+03    0.10344E-06   -0.55736E-07  1111   0.146E-03    0.997E-04
RMM:   9    -0.615767982587E+03    0.74971E-07   -0.22778E-07   968   0.926E-04
 303 F= -.62415822E+03 E0= -.62415822E+03  d E =-.273383E-02
 trial-energy change:   -0.002734  1 .order   -0.002712   -0.003933   -0.001492
 step:   0.7092(harm=  0.7302)  dis= 0.01193  next Energy=  -624.158641 (dE=-0.316E-02)
 bond charge predicted
       N       E                     dE             d eps       ncg     rms          rms(c)
DAV:   1    -0.615766121835E+03    0.18608E-02   -0.16916E+00  1464   0.303E+00    0.353E-01
RMM:   2    -0.615768200403E+03   -0.20786E-02   -0.33026E-02  1428   0.426E-01    0.203E-01
RMM:   3    -0.615767688733E+03    0.51167E-03   -0.16686E-03  1437   0.107E-01    0.986E-02
RMM:   4    -0.615767585603E+03    0.10313E-03   -0.50652E-04  1486   0.462E-02    0.177E-02
RMM:   5    -0.615767583560E+03    0.20422E-05   -0.29509E-05  1446   0.126E-02    0.882E-03
RMM:   6    -0.615767583370E+03    0.19068E-06   -0.43259E-06  1473   0.408E-03    0.345E-03
RMM:   7    -0.615767583347E+03    0.22384E-07   -0.83759E-07  1350   0.182E-03
 304 F= -.62415865E+03 E0= -.62415865E+03  d E =-.317279E-02
 curvature: -14.82 expect dE=-0.115E+00 dE for cont linesearch -0.146E-05
 trial: gam= 0.83166 g(F)=  0.763E-02 g(S)=  0.104E-03 ort = 0.187E-03 (trialstep = 0.504E+00)
 search vector abs. value=  0.253E+00
 bond charge predicted
       N       E                     dE             d eps       ncg     rms          rms(c)
DAV:   1    -0.615764991730E+03    0.25916E-02   -0.46129E+00  1428   0.500E+00    0.584E-01
RMM:   2    -0.615770543488E+03   -0.55518E-02   -0.88851E-02  1428   0.703E-01    0.340E-01
RMM:   3    -0.615769143236E+03    0.14003E-02   -0.46462E-03  1435   0.178E-01    0.160E-01
RMM:   4    -0.615768879407E+03    0.26383E-03   -0.12807E-03  1487   0.749E-02    0.296E-02
RMM:   5    -0.615768874446E+03    0.49605E-05   -0.89218E-05  1446   0.212E-02    0.146E-02
RMM:   6    -0.615768874175E+03    0.27158E-06   -0.12407E-05  1461   0.695E-03    0.557E-03
RMM:   7    -0.615768874192E+03   -0.17451E-07   -0.23260E-06  1449   0.295E-03    0.189E-03
RMM:   8    -0.615768874114E+03    0.77667E-07   -0.54732E-07  1110   0.145E-03
 305 F= -.62416138E+03 E0= -.62416138E+03  d E =-.272736E-02
 trial-energy change:   -0.002727  1 .order   -0.002724   -0.003979   -0.001470
 step:   0.7996(harm=  0.7996)  dis= 0.01116  next Energy=  -624.161809 (dE=-0.315E-02)
 bond charge predicted
       N       E                     dE             d eps       ncg     rms          rms(c)
DAV:   1    -0.615767114395E+03    0.17598E-02   -0.15815E+00  1428   0.293E+00    0.342E-01
RMM:   2    -0.615769015574E+03   -0.19012E-02   -0.30421E-02  1428   0.411E-01    0.199E-01
RMM:   3    -0.615768535445E+03    0.48013E-03   -0.15906E-03  1436   0.104E-01    0.936E-02
RMM:   4    -0.615768445253E+03    0.90193E-04   -0.43764E-04  1487   0.437E-02    0.173E-02
RMM:   5    -0.615768443559E+03    0.16935E-05   -0.30379E-05  1445   0.123E-02    0.853E-03
RMM:   6    -0.615768443463E+03    0.96115E-07   -0.42805E-06  1463   0.408E-03    0.327E-03
RMM:   7    -0.615768443454E+03    0.93896E-08   -0.77429E-07  1294   0.173E-03
 306 F= -.62416181E+03 E0= -.62416181E+03  d E =-.315705E-02
 curvature: -12.82 expect dE=-0.912E-01 dE for cont linesearch -0.276E-06
 trial: gam= 0.96330 g(F)=  0.700E-02 g(S)=  0.113E-03 ort =-0.739E-04 (trialstep = 0.563E+00)
 search vector abs. value=  0.242E+00
 bond charge predicted
       N       E                     dE             d eps       ncg     rms          rms(c)
DAV:   1    -0.615763345776E+03    0.50977E-02   -0.56394E+00  1428   0.554E+00    0.636E-01
RMM:   2    -0.615770165166E+03   -0.68194E-02   -0.10852E-01  1428   0.775E-01    0.368E-01
RMM:   3    -0.615768525432E+03    0.16397E-02   -0.54212E-03  1439   0.196E-01    0.179E-01
RMM:   4    -0.615768194768E+03    0.33066E-03   -0.16415E-03  1486   0.836E-02    0.299E-02
RMM:   5    -0.615768190048E+03    0.47202E-05   -0.87409E-05  1457   0.220E-02    0.157E-02
RMM:   6    -0.615768190082E+03   -0.34197E-07   -0.13742E-05  1465   0.735E-03    0.588E-03
RMM:   7    -0.615768190304E+03   -0.22172E-06   -0.24011E-06  1439   0.321E-03    0.184E-03
RMM:   8    -0.615768190256E+03    0.48407E-07   -0.35593E-07  1018   0.130E-03
 307 F= -.62416460E+03 E0= -.62416460E+03  d E =-.279045E-02
 trial-energy change:   -0.002790  1 .order   -0.002785   -0.003967   -0.001602
 step:   0.9450(harm=  0.9450)  dis= 0.01329  next Energy=  -624.165138 (dE=-0.333E-02)
 bond charge predicted
       N       E                     dE             d eps       ncg     rms          rms(c)
DAV:   1    -0.615764414911E+03    0.37754E-02   -0.25882E+00  1428   0.376E+00    0.431E-01
RMM:   2    -0.615767540330E+03   -0.31254E-02   -0.49757E-02  1428   0.526E-01    0.249E-01
RMM:   3    -0.615766788293E+03    0.75204E-03   -0.24875E-03  1439   0.132E-01    0.121E-01
RMM:   4    -0.615766637208E+03    0.15108E-03   -0.75076E-04  1486   0.566E-02    0.202E-02
RMM:   5    -0.615766635088E+03    0.21209E-05   -0.40128E-05  1458   0.149E-02    0.106E-02
RMM:   6    -0.615766635131E+03   -0.43910E-07   -0.62981E-06  1466   0.497E-03    0.400E-03
RMM:   7    -0.615766635231E+03   -0.99310E-07   -0.10911E-06  1409   0.217E-03    0.124E-03
RMM:   8    -0.615766635200E+03    0.31141E-07   -0.14823E-07   884   0.883E-04
 308 F= -.62416514E+03 E0= -.62416514E+03  d E =-.332668E-02
 curvature: -16.23 expect dE=-0.105E+00 dE for cont linesearch -0.893E-07
 trial: gam= 0.85842 g(F)=  0.634E-02 g(S)=  0.141E-03 ort =-0.365E-04 (trialstep = 0.640E+00)
 search vector abs. value=  0.185E+00
 bond charge predicted
       N       E                     dE             d eps       ncg     rms          rms(c)
DAV:   1    -0.615762753185E+03    0.38820E-02   -0.53923E+00  1428   0.541E+00    0.604E-01
RMM:   2    -0.615769172104E+03   -0.64189E-02   -0.99079E-02  1428   0.736E-01    0.353E-01
RMM:   3    -0.615767742963E+03    0.14291E-02   -0.48841E-03  1436   0.187E-01    0.172E-01
RMM:   4    -0.615767458263E+03    0.28470E-03   -0.15236E-03  1487   0.812E-02    0.296E-02
RMM:   5    -0.615767452021E+03    0.62414E-05   -0.87964E-05  1446   0.215E-02    0.151E-02
RMM:   6    -0.615767452033E+03   -0.12125E-07   -0.11898E-05  1470   0.688E-03    0.616E-03
RMM:   7    -0.615767452220E+03   -0.18695E-06   -0.25308E-06  1430   0.319E-03    0.180E-03
RMM:   8    -0.615767452156E+03    0.64523E-07   -0.43173E-07  1050   0.132E-03
 309 F= -.62416739E+03 E0= -.62416739E+03  d E =-.225239E-02
 trial-energy change:   -0.002252  1 .order   -0.002244   -0.004126   -0.000363
 step:   0.7006(harm=  0.7015)  dis= 0.00889  next Energy=  -624.167407 (dE=-0.227E-02)
 bond charge predicted
       N       E                     dE             d eps       ncg     rms          rms(c)
DAV:   1    -0.615767288963E+03    0.16326E-03   -0.48880E-02  1544   0.516E-01    0.575E-02
RMM:   2    -0.615767347044E+03   -0.58081E-04   -0.89386E-04  1428   0.700E-02    0.336E-02
RMM:   3    -0.615767334248E+03    0.12796E-04   -0.44048E-05  1433   0.177E-02    0.163E-02
RMM:   4    -0.615767331717E+03    0.25311E-05   -0.13701E-05  1487   0.771E-03    0.277E-03
RMM:   5    -0.615767331672E+03    0.44856E-07   -0.77652E-07  1294   0.204E-03
 310 F= -.62416741E+03 E0= -.62416741E+03  d E =-.227106E-02
 curvature: -10.04 expect dE=-0.580E-01 dE for cont linesearch -0.177E-07
 trial: gam= 0.88169 g(F)=  0.551E-02 g(S)=  0.261E-03 ort =-0.180E-04 (trialstep = 0.652E+00)
 search vector abs. value=  0.149E+00
 bond charge predicted
       N       E                     dE             d eps       ncg     rms          rms(c)
DAV:   1    -0.615767395609E+03   -0.63892E-04   -0.45822E+00  1428   0.500E+00    0.547E-01
RMM:   2    -0.615772721721E+03   -0.53261E-02   -0.82816E-02  1428   0.675E-01    0.321E-01
RMM:   3    -0.615771593336E+03    0.11284E-02   -0.41983E-03  1438   0.173E-01    0.159E-01
RMM:   4    -0.615771356440E+03    0.23690E-03   -0.13390E-03  1487   0.755E-02    0.283E-02
RMM:   5    -0.615771349726E+03    0.67138E-05   -0.76380E-05  1450   0.203E-02    0.143E-02
RMM:   6    -0.615771348901E+03    0.82436E-06   -0.10757E-05  1473   0.644E-03    0.582E-03
RMM:   7    -0.615771348723E+03    0.17880E-06   -0.24330E-06  1428   0.316E-03    0.169E-03
RMM:   8    -0.615771348605E+03    0.11730E-06   -0.39831E-07  1049   0.129E-03    0.881E-04
RMM:   9    -0.615771348515E+03    0.89854E-07   -0.20857E-07   915   0.913E-04
 311 F= -.62417006E+03 E0= -.62417006E+03  d E =-.264974E-02
 trial-energy change:   -0.002650  1 .order   -0.002645   -0.003754   -0.001535
 step:   1.1028(harm=  1.1028)  dis= 0.01223  next Energy=  -624.170584 (dE=-0.318E-02)
 bond charge predicted
       N       E                     dE             d eps       ncg     rms          rms(c)
DAV:   1    -0.615770907673E+03    0.44093E-03   -0.21918E+00  1428   0.346E+00    0.378E-01
RMM:   2    -0.615773451330E+03   -0.25437E-02   -0.39586E-02  1428   0.466E-01    0.222E-01
RMM:   3    -0.615772910136E+03    0.54119E-03   -0.20049E-03  1438   0.119E-01    0.110E-01
RMM:   4    -0.615772796606E+03    0.11353E-03   -0.64010E-04  1488   0.521E-02    0.195E-02
RMM:   5    -0.615772793368E+03    0.32379E-05   -0.36424E-05  1449   0.140E-02    0.990E-03
RMM:   6    -0.615772792952E+03    0.41568E-06   -0.51288E-06  1473   0.444E-03    0.403E-03
RMM:   7    -0.615772792853E+03    0.99542E-07   -0.11602E-06  1407   0.218E-03    0.117E-03
RMM:   8    -0.615772792788E+03    0.64618E-07   -0.17935E-07   912   0.903E-04
 312 F= -.62417058E+03 E0= -.62417058E+03  d E =-.316980E-02
 curvature: -14.29 expect dE=-0.988E-01 dE for cont linesearch -0.157E-06
 trial: gam= 1.20329 g(F)=  0.662E-02 g(S)=  0.292E-03 ort =-0.404E-04 (trialstep = 0.497E+00)
 search vector abs. value=  0.223E+00
 bond charge predicted
       N       E                     dE             d eps       ncg     rms          rms(c)
DAV:   1    -0.615773875825E+03   -0.10830E-02   -0.40479E+00  1428   0.471E+00    0.538E-01
RMM:   2    -0.615778629774E+03   -0.47539E-02   -0.75817E-02  1428   0.647E-01    0.295E-01
RMM:   3    -0.615777663095E+03    0.96668E-03   -0.36662E-03  1441   0.164E-01    0.152E-01
RMM:   4    -0.615777421346E+03    0.24175E-03   -0.12903E-03  1485   0.743E-02    0.260E-02
RMM:   5    -0.615777414443E+03    0.69021E-05   -0.61174E-05  1456   0.180E-02    0.133E-02
RMM:   6    -0.615777413470E+03    0.97354E-06   -0.11051E-05  1462   0.646E-03    0.559E-03
RMM:   7    -0.615777413276E+03    0.19370E-06   -0.22043E-06  1432   0.314E-03    0.166E-03
RMM:   8    -0.615777413220E+03    0.55756E-07   -0.29871E-07   988   0.110E-03
 313 F= -.62417266E+03 E0= -.62417266E+03  d E =-.208002E-02
 trial-energy change:   -0.002080  1 .order   -0.002073   -0.003410   -0.000735
 step:   0.6306(harm=  0.6334)  dis= 0.00853  next Energy=  -624.172758 (dE=-0.218E-02)
 bond charge predicted
       N       E                     dE             d eps       ncg     rms          rms(c)
DAV:   1    -0.615777939107E+03   -0.52583E-03   -0.29332E-01  1464   0.127E+00    0.145E-01
RMM:   2    -0.615778283213E+03   -0.34411E-03   -0.54904E-03  1428   0.174E-01    0.793E-02
RMM:   3    -0.615778213094E+03    0.70119E-04   -0.26502E-04  1442   0.443E-02    0.409E-02
RMM:   4    -0.615778195182E+03    0.17912E-04   -0.93965E-05  1486   0.200E-02    0.701E-03
RMM:   5    -0.615778194617E+03    0.56480E-06   -0.43697E-06  1455   0.479E-03    0.361E-03
RMM:   6    -0.615778194499E+03    0.11824E-06   -0.80314E-07  1351   0.174E-03    0.150E-03
RMM:   7    -0.615778194462E+03    0.36998E-07   -0.14433E-07   884   0.893E-04
 314 F= -.62417276E+03 E0= -.62417276E+03  d E =-.218272E-02
 curvature: -10.28 expect dE=-0.510E-01 dE for cont linesearch -0.126E-07
 trial: gam= 0.69599 g(F)=  0.471E-02 g(S)=  0.251E-03 ort = 0.165E-04 (trialstep = 0.524E+00)
 search vector abs. value=  0.113E+00
 bond charge predicted
       N       E                     dE             d eps       ncg     rms          rms(c)
DAV:   1    -0.615780292349E+03   -0.20979E-02   -0.21148E+00  1428   0.341E+00    0.402E-01
RMM:   2    -0.615782631854E+03   -0.23395E-02   -0.41185E-02  1428   0.481E-01    0.227E-01
RMM:   3    -0.615782007947E+03    0.62391E-03   -0.21597E-03  1439   0.123E-01    0.110E-01
RMM:   4    -0.615781879755E+03    0.12819E-03   -0.64217E-04  1486   0.523E-02    0.212E-02
RMM:   5    -0.615781876235E+03    0.35201E-05   -0.35429E-05  1451   0.137E-02    0.103E-02
RMM:   6    -0.615781875582E+03    0.65300E-06   -0.63393E-06  1468   0.476E-03    0.405E-03
RMM:   7    -0.615781875383E+03    0.19904E-06   -0.10212E-06  1413   0.216E-03    0.136E-03
RMM:   8    -0.615781875298E+03    0.84521E-07   -0.21073E-07   917   0.886E-04
 315 F= -.62417457E+03 E0= -.62417457E+03  d E =-.180668E-02
 trial-energy change:   -0.001807  1 .order   -0.001804   -0.002604   -0.001004
 step:   0.8521(harm=  0.8521)  dis= 0.00843  next Energy=  -624.174881 (dE=-0.212E-02)
 bond charge predicted
       N       E                     dE             d eps       ncg     rms          rms(c)
DAV:   1    -0.615782737877E+03   -0.86249E-03   -0.83257E-01  1428   0.214E+00    0.252E-01
RMM:   2    -0.615783658961E+03   -0.92108E-03   -0.16210E-02  1428   0.301E-01    0.142E-01
RMM:   3    -0.615783413454E+03    0.24551E-03   -0.84874E-04  1439   0.774E-02    0.690E-02
RMM:   4    -0.615783362701E+03    0.50754E-04   -0.25308E-04  1486   0.328E-02    0.133E-02
RMM:   5    -0.615783361202E+03    0.14990E-05   -0.13956E-05  1452   0.857E-03    0.650E-03
RMM:   6    -0.615783360874E+03    0.32823E-06   -0.24962E-06  1457   0.299E-03    0.254E-03
RMM:   7    -0.615783360766E+03    0.10708E-06   -0.37045E-07  1025   0.137E-03    0.854E-04
RMM:   8    -0.615783360734E+03    0.32589E-07   -0.11208E-07   882   0.745E-04
 316 F= -.62417489E+03 E0= -.62417489E+03  d E =-.212557E-02
 curvature:  -9.68 expect dE=-0.456E-01 dE for cont linesearch -0.140E-07
 trial: gam= 0.96264 g(F)=  0.460E-02 g(S)=  0.108E-03 ort =-0.128E-04 (trialstep = 0.589E+00)
 search vector abs. value=  0.109E+00
 bond charge predicted
       N       E                     dE             d eps       ncg     rms          rms(c)
DAV:   1    -0.615784194947E+03   -0.83418E-03   -0.26216E+00  1428   0.377E+00    0.445E-01
RMM:   2    -0.615787312939E+03   -0.31180E-02   -0.52209E-02  1428   0.540E-01    0.252E-01
RMM:   3    -0.615786515981E+03    0.79696E-03   -0.26639E-03  1431   0.136E-01    0.120E-01
RMM:   4    -0.615786362820E+03    0.15316E-03   -0.79151E-04  1486   0.588E-02    0.225E-02
RMM:   5    -0.615786360016E+03    0.28038E-05   -0.43291E-05  1462   0.153E-02    0.110E-02
RMM:   6    -0.615786360067E+03   -0.51019E-07   -0.68234E-06  1460   0.517E-03    0.426E-03
RMM:   7    -0.615786360217E+03   -0.15029E-06   -0.96831E-07  1406   0.217E-03    0.150E-03
RMM:   8    -0.615786360239E+03   -0.22123E-07   -0.18886E-07   887   0.946E-04
 317 F= -.62417670E+03 E0= -.62417670E+03  d E =-.181554E-02
 trial-energy change:   -0.001816  1 .order   -0.001800   -0.002769   -0.000832
 step:   0.8267(harm=  0.8425)  dis= 0.00806  next Energy=  -624.176871 (dE=-0.198E-02)
 bond charge predicted
       N       E                     dE             d eps       ncg     rms          rms(c)
DAV:   1    -0.615786665193E+03   -0.30498E-03   -0.42566E-01  1452   0.152E+00    0.179E-01
RMM:   2    -0.615787171890E+03   -0.50670E-03   -0.84770E-03  1428   0.217E-01    0.102E-01
RMM:   3    -0.615787042842E+03    0.12905E-03   -0.43186E-04  1431   0.549E-02    0.486E-02
RMM:   4    -0.615787017806E+03    0.25036E-04   -0.12893E-04  1486   0.237E-02    0.906E-03
RMM:   5    -0.615787017288E+03    0.51828E-06   -0.70185E-06  1463   0.617E-03    0.448E-03
RMM:   6    -0.615787017277E+03    0.10936E-07   -0.10934E-06  1392   0.208E-03    0.172E-03
RMM:   7    -0.615787017305E+03   -0.28027E-07   -0.13722E-07   883   0.889E-04
 318 F= -.62417689E+03 E0= -.62417689E+03  d E =-.200206E-02
 curvature:  -9.77 expect dE=-0.424E-01 dE for cont linesearch -0.540E-06
 trial: gam= 0.89438 g(F)=  0.431E-02 g(S)=  0.348E-04 ort = 0.778E-04 (trialstep = 0.637E+00)
 search vector abs. value=  0.920E-01
 bond charge predicted
       N       E                     dE             d eps       ncg     rms          rms(c)
DAV:   1    -0.615788058699E+03   -0.10414E-02   -0.25591E+00  1428   0.374E+00    0.436E-01
RMM:   2    -0.615791274678E+03   -0.32160E-02   -0.52287E-02  1428   0.538E-01    0.244E-01
RMM:   3    -0.615790510912E+03    0.76377E-03   -0.25208E-03  1431   0.135E-01    0.120E-01
RMM:   4    -0.615790358265E+03    0.15265E-03   -0.81105E-04  1484   0.593E-02    0.215E-02
RMM:   5    -0.615790354452E+03    0.38136E-05   -0.40940E-05  1458   0.147E-02    0.102E-02
RMM:   6    -0.615790354740E+03   -0.28778E-06   -0.69484E-06  1468   0.513E-03    0.430E-03
RMM:   7    -0.615790354856E+03   -0.11605E-06   -0.91600E-07  1393   0.220E-03    0.161E-03
RMM:   8    -0.615790354890E+03   -0.33840E-07   -0.17180E-07   882   0.907E-04
 319 F= -.62417866E+03 E0= -.62417866E+03  d E =-.177494E-02
 trial-energy change:   -0.001775  1 .order   -0.001753   -0.002809   -0.000697
 step:   0.8313(harm=  0.8472)  dis= 0.00732  next Energy=  -624.178771 (dE=-0.188E-02)
 bond charge predicted
       N       E                     dE             d eps       ncg     rms          rms(c)
DAV:   1    -0.615790735512E+03   -0.38066E-03   -0.23880E-01  1464   0.114E+00    0.133E-01
RMM:   2    -0.615791035613E+03   -0.30010E-03   -0.48782E-03  1428   0.164E-01    0.745E-02
RMM:   3    -0.615790964592E+03    0.71021E-04   -0.23485E-04  1431   0.413E-02    0.366E-02
RMM:   4    -0.615790950177E+03    0.14415E-04   -0.75863E-05  1484   0.181E-02    0.657E-03
RMM:   5    -0.615790949794E+03    0.38270E-06   -0.37885E-06  1458   0.449E-03    0.315E-03
RMM:   6    -0.615790949815E+03   -0.20475E-07   -0.62302E-07  1273   0.157E-03
 320 F= -.62417879E+03 E0= -.62417879E+03  d E =-.189678E-02
 curvature:  -8.78 expect dE=-0.361E-01 dE for cont linesearch -0.510E-06
 trial: gam= 0.96202 g(F)=  0.396E-02 g(S)=  0.149E-03 ort = 0.731E-04 (trialstep = 0.676E+00)
 search vector abs. value=  0.894E-01
 bond charge predicted
       N       E                     dE             d eps       ncg     rms          rms(c)
DAV:   1    -0.615794974071E+03   -0.40243E-02   -0.28493E+00  1428   0.397E+00    0.467E-01
RMM:   2    -0.615797955666E+03   -0.29816E-02   -0.56970E-02  1428   0.569E-01    0.258E-01
RMM:   3    -0.615797146501E+03    0.80916E-03   -0.29402E-03  1428   0.145E-01    0.127E-01
RMM:   4    -0.615796974315E+03    0.17219E-03   -0.86272E-04  1488   0.619E-02    0.254E-02
RMM:   5    -0.615796970518E+03    0.37967E-05   -0.47427E-05  1468   0.159E-02    0.119E-02
RMM:   6    -0.615796969772E+03    0.74549E-06   -0.83817E-06  1449   0.554E-03    0.450E-03
RMM:   7    -0.615796969587E+03    0.18520E-06   -0.12048E-06  1424   0.250E-03    0.160E-03
RMM:   8    -0.615796969506E+03    0.81433E-07   -0.26329E-07   941   0.986E-04
 321 F= -.62418088E+03 E0= -.62418088E+03  d E =-.209852E-02
 trial-energy change:   -0.002099  1 .order   -0.002077   -0.002825   -0.001328
 step:   1.1946(harm=  1.2752)  dis= 0.01127  next Energy=  -624.181404 (dE=-0.262E-02)
 bond charge predicted
       N       E                     dE             d eps       ncg     rms          rms(c)
DAV:   1    -0.615799384923E+03   -0.24153E-02   -0.16801E+00  1428   0.305E+00    0.359E-01
RMM:   2    -0.615801141324E+03   -0.17564E-02   -0.33557E-02  1428   0.436E-01    0.198E-01
RMM:   3    -0.615800663940E+03    0.47738E-03   -0.17294E-03  1428   0.112E-01    0.973E-02
RMM:   4    -0.615800561944E+03    0.10200E-03   -0.50929E-04  1488   0.476E-02    0.195E-02
RMM:   5    -0.615800559613E+03    0.23306E-05   -0.27932E-05  1469   0.122E-02    0.915E-03
RMM:   6    -0.615800559109E+03    0.50420E-06   -0.49477E-06  1449   0.426E-03    0.345E-03
RMM:   7    -0.615800558977E+03    0.13241E-06   -0.70214E-07  1329   0.191E-03    0.122E-03
RMM:   8    -0.615800558922E+03    0.54104E-07   -0.15902E-07   886   0.787E-04
 322 F= -.62418148E+03 E0= -.62418148E+03  d E =-.269201E-02
 curvature: -13.38 expect dE=-0.830E-01 dE for cont linesearch -0.941E-05
 trial: gam= 1.47219 g(F)=  0.604E-02 g(S)=  0.165E-03 ort = 0.251E-03 (trialstep = 0.347E+00)
 search vector abs. value=  0.201E+00
 bond charge predicted
       N       E                     dE             d eps       ncg     rms          rms(c)
DAV:   1    -0.615805466652E+03   -0.49077E-02   -0.16346E+00  1428   0.304E+00    0.369E-01
RMM:   2    -0.615806927174E+03   -0.14605E-02   -0.33454E-02  1428   0.442E-01    0.196E-01
RMM:   3    -0.615806491806E+03    0.43537E-03   -0.17813E-03  1428   0.113E-01    0.984E-02
RMM:   4    -0.615806386712E+03    0.10509E-03   -0.48794E-04  1488   0.472E-02    0.207E-02
RMM:   5    -0.615806384226E+03    0.24854E-05   -0.29038E-05  1468   0.120E-02    0.944E-03
RMM:   6    -0.615806383486E+03    0.74067E-06   -0.51699E-06  1447   0.431E-03    0.366E-03
RMM:   7    -0.615806383248E+03    0.23740E-06   -0.85244E-07  1377   0.212E-03    0.122E-03
RMM:   8    -0.615806383180E+03    0.67972E-07   -0.16795E-07   890   0.785E-04
 323 F= -.62418320E+03 E0= -.62418320E+03  d E =-.172309E-02
 trial-energy change:   -0.001723  1 .order   -0.001701   -0.002282   -0.001121
 step:   0.6260(harm=  0.6821)  dis= 0.00916  next Energy=  -624.183662 (dE=-0.218E-02)
 bond charge predicted
       N       E                     dE             d eps       ncg     rms          rms(c)
DAV:   1    -0.615809617893E+03   -0.32346E-02   -0.10537E+00  1428   0.244E+00    0.296E-01
RMM:   2    -0.615810560832E+03   -0.94294E-03   -0.21564E-02  1428   0.354E-01    0.157E-01
RMM:   3    -0.615810280436E+03    0.28040E-03   -0.11466E-03  1428   0.909E-02    0.790E-02
RMM:   4    -0.615810212390E+03    0.68046E-04   -0.31516E-04  1488   0.380E-02    0.166E-02
RMM:   5    -0.615810210708E+03    0.16827E-05   -0.18701E-05  1468   0.963E-03    0.760E-03
RMM:   6    -0.615810210182E+03    0.52530E-06   -0.33522E-06  1448   0.348E-03    0.294E-03
RMM:   7    -0.615810210010E+03    0.17247E-06   -0.53142E-07  1226   0.170E-03    0.977E-04
RMM:   8    -0.615810209967E+03    0.42994E-07   -0.12157E-07   882   0.694E-04
 324 F= -.62418374E+03 E0= -.62418374E+03  d E =-.226724E-02
 curvature: -10.12 expect dE=-0.361E-01 dE for cont linesearch -0.145E-04
 trial: gam= 0.57533 g(F)=  0.355E-02 g(S)=  0.168E-04 ort = 0.536E-03 (trialstep = 0.403E+00)
 search vector abs. value=  0.706E-01
 bond charge predicted
       N       E                     dE             d eps       ncg     rms          rms(c)
DAV:   1    -0.615813642248E+03   -0.34322E-02   -0.82742E-01  1440   0.216E+00    0.267E-01
RMM:   2    -0.615814407768E+03   -0.76552E-03   -0.16922E-02  1428   0.311E-01    0.138E-01
RMM:   3    -0.615814183850E+03    0.22392E-03   -0.90245E-04  1437   0.810E-02    0.700E-02
RMM:   4    -0.615814128349E+03    0.55500E-04   -0.26969E-04  1488   0.345E-02    0.153E-02
RMM:   5    -0.615814126343E+03    0.20059E-05   -0.14938E-05  1447   0.883E-03    0.690E-03
RMM:   6    -0.615814125776E+03    0.56776E-06   -0.31799E-06  1448   0.332E-03    0.272E-03
RMM:   7    -0.615814125586E+03    0.19006E-06   -0.47857E-07  1157   0.163E-03    0.984E-04
RMM:   8    -0.615814125544E+03    0.42048E-07   -0.11743E-07   882   0.744E-04
 325 F= -.62418493E+03 E0= -.62418493E+03  d E =-.118598E-02
 trial-energy change:   -0.001186  1 .order   -0.001171   -0.001560   -0.000781
 step:   0.7349(harm=  0.8066)  dis= 0.00633  next Energy=  -624.185261 (dE=-0.152E-02)
 bond charge predicted
       N       E                     dE             d eps       ncg     rms          rms(c)
DAV:   1    -0.615816430770E+03   -0.23052E-02   -0.56168E-01  1428   0.178E+00    0.220E-01
RMM:   2    -0.615816951184E+03   -0.52041E-03   -0.11491E-02  1428   0.256E-01    0.113E-01
RMM:   3    -0.615816799131E+03    0.15205E-03   -0.61241E-04  1437   0.667E-02    0.577E-02
RMM:   4    -0.615816761221E+03    0.37910E-04   -0.18335E-04  1488   0.284E-02    0.126E-02
RMM:   5    -0.615816759796E+03    0.14242E-05   -0.10148E-05  1447   0.727E-03    0.570E-03
RMM:   6    -0.615816759374E+03    0.42243E-06   -0.21706E-06  1435   0.274E-03    0.224E-03
RMM:   7    -0.615816759228E+03    0.14609E-06   -0.30713E-07   977   0.135E-03    0.829E-04
RMM:   8    -0.615816759203E+03    0.24491E-07   -0.10091E-07   882   0.763E-04
 326 F= -.62418532E+03 E0= -.62418532E+03  d E =-.157597E-02
 curvature:  -7.12 expect dE=-0.274E-01 dE for cont linesearch -0.119E-04
 trial: gam= 1.08444 g(F)=  0.373E-02 g(S)=  0.121E-03 ort = 0.344E-03 (trialstep = 0.378E+00)
 search vector abs. value=  0.876E-01
 bond charge predicted
       N       E                     dE             d eps       ncg     rms          rms(c)
DAV:   1    -0.615819828791E+03   -0.30696E-02   -0.84166E-01  1428   0.216E+00    0.262E-01
RMM:   2    -0.615820595002E+03   -0.76621E-03   -0.16423E-02  1428   0.304E-01    0.142E-01
RMM:   3    -0.615820361979E+03    0.23302E-03   -0.89059E-04  1430   0.798E-02    0.704E-02
RMM:   4    -0.615820310922E+03    0.51057E-04   -0.24868E-04  1488   0.334E-02    0.155E-02
RMM:   5    -0.615820309173E+03    0.17492E-05   -0.16369E-05  1447   0.909E-03    0.649E-03
RMM:   6    -0.615820308958E+03    0.21502E-06   -0.23474E-06  1459   0.299E-03    0.281E-03
RMM:   7    -0.615820308893E+03    0.64734E-07   -0.39364E-07  1042   0.141E-03
 327 F= -.62418665E+03 E0= -.62418665E+03  d E =-.132634E-02
 trial-energy change:   -0.001326  1 .order   -0.001308   -0.001596   -0.001021
 step:   0.8499(harm=  1.0497)  dis= 0.00807  next Energy=  -624.187319 (dE=-0.200E-02)
 bond charge predicted
       N       E                     dE             d eps       ncg     rms          rms(c)
DAV:   1    -0.615823167887E+03   -0.28589E-02   -0.13098E+00  1428   0.270E+00    0.326E-01
RMM:   2    -0.615824363892E+03   -0.11960E-02   -0.25547E-02  1428   0.379E-01    0.177E-01
RMM:   3    -0.615824001213E+03    0.36268E-03   -0.13853E-03  1430   0.995E-02    0.878E-02
RMM:   4    -0.615823922237E+03    0.78976E-04   -0.38689E-04  1488   0.416E-02    0.193E-02
RMM:   5    -0.615823919627E+03    0.26100E-05   -0.25580E-05  1445   0.114E-02    0.807E-03
RMM:   6    -0.615823919355E+03    0.27186E-06   -0.36516E-06  1470   0.373E-03    0.351E-03
RMM:   7    -0.615823919278E+03    0.77325E-07   -0.66545E-07  1314   0.176E-03
 328 F= -.62418749E+03 E0= -.62418749E+03  d E =-.217268E-02
 curvature:  -9.93 expect dE=-0.310E-01 dE for cont linesearch -0.740E-04
 ZBRENT: extrapolating
 opt :   1.0514  next Energy=  -624.187575 (dE=-0.225E-02)
 bond charge predicted
       N       E                     dE             d eps       ncg     rms          rms(c)
DAV:   1    -0.615825050115E+03   -0.11308E-02   -0.23886E-01  1468   0.115E+00    0.139E-01
RMM:   2    -0.615825268972E+03   -0.21886E-03   -0.46658E-03  1428   0.162E-01    0.758E-02
RMM:   3    -0.615825202635E+03    0.66337E-04   -0.25274E-04  1430   0.426E-02    0.375E-02
RMM:   4    -0.615825187805E+03    0.14830E-04   -0.71168E-05  1488   0.179E-02    0.831E-03
RMM:   5    -0.615825187194E+03    0.61095E-06   -0.46924E-06  1445   0.487E-03    0.349E-03
RMM:   6    -0.615825187086E+03    0.10814E-06   -0.64593E-07  1287   0.160E-03    0.149E-03
RMM:   7    -0.615825187051E+03    0.34408E-07   -0.12269E-07   883   0.834E-04
 329 F= -.62418758E+03 E0= -.62418758E+03  d E =-.226332E-02
 curvature: -10.92 expect dE=-0.522E-01 dE for cont linesearch -0.659E-09
 trial: gam= 1.35587 g(F)=  0.470E-02 g(S)=  0.742E-04 ort = 0.230E-05 (trialstep = 0.271E+00)
 search vector abs. value=  0.166E+00
 bond charge predicted
       N       E                     dE             d eps       ncg     rms          rms(c)
DAV:   1    -0.615827224285E+03   -0.20372E-02   -0.85539E-01  1428   0.217E+00    0.251E-01
RMM:   2    -0.615828149985E+03   -0.92570E-03   -0.16718E-02  1428   0.303E-01    0.138E-01
RMM:   3    -0.615827918654E+03    0.23133E-03   -0.83394E-04  1428   0.785E-02    0.694E-02
RMM:   4    -0.615827868420E+03    0.50234E-04   -0.27087E-04  1488   0.343E-02    0.141E-02
RMM:   5    -0.615827866658E+03    0.17620E-05   -0.15107E-05  1443   0.889E-03    0.626E-03
RMM:   6    -0.615827866474E+03    0.18448E-06   -0.23255E-06  1467   0.299E-03    0.276E-03
RMM:   7    -0.615827866424E+03    0.49826E-07   -0.41757E-07  1068   0.143E-03
 330 F= -.62418866E+03 E0= -.62418866E+03  d E =-.107618E-02
 trial-energy change:   -0.001076  1 .order   -0.001067   -0.001294   -0.000840
 step:   0.6578(harm=  0.7718)  dis= 0.00862  next Energy=  -624.189287 (dE=-0.170E-02)
 bond charge predicted
       N       E                     dE             d eps       ncg     rms          rms(c)
DAV:   1    -0.615829593479E+03   -0.17270E-02   -0.17447E+00  1428   0.310E+00    0.358E-01
RMM:   2    -0.615831484173E+03   -0.18907E-02   -0.34071E-02  1428   0.433E-01    0.197E-01
RMM:   3    -0.615831011703E+03    0.47247E-03   -0.17000E-03  1428   0.112E-01    0.991E-02
RMM:   4    -0.615830909973E+03    0.10173E-03   -0.55132E-04  1488   0.490E-02    0.202E-02
RMM:   5    -0.615830906552E+03    0.34209E-05   -0.30963E-05  1443   0.127E-02    0.888E-03
RMM:   6    -0.615830906259E+03    0.29376E-06   -0.46991E-06  1474   0.426E-03    0.395E-03
RMM:   7    -0.615830906186E+03    0.72869E-07   -0.92305E-07  1386   0.204E-03
 331 F= -.62418942E+03 E0= -.62418942E+03  d E =-.183701E-02
 curvature: -12.70 expect dE=-0.398E-01 dE for cont linesearch -0.394E-04
 ZBRENT: extrapolating
 opt :   0.7742  next Energy=  -624.189463 (dE=-0.188E-02)
 bond charge predicted
       N       E                     dE             d eps       ncg     rms          rms(c)
DAV:   1    -0.615831516893E+03   -0.61063E-03   -0.15809E-01  1464   0.932E-01    0.108E-01
RMM:   2    -0.615831688971E+03   -0.17208E-03   -0.30949E-03  1428   0.130E-01    0.594E-02
RMM:   3    -0.615831646028E+03    0.42943E-04   -0.15429E-04  1428   0.339E-02    0.299E-02
RMM:   4    -0.615831636459E+03    0.95689E-05   -0.50607E-05  1488   0.148E-02    0.611E-03
RMM:   5    -0.615831636044E+03    0.41580E-06   -0.28244E-06  1443   0.385E-03    0.271E-03
RMM:   6    -0.615831635969E+03    0.74862E-07   -0.39316E-07  1104   0.129E-03
 332 F= -.62418947E+03 E0= -.62418947E+03  d E =-.188326E-02
 curvature: -13.46 expect dE=-0.541E-01 dE for cont linesearch -0.132E-10
 trial: gam= 0.73917 g(F)=  0.374E-02 g(S)=  0.282E-03 ort = 0.404E-06 (trialstep = 0.372E+00)
 search vector abs. value=  0.946E-01
 bond charge predicted
       N       E                     dE             d eps       ncg     rms          rms(c)
DAV:   1    -0.615834196058E+03   -0.25600E-02   -0.90354E-01  1428   0.224E+00    0.265E-01
RMM:   2    -0.615835258938E+03   -0.10629E-02   -0.19079E-02  1428   0.324E-01    0.143E-01
RMM:   3    -0.615835009381E+03    0.24956E-03   -0.93231E-04  1429   0.829E-02    0.737E-02
RMM:   4    -0.615834950214E+03    0.59167E-04   -0.29766E-04  1488   0.364E-02    0.153E-02
RMM:   5    -0.615834948248E+03    0.19654E-05   -0.17521E-05  1444   0.924E-03    0.657E-03
RMM:   6    -0.615834948004E+03    0.24447E-06   -0.25846E-06  1470   0.317E-03    0.295E-03
RMM:   7    -0.615834947895E+03    0.10868E-06   -0.57444E-07  1236   0.166E-03    0.101E-03
RMM:   8    -0.615834947868E+03    0.26834E-07   -0.10839E-07   882   0.765E-04
 333 F= -.62419072E+03 E0= -.62419072E+03  d E =-.125651E-02
 trial-energy change:   -0.001257  1 .order   -0.001236   -0.001494   -0.000977
 step:   0.8283(harm=  1.0743)  dis= 0.00779  next Energy=  -624.191363 (dE=-0.190E-02)
 bond charge predicted
       N       E                     dE             d eps       ncg     rms          rms(c)
DAV:   1    -0.615837161361E+03   -0.22135E-02   -0.13652E+00  1428   0.275E+00    0.326E-01
RMM:   2    -0.615838767567E+03   -0.16062E-02   -0.28800E-02  1428   0.399E-01    0.176E-01
RMM:   3    -0.615838389913E+03    0.37765E-03   -0.14063E-03  1429   0.102E-01    0.906E-02
RMM:   4    -0.615838300574E+03    0.89340E-04   -0.44890E-04  1488   0.447E-02    0.188E-02
RMM:   5    -0.615838297648E+03    0.29257E-05   -0.26485E-05  1443   0.114E-02    0.803E-03
RMM:   6    -0.615838297316E+03    0.33187E-06   -0.39043E-06  1471   0.389E-03    0.363E-03
RMM:   7    -0.615838297167E+03    0.14865E-06   -0.90745E-07  1386   0.205E-03    0.125E-03
RMM:   8    -0.615838297122E+03    0.45289E-07   -0.15094E-07   886   0.837E-04
 334 F= -.62419156E+03 E0= -.62419156E+03  d E =-.208801E-02
 curvature: -11.09 expect dE=-0.417E-01 dE for cont linesearch -0.981E-04
 ZBRENT: increasing intervall
 opt :   1.7419  next Energy=  -624.190824 (dE=-0.136E-02)
 bond charge predicted
       N       E                     dE             d eps       ncg     rms          rms(c)
DAV:   1    -0.615838018422E+03    0.27875E-03   -0.54610E+00  1428   0.551E+00    0.650E-01
RMM:   2    -0.615844473028E+03   -0.64546E-02   -0.11504E-01  1428   0.799E-01    0.353E-01
RMM:   3    -0.615842961571E+03    0.15115E-02   -0.56158E-03  1429   0.203E-01    0.181E-01
RMM:   4    -0.615842606268E+03    0.35530E-03   -0.17872E-03  1488   0.890E-02    0.373E-02
RMM:   5    -0.615842594897E+03    0.11371E-04   -0.10668E-04  1441   0.228E-02    0.158E-02
RMM:   6    -0.615842593889E+03    0.10079E-05   -0.15426E-05  1476   0.778E-03    0.728E-03
RMM:   7    -0.615842593439E+03    0.45034E-06   -0.36733E-06  1434   0.411E-03    0.254E-03
RMM:   8    -0.615842593286E+03    0.15300E-06   -0.70567E-07  1286   0.167E-03    0.109E-03
RMM:   9    -0.615842593174E+03    0.11121E-06   -0.21894E-07   909   0.926E-04    0.500E-04
RMM:  10    -0.615842593131E+03    0.43663E-07   -0.10598E-07   887   0.685E-04
 335 F= -.62419084E+03 E0= -.62419084E+03  d E =-.137717E-02
 curvature:  82.75 expect dE= 0.144E+01 dE for cont linesearch  0.553E-02
 ZBRENT: bracketing found
 ZBRENT: interpolating
 opt :   1.0719  next Energy=  -624.191667 (dE=-0.220E-02)
 bond charge predicted
       N       E                     dE             d eps       ncg     rms          rms(c)
DAV:   1    -0.615837314117E+03    0.52791E-02   -0.29364E+00  1428   0.403E+00    0.479E-01
RMM:   2    -0.615840752181E+03   -0.34381E-02   -0.62229E-02  1428   0.582E-01    0.258E-01
RMM:   3    -0.615839948939E+03    0.80324E-03   -0.30165E-03  1429   0.151E-01    0.133E-01
RMM:   4    -0.615839758124E+03    0.19081E-03   -0.98260E-04  1488   0.664E-02    0.279E-02
RMM:   5    -0.615839752998E+03    0.51260E-05   -0.56159E-05  1446   0.166E-02    0.123E-02
RMM:   6    -0.615839752717E+03    0.28058E-06   -0.86413E-06  1469   0.581E-03    0.535E-03
RMM:   7    -0.615839752667E+03    0.50000E-07   -0.18823E-06  1434   0.299E-03    0.179E-03
RMM:   8    -0.615839752609E+03    0.57742E-07   -0.29683E-07   991   0.114E-03
 336 F= -.62419167E+03 E0= -.62419167E+03  d E =-.220571E-02
 curvature:  -1.67 expect dE=-0.993E-02 dE for cont linesearch -0.324E-08
 trial: gam= 1.48833 g(F)=  0.589E-02 g(S)=  0.662E-04 ort = 0.136E-04 (trialstep = 0.225E+00)
 search vector abs. value=  0.216E+00
 bond charge predicted
       N       E                     dE             d eps       ncg     rms          rms(c)
DAV:   1    -0.615842665906E+03   -0.29132E-02   -0.74322E-01  1428   0.204E+00    0.248E-01
RMM:   2    -0.615843480129E+03   -0.81422E-03   -0.16036E-02  1428   0.300E-01    0.132E-01
RMM:   3    -0.615843263680E+03    0.21645E-03   -0.79435E-04  1429   0.765E-02    0.675E-02
RMM:   4    -0.615843210704E+03    0.52976E-04   -0.24897E-04  1488   0.334E-02    0.148E-02
RMM:   5    -0.615843208983E+03    0.17210E-05   -0.14681E-05  1439   0.842E-03    0.649E-03
RMM:   6    -0.615843208620E+03    0.36278E-06   -0.24847E-06  1472   0.308E-03    0.279E-03
RMM:   7    -0.615843208440E+03    0.18019E-06   -0.54732E-07  1209   0.166E-03    0.918E-04
RMM:   8    -0.615843208402E+03    0.38039E-07   -0.10460E-07   882   0.735E-04
 337 F= -.62419281E+03 E0= -.62419281E+03  d E =-.113663E-02
 trial-energy change:   -0.001137  1 .order   -0.001129   -0.001343   -0.000915
 step:   0.6004(harm=  0.7052)  dis= 0.00840  next Energy=  -624.193611 (dE=-0.194E-02)
 bond charge predicted
       N       E                     dE             d eps       ncg     rms          rms(c)
DAV:   1    -0.615846514044E+03   -0.33056E-02   -0.20823E+00  1428   0.342E+00    0.414E-01
RMM:   2    -0.615848795861E+03   -0.22818E-02   -0.44840E-02  1428   0.502E-01    0.221E-01
RMM:   3    -0.615848188895E+03    0.60697E-03   -0.22250E-03  1429   0.128E-01    0.113E-01
RMM:   4    -0.615848041151E+03    0.14774E-03   -0.69497E-04  1489   0.557E-02    0.246E-02
RMM:   5    -0.615848036449E+03    0.47018E-05   -0.41087E-05  1438   0.141E-02    0.108E-02
RMM:   6    -0.615848035509E+03    0.94093E-06   -0.69418E-06  1473   0.514E-03    0.465E-03
RMM:   7    -0.615848035063E+03    0.44523E-06   -0.16362E-06  1430   0.278E-03    0.156E-03
RMM:   8    -0.615848034945E+03    0.11847E-06   -0.29261E-07   992   0.108E-03    0.754E-04
RMM:   9    -0.615848034855E+03    0.90196E-07   -0.15279E-07   885   0.876E-04
 338 F= -.62419377E+03 E0= -.62419377E+03  d E =-.209307E-02
 curvature: -12.11 expect dE=-0.304E-01 dE for cont linesearch -0.504E-04
 ZBRENT: extrapolating
 opt :   0.7143  next Energy=  -624.193820 (dE=-0.215E-02)
 bond charge predicted
       N       E                     dE             d eps       ncg     rms          rms(c)
DAV:   1    -0.615849120939E+03   -0.10860E-02   -0.19109E-01  1480   0.103E+00    0.126E-01
RMM:   2    -0.615849330191E+03   -0.20925E-03   -0.41158E-03  1428   0.152E-01    0.668E-02
RMM:   3    -0.615849274796E+03    0.55396E-04   -0.20378E-04  1429   0.389E-02    0.342E-02
RMM:   4    -0.615849260930E+03    0.13866E-04   -0.64275E-05  1490   0.170E-02    0.745E-03
RMM:   5    -0.615849260428E+03    0.50206E-06   -0.37343E-06  1437   0.423E-03    0.331E-03
RMM:   6    -0.615849260291E+03    0.13741E-06   -0.63485E-07  1318   0.159E-03    0.140E-03
RMM:   7    -0.615849260214E+03    0.76259E-07   -0.13610E-07   883   0.901E-04
 339 F= -.62419382E+03 E0= -.62419382E+03  d E =-.214876E-02
 curvature: -12.95 expect dE=-0.433E-01 dE for cont linesearch -0.659E-07
 trial: gam= 0.56184 g(F)=  0.326E-02 g(S)=  0.767E-04 ort =-0.331E-04 (trialstep = 0.322E+00)
 search vector abs. value=  0.714E-01
 bond charge predicted
       N       E                     dE             d eps       ncg     rms          rms(c)
DAV:   1    -0.615851934189E+03   -0.26739E-02   -0.50790E-01  1440   0.169E+00    0.209E-01
RMM:   2    -0.615852472109E+03   -0.53792E-03   -0.11038E-02  1428   0.248E-01    0.109E-01
RMM:   3    -0.615852325869E+03    0.14624E-03   -0.54470E-04  1430   0.639E-02    0.571E-02
RMM:   4    -0.615852288818E+03    0.37051E-04   -0.17996E-04  1488   0.282E-02    0.129E-02
RMM:   5    -0.615852287239E+03    0.15789E-05   -0.10914E-05  1435   0.718E-03    0.545E-03
RMM:   6    -0.615852286984E+03    0.25544E-06   -0.18312E-06  1453   0.266E-03    0.243E-03
RMM:   7    -0.615852286859E+03    0.12515E-06   -0.39521E-07  1021   0.149E-03    0.854E-04
RMM:   8    -0.615852286849E+03    0.92623E-08   -0.98858E-08   882   0.844E-04
 340 F= -.62419471E+03 E0= -.62419471E+03  d E =-.892810E-03
 trial-energy change:   -0.000893  1 .order   -0.000883   -0.001071   -0.000694
 step:   0.7551(harm=  0.9172)  dis= 0.00579  next Energy=  -624.195205 (dE=-0.138E-02)
 bond charge predicted
       N       E                     dE             d eps       ncg     rms          rms(c)
DAV:   1    -0.615855118487E+03   -0.28316E-02   -0.91398E-01  1440   0.227E+00    0.281E-01
RMM:   2    -0.615856088285E+03   -0.96980E-03   -0.19856E-02  1428   0.334E-01    0.147E-01
RMM:   3    -0.615855825236E+03    0.26305E-03   -0.97966E-04  1430   0.857E-02    0.766E-02
RMM:   4    -0.615855759085E+03    0.66151E-04   -0.32290E-04  1488   0.378E-02    0.173E-02
RMM:   5    -0.615855756355E+03    0.27303E-05   -0.19677E-05  1435   0.964E-03    0.727E-03
RMM:   6    -0.615855755958E+03    0.39734E-06   -0.32561E-06  1473   0.355E-03    0.327E-03
RMM:   7    -0.615855755771E+03    0.18640E-06   -0.76766E-07  1342   0.199E-03    0.112E-03
RMM:   8    -0.615855755738E+03    0.33226E-07   -0.11554E-07   882   0.770E-04
 341 F= -.62419533E+03 E0= -.62419533E+03  d E =-.150499E-02
 curvature:  -9.12 expect dE=-0.320E-01 dE for cont linesearch -0.474E-04
 trial: gam= 0.85414 g(F)=  0.349E-02 g(S)=  0.976E-05 ort = 0.609E-03 (trialstep = 0.409E+00)
 search vector abs. value=  0.566E-01
 bond charge predicted
       N       E                     dE             d eps       ncg     rms          rms(c)
DAV:   1    -0.615858559457E+03   -0.28037E-02   -0.64587E-01  1440   0.189E+00    0.222E-01
RMM:   2    -0.615859259451E+03   -0.69999E-03   -0.13317E-02  1428   0.270E-01    0.122E-01
RMM:   3    -0.615859081844E+03    0.17761E-03   -0.66190E-04  1432   0.702E-02    0.641E-02
RMM:   4    -0.615859037649E+03    0.44195E-04   -0.23018E-04  1489   0.313E-02    0.147E-02
RMM:   5    -0.615859035212E+03    0.24373E-05   -0.15701E-05  1437   0.850E-03    0.585E-03
RMM:   6    -0.615859034838E+03    0.37415E-06   -0.19863E-06  1464   0.281E-03    0.279E-03
RMM:   7    -0.615859034663E+03    0.17478E-06   -0.60726E-07  1233   0.159E-03    0.100E-03
RMM:   8    -0.615859034636E+03    0.26936E-07   -0.12463E-07   882   0.810E-04
 342 F= -.62419663E+03 E0= -.62419663E+03  d E =-.130623E-02
 trial-energy change:   -0.001306  1 .order   -0.001302   -0.001646   -0.000959
 step:   0.9395(harm=  0.9804)  dis= 0.00650  next Energy=  -624.197264 (dE=-0.194E-02)
 bond charge predicted
       N       E                     dE             d eps       ncg     rms          rms(c)
DAV:   1    -0.615861462686E+03   -0.24280E-02   -0.10864E+00  1440   0.246E+00    0.288E-01
RMM:   2    -0.615862642502E+03   -0.11798E-02   -0.22397E-02  1428   0.351E-01    0.158E-01
RMM:   3    -0.615862344136E+03    0.29837E-03   -0.11123E-03  1432   0.909E-02    0.832E-02
RMM:   4    -0.615862270331E+03    0.73805E-04   -0.38692E-04  1489   0.406E-02    0.191E-02
RMM:   5    -0.615862266350E+03    0.39816E-05   -0.26565E-05  1437   0.110E-02    0.755E-03
RMM:   6    -0.615862265793E+03    0.55673E-06   -0.33143E-06  1469   0.364E-03    0.363E-03
RMM:   7    -0.615862265544E+03    0.24841E-06   -0.10556E-06  1391   0.206E-03    0.131E-03
RMM:   8    -0.615862265498E+03    0.46432E-07   -0.21177E-07   960   0.921E-04
 343 F= -.62419731E+03 E0= -.62419731E+03  d E =-.198543E-02
 curvature:  -6.86 expect dE=-0.305E-01 dE for cont linesearch -0.347E-05
 trial: gam= 1.53170 g(F)=  0.443E-02 g(S)=  0.745E-05 ort = 0.169E-03 (trialstep = 0.212E+00)
 search vector abs. value=  0.138E+00
 bond charge predicted
       N       E                     dE             d eps       ncg     rms          rms(c)
DAV:   1    -0.615864350432E+03   -0.20849E-02   -0.41920E-01  1440   0.152E+00    0.177E-01
RMM:   2    -0.615864792981E+03   -0.44255E-03   -0.82431E-03  1428   0.213E-01    0.947E-02
RMM:   3    -0.615864686076E+03    0.10690E-03   -0.41128E-04  1434   0.547E-02    0.492E-02
RMM:   4    -0.615864660479E+03    0.25597E-04   -0.13368E-04  1488   0.241E-02    0.110E-02
RMM:   5    -0.615864659335E+03    0.11443E-05   -0.79879E-06  1436   0.628E-03    0.452E-03
RMM:   6    -0.615864659154E+03    0.18103E-06   -0.11879E-06  1410   0.218E-03    0.201E-03
RMM:   7    -0.615864659079E+03    0.74404E-07   -0.25873E-07   952   0.114E-03
 344 F= -.62419819E+03 E0= -.62419819E+03  d E =-.881607E-03
 trial-energy change:   -0.000882  1 .order   -0.000874   -0.000995   -0.000752
 step:   0.6249(harm=  0.8691)  dis= 0.00711  next Energy=  -624.198989 (dE=-0.168E-02)
 bond charge predicted
       N       E                     dE             d eps       ncg     rms          rms(c)
DAV:   1    -0.615867454118E+03   -0.27950E-02   -0.15987E+00  1440   0.297E+00    0.345E-01
RMM:   2    -0.615869147122E+03   -0.16930E-02   -0.31414E-02  1428   0.416E-01    0.185E-01
RMM:   3    -0.615868738739E+03    0.40838E-03   -0.15673E-03  1434   0.107E-01    0.961E-02
RMM:   4    -0.615868642959E+03    0.95780E-04   -0.50932E-04  1488   0.469E-02    0.215E-02
RMM:   5    -0.615868638951E+03    0.40082E-05   -0.30876E-05  1435   0.123E-02    0.874E-03
RMM:   6    -0.615868638473E+03    0.47802E-06   -0.44797E-06  1466   0.423E-03    0.395E-03
RMM:   7    -0.615868638301E+03    0.17205E-06   -0.11075E-06  1414   0.221E-03    0.141E-03
RMM:   8    -0.615868638260E+03    0.40636E-07   -0.19365E-07   918   0.942E-04
 345 F= -.62419923E+03 E0= -.62419923E+03  d E =-.191599E-02
 curvature: -10.98 expect dE=-0.281E-01 dE for cont linesearch -0.140E-03
 ZBRENT: increasing intervall
 opt :   1.4515  next Energy=  -624.198483 (dE=-0.117E-02)
 bond charge predicted
       N       E                     dE             d eps       ncg     rms          rms(c)
DAV:   1    -0.615869007034E+03   -0.36873E-03   -0.63954E+00  1428   0.595E+00    0.689E-01
RMM:   2    -0.615875827047E+03   -0.68200E-02   -0.12549E-01  1428   0.834E-01    0.370E-01
RMM:   3    -0.615874193886E+03    0.16332E-02   -0.62577E-03  1434   0.212E-01    0.192E-01
RMM:   4    -0.615873814654E+03    0.37923E-03   -0.20251E-03  1488   0.931E-02    0.429E-02
RMM:   5    -0.615873799339E+03    0.15315E-04   -0.12505E-04  1435   0.248E-02    0.172E-02
RMM:   6    -0.615873797905E+03    0.14338E-05   -0.17366E-05  1469   0.835E-03    0.791E-03
RMM:   7    -0.615873797432E+03    0.47304E-06   -0.45040E-06  1433   0.440E-03    0.286E-03
RMM:   8    -0.615873797306E+03    0.12542E-06   -0.93153E-07  1341   0.191E-03    0.124E-03
RMM:   9    -0.615873797209E+03    0.97141E-07   -0.26618E-07   966   0.105E-03
 346 F= -.62419853E+03 E0= -.62419853E+03  d E =-.121552E-02
 curvature:  58.30 expect dE= 0.680E+00 dE for cont linesearch  0.406E-02
 ZBRENT: bracketing found
 ZBRENT: interpolating
 opt :   0.8729  next Energy=  -624.199393 (dE=-0.208E-02)
 bond charge predicted
       N       E                     dE             d eps       ncg     rms          rms(c)
DAV:   1    -0.615868254716E+03    0.55426E-02   -0.31322E+00  1428   0.415E+00    0.486E-01
RMM:   2    -0.615871555191E+03   -0.33005E-02   -0.61993E-02  1428   0.580E-01    0.259E-01
RMM:   3    -0.615870769717E+03    0.78547E-03   -0.30695E-03  1434   0.151E-01    0.135E-01
RMM:   4    -0.615870586008E+03    0.18371E-03   -0.10172E-03  1488   0.666E-02    0.304E-02
RMM:   5    -0.615870580074E+03    0.59341E-05   -0.58543E-05  1436   0.171E-02    0.128E-02
RMM:   6    -0.615870579793E+03    0.28114E-06   -0.94191E-06  1466   0.611E-03    0.553E-03
RMM:   7    -0.615870579824E+03   -0.30966E-07   -0.20903E-06  1434   0.311E-03    0.192E-03
RMM:   8    -0.615870579799E+03    0.25488E-07   -0.32590E-07  1008   0.121E-03
 347 F= -.62419941E+03 E0= -.62419941E+03  d E =-.209658E-02
 curvature:  -2.36 expect dE=-0.923E-02 dE for cont linesearch -0.447E-08
 trial: gam= 0.76638 g(F)=  0.380E-02 g(S)=  0.103E-03 ort = 0.161E-04 (trialstep = 0.344E+00)
 search vector abs. value=  0.848E-01
 bond charge predicted
       N       E                     dE             d eps       ncg     rms          rms(c)
DAV:   1    -0.615873177637E+03   -0.25978E-02   -0.68465E-01  1440   0.195E+00    0.218E-01
RMM:   2    -0.615873939192E+03   -0.76155E-03   -0.13329E-02  1428   0.272E-01    0.119E-01
RMM:   3    -0.615873774780E+03    0.16441E-03   -0.63625E-04  1431   0.692E-02    0.602E-02
RMM:   4    -0.615873737657E+03    0.37123E-04   -0.19746E-04  1492   0.299E-02    0.127E-02
RMM:   5    -0.615873736455E+03    0.12023E-05   -0.10310E-05  1435   0.721E-03    0.558E-03
RMM:   6    -0.615873736147E+03    0.30761E-06   -0.20424E-06  1439   0.279E-03    0.227E-03
RMM:   7    -0.615873736039E+03    0.10800E-06   -0.35462E-07  1010   0.139E-03    0.799E-04
RMM:   8    -0.615873736030E+03    0.95024E-08   -0.94212E-08   882   0.779E-04
 348 F= -.62420056E+03 E0= -.62420056E+03  d E =-.115196E-02
 trial-energy change:   -0.001152  1 .order   -0.001144   -0.001347   -0.000941
 step:   0.9408(harm=  1.1411)  dis= 0.00800  next Energy=  -624.201421 (dE=-0.201E-02)
 bond charge predicted
       N       E                     dE             d eps       ncg     rms          rms(c)
DAV:   1    -0.615876584647E+03   -0.28486E-02   -0.20624E+00  1428   0.338E+00    0.378E-01
RMM:   2    -0.615878877222E+03   -0.22926E-02   -0.40064E-02  1428   0.473E-01    0.206E-01
RMM:   3    -0.615878381519E+03    0.49570E-03   -0.19159E-03  1431   0.120E-01    0.104E-01
RMM:   4    -0.615878270553E+03    0.11097E-03   -0.59321E-04  1492   0.517E-02    0.220E-02
RMM:   5    -0.615878267091E+03    0.34626E-05   -0.31234E-05  1435   0.125E-02    0.959E-03
RMM:   6    -0.615878266256E+03    0.83447E-06   -0.61131E-06  1453   0.482E-03    0.394E-03
RMM:   7    -0.615878265997E+03    0.25922E-06   -0.12157E-06  1430   0.240E-03    0.138E-03
RMM:   8    -0.615878265935E+03    0.61955E-07   -0.19420E-07   905   0.901E-04
 349 F= -.62420162E+03 E0= -.62420162E+03  d E =-.221348E-02
 curvature: -11.58 expect dE=-0.538E-01 dE for cont linesearch -0.744E-04
 trial: gam= 0.95878 g(F)=  0.461E-02 g(S)=  0.290E-04 ort = 0.738E-03 (trialstep = 0.463E+00)
 search vector abs. value=  0.841E-01
 bond charge predicted
       N       E                     dE             d eps       ncg     rms          rms(c)
DAV:   1    -0.615881410463E+03   -0.31445E-02   -0.13153E+00  1428   0.270E+00    0.303E-01
RMM:   2    -0.615883096817E+03   -0.16864E-02   -0.27151E-02  1428   0.387E-01    0.165E-01
RMM:   3    -0.615882776228E+03    0.32059E-03   -0.12412E-03  1434   0.970E-02    0.876E-02
RMM:   4    -0.615882696993E+03    0.79235E-04   -0.45254E-04  1488   0.436E-02    0.186E-02
RMM:   5    -0.615882693686E+03    0.33065E-05   -0.24162E-05  1436   0.108E-02    0.802E-03
RMM:   6    -0.615882693059E+03    0.62692E-06   -0.41707E-06  1465   0.397E-03    0.353E-03
RMM:   7    -0.615882692794E+03    0.26492E-06   -0.10303E-06  1396   0.220E-03    0.117E-03
RMM:   8    -0.615882692742E+03    0.51965E-07   -0.14355E-07   887   0.826E-04
 350 F= -.62420344E+03 E0= -.62420344E+03  d E =-.181525E-02
 trial-energy change:   -0.001815  1 .order   -0.001799   -0.002478   -0.001120
 step:   0.8025(harm=  0.8450)  dis= 0.00595  next Energy=  -624.203854 (dE=-0.223E-02)
 bond charge predicted
       N       E                     dE             d eps       ncg     rms          rms(c)
DAV:   1    -0.615884385827E+03   -0.16930E-02   -0.70511E-01  1440   0.197E+00    0.222E-01
RMM:   2    -0.615885289757E+03   -0.90393E-03   -0.14552E-02  1428   0.283E-01    0.121E-01
RMM:   3    -0.615885117992E+03    0.17176E-03   -0.66452E-04  1433   0.710E-02    0.641E-02
RMM:   4    -0.615885075382E+03    0.42610E-04   -0.24304E-04  1488   0.320E-02    0.136E-02
RMM:   5    -0.615885073580E+03    0.18026E-05   -0.12993E-05  1437   0.794E-03    0.590E-03
RMM:   6    -0.615885073211E+03    0.36925E-06   -0.22501E-06  1464   0.292E-03    0.259E-03
RMM:   7    -0.615885073041E+03    0.16968E-06   -0.53698E-07  1224   0.161E-03    0.852E-04
RMM:   8    -0.615885073013E+03    0.28042E-07   -0.89515E-08   882   0.689E-04
 351 F= -.62420391E+03 E0= -.62420391E+03  d E =-.228839E-02
 curvature:  -6.56 expect dE=-0.285E-01 dE for cont linesearch -0.571E-05
 trial: gam= 1.15713 g(F)=  0.434E-02 g(S)=  0.163E-04 ort = 0.271E-03 (trialstep = 0.380E+00)
 search vector abs. value=  0.118E+00
 bond charge predicted
       N       E                     dE             d eps       ncg     rms          rms(c)
DAV:   1    -0.615887919308E+03   -0.28463E-02   -0.11668E+00  1428   0.255E+00    0.292E-01
RMM:   2    -0.615889414191E+03   -0.14949E-02   -0.24508E-02  1428   0.365E-01    0.157E-01
RMM:   3    -0.615889124590E+03    0.28960E-03   -0.11295E-03  1432   0.932E-02    0.834E-02
RMM:   4    -0.615889055589E+03    0.69001E-04   -0.39932E-04  1489   0.414E-02    0.187E-02
RMM:   5    -0.615889052306E+03    0.32833E-05   -0.23136E-05  1435   0.105E-02    0.764E-03
RMM:   6    -0.615889051679E+03    0.62699E-06   -0.34860E-06  1464   0.377E-03    0.343E-03
RMM:   7    -0.615889051370E+03    0.30952E-06   -0.10493E-06  1379   0.217E-03    0.116E-03
RMM:   8    -0.615889051317E+03    0.52758E-07   -0.15661E-07   893   0.867E-04
 352 F= -.62420539E+03 E0= -.62420539E+03  d E =-.147459E-02
 trial-energy change:   -0.001475  1 .order   -0.001455   -0.001772   -0.001138
 step:   0.8592(harm=  1.0613)  dis= 0.00775  next Energy=  -624.206143 (dE=-0.223E-02)
 bond charge predicted
       N       E                     dE             d eps       ncg     rms          rms(c)
DAV:   1    -0.615891341087E+03   -0.22897E-02   -0.18584E+00  1428   0.321E+00    0.369E-01
RMM:   2    -0.615893723279E+03   -0.23822E-02   -0.38991E-02  1428   0.460E-01    0.198E-01
RMM:   3    -0.615893261923E+03    0.46136E-03   -0.17975E-03  1432   0.117E-01    0.105E-01
RMM:   4    -0.615893152615E+03    0.10931E-03   -0.63428E-04  1489   0.522E-02    0.236E-02
RMM:   5    -0.615893147459E+03    0.51562E-05   -0.36887E-05  1435   0.132E-02    0.960E-03
RMM:   6    -0.615893146517E+03    0.94177E-06   -0.55136E-06  1466   0.473E-03    0.433E-03
RMM:   7    -0.615893146063E+03    0.45379E-06   -0.16826E-06  1423   0.274E-03    0.147E-03
RMM:   8    -0.615893145980E+03    0.82717E-07   -0.26588E-07   981   0.109E-03
 353 F= -.62420633E+03 E0= -.62420633E+03  d E =-.241937E-02
 curvature: -12.19 expect dE=-0.416E-01 dE for cont linesearch -0.815E-04
 ZBRENT: extrapolating
 opt :   1.0607  next Energy=  -624.206419 (dE=-0.251E-02)
 bond charge predicted
       N       E                     dE             d eps       ncg     rms          rms(c)
DAV:   1    -0.615894247363E+03   -0.11013E-02   -0.32804E-01  1464   0.135E+00    0.155E-01
RMM:   2    -0.615894667289E+03   -0.41993E-03   -0.68840E-03  1428   0.193E-01    0.831E-02
RMM:   3    -0.615894585847E+03    0.81441E-04   -0.31723E-04  1432   0.495E-02    0.442E-02
RMM:   4    -0.615894566123E+03    0.19724E-04   -0.11231E-04  1490   0.220E-02    0.994E-03
RMM:   5    -0.615894565141E+03    0.98217E-06   -0.64511E-06  1434   0.553E-03    0.409E-03
RMM:   6    -0.615894564913E+03    0.22797E-06   -0.99264E-07  1400   0.202E-03    0.182E-03
RMM:   7    -0.615894564785E+03    0.12855E-06   -0.27352E-07   949   0.118E-03    0.648E-04
RMM:   8    -0.615894564778E+03    0.67121E-08   -0.77149E-08   882   0.781E-04
 354 F= -.62420643E+03 E0= -.62420643E+03  d E =-.251775E-02
 curvature: -13.36 expect dE=-0.634E-01 dE for cont linesearch -0.146E-08
 trial: gam= 0.98488 g(F)=  0.467E-02 g(S)=  0.791E-04 ort =-0.358E-05 (trialstep = 0.511E+00)
 search vector abs. value=  0.119E+00
 bond charge predicted
       N       E                     dE             d eps       ncg     rms          rms(c)
DAV:   1    -0.615898189826E+03   -0.36250E-02   -0.19760E+00  1428   0.332E+00    0.385E-01
RMM:   2    -0.615900561261E+03   -0.23714E-02   -0.41058E-02  1428   0.475E-01    0.211E-01
RMM:   3    -0.615900093596E+03    0.46767E-03   -0.20004E-03  1434   0.123E-01    0.111E-01
RMM:   4    -0.615899986794E+03    0.10680E-03   -0.64718E-04  1492   0.534E-02    0.265E-02
RMM:   5    -0.615899981339E+03    0.54546E-05   -0.47618E-05  1431   0.145E-02    0.977E-03
RMM:   6    -0.615899981019E+03    0.32002E-06   -0.51362E-06  1478   0.476E-03    0.474E-03
RMM:   7    -0.615899980920E+03    0.99026E-07   -0.18573E-06  1423   0.270E-03    0.167E-03
RMM:   8    -0.615899980912E+03    0.81054E-08   -0.38769E-07  1043   0.125E-03
 355 F= -.62420814E+03 E0= -.62420814E+03  d E =-.171435E-02
 trial-energy change:   -0.001714  1 .order   -0.001687   -0.002423   -0.000951
 step:   0.7927(harm=  0.8410)  dis= 0.00768  next Energy=  -624.208410 (dE=-0.198E-02)
 bond charge predicted
       N       E                     dE             d eps       ncg     rms          rms(c)
DAV:   1    -0.615901789048E+03   -0.18081E-02   -0.60202E-01  1428   0.183E+00    0.213E-01
RMM:   2    -0.615902511466E+03   -0.72242E-03   -0.12523E-02  1428   0.262E-01    0.116E-01
RMM:   3    -0.615902369556E+03    0.14191E-03   -0.60935E-04  1434   0.680E-02    0.613E-02
RMM:   4    -0.615902336577E+03    0.32979E-04   -0.19718E-04  1492   0.296E-02    0.146E-02
RMM:   5    -0.615902334894E+03    0.16831E-05   -0.14300E-05  1431   0.794E-03    0.544E-03
RMM:   6    -0.615902334764E+03    0.13038E-06   -0.15936E-06  1460   0.264E-03    0.261E-03
RMM:   7    -0.615902334707E+03    0.56272E-07   -0.54876E-07  1198   0.151E-03
 356 F= -.62420846E+03 E0= -.62420846E+03  d E =-.202984E-02
 curvature: -10.30 expect dE=-0.612E-01 dE for cont linesearch -0.673E-05
 trial: gam= 1.14537 g(F)=  0.588E-02 g(S)=  0.627E-04 ort = 0.279E-03 (trialstep = 0.415E+00)
 search vector abs. value=  0.162E+00
 bond charge predicted
       N       E                     dE             d eps       ncg     rms          rms(c)
DAV:   1    -0.615905575259E+03   -0.32405E-02   -0.18910E+00  1428   0.323E+00    0.362E-01
RMM:   2    -0.615907921349E+03   -0.23461E-02   -0.37648E-02  1428   0.451E-01    0.199E-01
RMM:   3    -0.615907483016E+03    0.43833E-03   -0.17677E-03  1436   0.116E-01    0.107E-01
RMM:   4    -0.615907375259E+03    0.10776E-03   -0.67551E-04  1488   0.528E-02    0.242E-02
RMM:   5    -0.615907368430E+03    0.68291E-05   -0.42643E-05  1431   0.139E-02    0.943E-03
RMM:   6    -0.615907367318E+03    0.11120E-05   -0.54645E-06  1472   0.471E-03    0.460E-03
RMM:   7    -0.615907366782E+03    0.53587E-06   -0.21476E-06  1430   0.278E-03    0.166E-03
RMM:   8    -0.615907366672E+03    0.10972E-06   -0.43340E-07  1054   0.127E-03    0.920E-04
RMM:   9    -0.615907366569E+03    0.10286E-06   -0.17762E-07   883   0.992E-04    0.558E-04
RMM:  10    -0.615907366557E+03    0.12420E-07   -0.10272E-07   887   0.724E-04
 357 F= -.62421055E+03 E0= -.62421055E+03  d E =-.208664E-02
 trial-energy change:   -0.002087  1 .order   -0.002059   -0.002599   -0.001519
 step:   0.8581(harm=  0.9983)  dis= 0.01041  next Energy=  -624.211391 (dE=-0.293E-02)
 bond charge predicted
       N       E                     dE             d eps       ncg     rms          rms(c)
DAV:   1    -0.615909468475E+03   -0.21019E-02   -0.21602E+00  1428   0.345E+00    0.386E-01
RMM:   2    -0.615912148636E+03   -0.26802E-02   -0.42983E-02  1428   0.482E-01    0.212E-01
RMM:   3    -0.615911649345E+03    0.49929E-03   -0.20147E-03  1436   0.124E-01    0.114E-01
RMM:   4    -0.615911526531E+03    0.12281E-03   -0.77101E-04  1488   0.564E-02    0.259E-02
RMM:   5    -0.615911518730E+03    0.78003E-05   -0.48708E-05  1431   0.148E-02    0.101E-02
RMM:   6    -0.615911517478E+03    0.12519E-05   -0.62290E-06  1474   0.503E-03    0.493E-03
RMM:   7    -0.615911516878E+03    0.60036E-06   -0.24651E-06  1429   0.297E-03    0.178E-03
RMM:   8    -0.615911516754E+03    0.12367E-06   -0.50617E-07  1082   0.137E-03    0.990E-04
RMM:   9    -0.615911516640E+03    0.11491E-06   -0.20764E-07   898   0.106E-03    0.574E-04
RMM:  10    -0.615911516626E+03    0.13995E-07   -0.11518E-07   890   0.767E-04
 358 F= -.62421156E+03 E0= -.62421156E+03  d E =-.310010E-02
 curvature: -12.19 expect dE=-0.490E-01 dE for cont linesearch -0.555E-04
 ZBRENT: extrapolating
 opt :   0.9941  next Energy=  -624.211617 (dE=-0.316E-02)
 bond charge predicted
       N       E                     dE             d eps       ncg     rms          rms(c)
DAV:   1    -0.615912344650E+03   -0.82801E-03   -0.20321E-01  1464   0.106E+00    0.119E-01
RMM:   2    -0.615912597283E+03   -0.25263E-03   -0.40536E-03  1428   0.148E-01    0.651E-02
RMM:   3    -0.615912550377E+03    0.46905E-04   -0.18954E-04  1436   0.381E-02    0.351E-02
RMM:   4    -0.615912538468E+03    0.11909E-04   -0.73061E-05  1489   0.174E-02    0.797E-03
RMM:   5    -0.615912537681E+03    0.78716E-06   -0.45614E-06  1432   0.453E-03    0.314E-03
RMM:   6    -0.615912537518E+03    0.16317E-06   -0.56116E-07  1244   0.155E-03    0.150E-03
RMM:   7    -0.615912537420E+03    0.97709E-07   -0.21501E-07   912   0.101E-03
 359 F= -.62421162E+03 E0= -.62421162E+03  d E =-.316114E-02
 curvature: -12.84 expect dE=-0.705E-01 dE for cont linesearch -0.223E-07
 trial: gam= 1.05584 g(F)=  0.536E-02 g(S)=  0.127E-03 ort =-0.168E-04 (trialstep = 0.462E+00)
 search vector abs. value=  0.186E+00
 bond charge predicted
       N       E                     dE             d eps       ncg     rms          rms(c)
DAV:   1    -0.615914270643E+03   -0.17331E-02   -0.26447E+00  1428   0.378E+00    0.403E-01
RMM:   2    -0.615917577737E+03   -0.33071E-02   -0.49549E-02  1428   0.511E-01    0.229E-01
RMM:   3    -0.615917020301E+03    0.55744E-03   -0.23170E-03  1438   0.131E-01    0.122E-01
RMM:   4    -0.615916899974E+03    0.12033E-03   -0.87293E-04  1486   0.587E-02    0.268E-02
RMM:   5    -0.615916891357E+03    0.86176E-05   -0.54910E-05  1431   0.162E-02    0.106E-02
RMM:   6    -0.615916890368E+03    0.98874E-06   -0.63709E-06  1464   0.517E-03    0.492E-03
RMM:   7    -0.615916890082E+03    0.28564E-06   -0.23089E-06  1429   0.285E-03    0.176E-03
RMM:   8    -0.615916890034E+03    0.48021E-07   -0.54504E-07  1100   0.143E-03
 360 F= -.62421338E+03 E0= -.62421338E+03  d E =-.176437E-02
 trial-energy change:   -0.001764  1 .order   -0.001736   -0.002528   -0.000944
 step:   0.6993(harm=  0.7376)  dis= 0.00839  next Energy=  -624.213630 (dE=-0.201E-02)
 bond charge predicted
       N       E                     dE             d eps       ncg     rms          rms(c)
DAV:   1    -0.615917823259E+03   -0.93318E-03   -0.69693E-01  1428   0.194E+00    0.207E-01
RMM:   2    -0.615918694534E+03   -0.87127E-03   -0.13062E-02  1428   0.262E-01    0.117E-01
RMM:   3    -0.615918548983E+03    0.14555E-03   -0.60981E-04  1438   0.673E-02    0.626E-02
RMM:   4    -0.615918516916E+03    0.32067E-04   -0.22992E-04  1486   0.302E-02    0.137E-02
RMM:   5    -0.615918514575E+03    0.23414E-05   -0.14210E-05  1432   0.826E-03    0.549E-03
RMM:   6    -0.615918514245E+03    0.32931E-06   -0.17027E-06  1443   0.266E-03    0.253E-03
RMM:   7    -0.615918514132E+03    0.11327E-06   -0.58819E-07  1210   0.146E-03    0.886E-04
RMM:   8    -0.615918514116E+03    0.16189E-07   -0.12829E-07   888   0.794E-04
 361 F= -.62421368E+03 E0= -.62421368E+03  d E =-.206474E-02
 curvature: -12.32 expect dE=-0.650E-01 dE for cont linesearch -0.540E-05
 trial: gam= 0.85895 g(F)=  0.524E-02 g(S)=  0.337E-04 ort = 0.286E-03 (trialstep = 0.510E+00)
 search vector abs. value=  0.143E+00
 bond charge predicted
       N       E                     dE             d eps       ncg     rms          rms(c)
DAV:   1    -0.615921026598E+03   -0.25125E-02   -0.24597E+00  1428   0.366E+00    0.388E-01
RMM:   2    -0.615924161796E+03   -0.31352E-02   -0.46280E-02  1428   0.497E-01    0.217E-01
RMM:   3    -0.615923664885E+03    0.49691E-03   -0.21121E-03  1436   0.126E-01    0.116E-01
RMM:   4    -0.615923554779E+03    0.11011E-03   -0.76388E-04  1487   0.562E-02    0.240E-02
RMM:   5    -0.615923548932E+03    0.58479E-05   -0.40242E-05  1433   0.143E-02    0.987E-03
RMM:   6    -0.615923548129E+03    0.80237E-06   -0.62057E-06  1466   0.499E-03    0.430E-03
RMM:   7    -0.615923547926E+03    0.20363E-06   -0.15878E-06  1431   0.258E-03    0.148E-03
RMM:   8    -0.615923547904E+03    0.21493E-07   -0.23651E-07   949   0.105E-03
 362 F= -.62421580E+03 E0= -.62421580E+03  d E =-.211338E-02
 trial-energy change:   -0.002113  1 .order   -0.002087   -0.002814   -0.001360
 step:   0.9083(harm=  0.9857)  dis= 0.00992  next Energy=  -624.216342 (dE=-0.266E-02)
 bond charge predicted
       N       E                     dE             d eps       ncg     rms          rms(c)
DAV:   1    -0.615924919253E+03   -0.13713E-02   -0.15069E+00  1428   0.286E+00    0.304E-01
RMM:   2    -0.615926839983E+03   -0.19207E-02   -0.28357E-02  1428   0.389E-01    0.170E-01
RMM:   3    -0.615926536275E+03    0.30371E-03   -0.12935E-03  1436   0.990E-02    0.907E-02
RMM:   4    -0.615926468422E+03    0.67853E-04   -0.46858E-04  1488   0.441E-02    0.188E-02
RMM:   5    -0.615926464795E+03    0.36265E-05   -0.24501E-05  1432   0.111E-02    0.776E-03
RMM:   6    -0.615926464264E+03    0.53132E-06   -0.38270E-06  1465   0.393E-03    0.337E-03
RMM:   7    -0.615926464116E+03    0.14751E-06   -0.97339E-07  1393   0.202E-03    0.115E-03
RMM:   8    -0.615926464100E+03    0.16254E-07   -0.13963E-07   886   0.825E-04
 363 F= -.62421644E+03 E0= -.62421644E+03  d E =-.275199E-02
 curvature: -12.45 expect dE=-0.593E-01 dE for cont linesearch -0.169E-04
 trial: gam= 0.92365 g(F)=  0.457E-02 g(S)=  0.192E-03 ort = 0.441E-03 (trialstep = 0.589E+00)
 search vector abs. value=  0.128E+00
 bond charge predicted
       N       E                     dE             d eps       ncg     rms          rms(c)
DAV:   1    -0.615930111788E+03   -0.36477E-02   -0.30730E+00  1428   0.412E+00    0.455E-01
RMM:   2    -0.615934050371E+03   -0.39386E-02   -0.62095E-02  1428   0.584E-01    0.246E-01
RMM:   3    -0.615933400909E+03    0.64946E-03   -0.29201E-03  1437   0.149E-01    0.130E-01
RMM:   4    -0.615933248296E+03    0.15261E-03   -0.96988E-04  1484   0.649E-02    0.282E-02
RMM:   5    -0.615933242401E+03    0.58948E-05   -0.53743E-05  1435   0.163E-02    0.115E-02
RMM:   6    -0.615933240981E+03    0.14195E-05   -0.93856E-06  1472   0.612E-03    0.519E-03
RMM:   7    -0.615933240455E+03    0.52686E-06   -0.26215E-06  1432   0.345E-03    0.173E-03
RMM:   8    -0.615933240376E+03    0.78311E-07   -0.37507E-07  1059   0.131E-03
 364 F= -.62421840E+03 E0= -.62421840E+03  d E =-.196822E-02
 trial-energy change:   -0.001968  1 .order   -0.001935   -0.003046   -0.000823
 step:   0.7840(harm=  0.8074)  dis= 0.00856  next Energy=  -624.218542 (dE=-0.211E-02)
 bond charge predicted
       N       E                     dE             d eps       ncg     rms          rms(c)
DAV:   1    -0.615934641304E+03   -0.14008E-02   -0.33536E-01  1464   0.136E+00    0.151E-01
RMM:   2    -0.615935069473E+03   -0.42817E-03   -0.67773E-03  1428   0.192E-01    0.812E-02
RMM:   3    -0.615934998615E+03    0.70858E-04   -0.31895E-04  1437   0.493E-02    0.430E-02
RMM:   4    -0.615934981343E+03    0.17272E-04   -0.10621E-04  1484   0.215E-02    0.936E-03
RMM:   5    -0.615934980678E+03    0.66470E-06   -0.58337E-06  1435   0.538E-03    0.390E-03
RMM:   6    -0.615934980481E+03    0.19679E-06   -0.10651E-06  1391   0.207E-03    0.170E-03
RMM:   7    -0.615934980373E+03    0.10856E-06   -0.26200E-07   944   0.117E-03    0.617E-04
RMM:   8    -0.615934980371E+03    0.17681E-08   -0.75213E-08   882   0.773E-04
 365 F= -.62421856E+03 E0= -.62421856E+03  d E =-.212305E-02
 curvature:  -9.87 expect dE=-0.436E-01 dE for cont linesearch -0.172E-05
 trial: gam= 1.01170 g(F)=  0.434E-02 g(S)=  0.798E-04 ort = 0.149E-03 (trialstep = 0.592E+00)
 search vector abs. value=  0.136E+00
 bond charge predicted
       N       E                     dE             d eps       ncg     rms          rms(c)
DAV:   1    -0.615939238609E+03   -0.42582E-02   -0.32182E+00  1428   0.424E+00    0.473E-01
RMM:   2    -0.615943259385E+03   -0.40208E-02   -0.67850E-02  1428   0.612E-01    0.258E-01
RMM:   3    -0.615942548281E+03    0.71110E-03   -0.32769E-03  1437   0.159E-01    0.137E-01
RMM:   4    -0.615942384971E+03    0.16331E-03   -0.10711E-03  1486   0.685E-02    0.326E-02
RMM:   5    -0.615942377792E+03    0.71788E-05   -0.65243E-05  1433   0.175E-02    0.130E-02
RMM:   6    -0.615942376119E+03    0.16732E-05   -0.11124E-05  1461   0.659E-03    0.575E-03
RMM:   7    -0.615942375556E+03    0.56225E-06   -0.30455E-06  1433   0.389E-03    0.189E-03
RMM:   8    -0.615942375498E+03    0.58437E-07   -0.44626E-07  1130   0.150E-03
 366 F= -.62422029E+03 E0= -.62422029E+03  d E =-.173200E-02
 trial-energy change:   -0.001732  1 .order   -0.001702   -0.002710   -0.000694
 step:   0.7746(harm=  0.7962)  dis= 0.00904  next Energy=  -624.220399 (dE=-0.184E-02)
 bond charge predicted
       N       E                     dE             d eps       ncg     rms          rms(c)
DAV:   1    -0.615943948496E+03   -0.15729E-02   -0.30436E-01  1440   0.130E+00    0.146E-01
RMM:   2    -0.615944327493E+03   -0.37900E-03   -0.64217E-03  1428   0.188E-01    0.793E-02
RMM:   3    -0.615944260267E+03    0.67226E-04   -0.31023E-04  1437   0.490E-02    0.422E-02
RMM:   4    -0.615944244140E+03    0.16127E-04   -0.10170E-04  1486   0.212E-02    0.101E-02
RMM:   5    -0.615944243381E+03    0.75913E-06   -0.61388E-06  1433   0.537E-03    0.408E-03
RMM:   6    -0.615944243154E+03    0.22703E-06   -0.11001E-06  1392   0.208E-03    0.177E-03
RMM:   7    -0.615944243045E+03    0.10906E-06   -0.26059E-07   933   0.122E-03    0.638E-04
RMM:   8    -0.615944243052E+03   -0.74651E-08   -0.80151E-08   882   0.833E-04
 367 F= -.62422042E+03 E0= -.62422042E+03  d E =-.186140E-02
 curvature: -11.67 expect dE=-0.461E-01 dE for cont linesearch -0.137E-05
 trial: gam= 0.84000 g(F)=  0.377E-02 g(S)=  0.184E-03 ort = 0.126E-03 (trialstep = 0.629E+00)
 search vector abs. value=  0.998E-01
 bond charge predicted
       N       E                     dE             d eps       ncg     rms          rms(c)
DAV:   1    -0.615947020081E+03   -0.27770E-02   -0.25969E+00  1428   0.378E+00    0.429E-01
RMM:   2    -0.615950558503E+03   -0.35384E-02   -0.55286E-02  1428   0.539E-01    0.232E-01
RMM:   3    -0.615949967089E+03    0.59141E-03   -0.25461E-03  1433   0.143E-01    0.126E-01
RMM:   4    -0.615949830273E+03    0.13682E-03   -0.96167E-04  1485   0.639E-02    0.300E-02
RMM:   5    -0.615949821707E+03    0.85666E-05   -0.55313E-05  1437   0.160E-02    0.123E-02
RMM:   6    -0.615949820305E+03    0.14017E-05   -0.86105E-06  1458   0.580E-03    0.534E-03
RMM:   7    -0.615949819753E+03    0.55179E-06   -0.25490E-06  1431   0.342E-03    0.171E-03
RMM:   8    -0.615949819694E+03    0.59266E-07   -0.37275E-07  1042   0.132E-03
 368 F= -.62422213E+03 E0= -.62422213E+03  d E =-.170859E-02
 trial-energy change:   -0.001709  1 .order   -0.001682   -0.002552   -0.000811
 step:   0.8882(harm=  0.9220)  dis= 0.00871  next Energy=  -624.222299 (dE=-0.188E-02)
 bond charge predicted
       N       E                     dE             d eps       ncg     rms          rms(c)
DAV:   1    -0.615951134018E+03   -0.13143E-02   -0.44175E-01  1440   0.156E+00    0.177E-01
RMM:   2    -0.615951735350E+03   -0.60133E-03   -0.94105E-03  1428   0.222E-01    0.954E-02
RMM:   3    -0.615951635148E+03    0.10020E-03   -0.43333E-04  1433   0.590E-02    0.521E-02
RMM:   4    -0.615951611297E+03    0.23851E-04   -0.16410E-04  1489   0.264E-02    0.124E-02
RMM:   5    -0.615951609698E+03    0.15985E-05   -0.92400E-06  1434   0.651E-03    0.513E-03
RMM:   6    -0.615951609342E+03    0.35684E-06   -0.15097E-06  1442   0.242E-03    0.221E-03
RMM:   7    -0.615951609175E+03    0.16624E-06   -0.40679E-07  1056   0.142E-03    0.718E-04
RMM:   8    -0.615951609173E+03    0.21610E-08   -0.92814E-08   882   0.830E-04
 369 F= -.62422233E+03 E0= -.62422233E+03  d E =-.190596E-02
 curvature: -11.19 expect dE=-0.499E-01 dE for cont linesearch -0.256E-05
 trial: gam= 1.11216 g(F)=  0.445E-02 g(S)=  0.953E-05 ort = 0.151E-03 (trialstep = 0.530E+00)
 search vector abs. value=  0.128E+00
 bond charge predicted
       N       E                     dE             d eps       ncg     rms          rms(c)
DAV:   1    -0.615953821677E+03   -0.22125E-02   -0.25287E+00  1428   0.371E+00    0.398E-01
RMM:   2    -0.615957339209E+03   -0.35175E-02   -0.51830E-02  1428   0.521E-01    0.222E-01
RMM:   3    -0.615956806247E+03    0.53296E-03   -0.23976E-03  1434   0.135E-01    0.120E-01
RMM:   4    -0.615956684440E+03    0.12181E-03   -0.90837E-04  1485   0.611E-02    0.266E-02
RMM:   5    -0.615956677811E+03    0.66288E-05   -0.51539E-05  1437   0.156E-02    0.109E-02
RMM:   6    -0.615956676905E+03    0.90623E-06   -0.69427E-06  1478   0.528E-03    0.496E-03
RMM:   7    -0.615956676592E+03    0.31234E-06   -0.21955E-06  1431   0.300E-03    0.158E-03
RMM:   8    -0.615956676553E+03    0.39359E-07   -0.31425E-07  1006   0.118E-03
 370 F= -.62422412E+03 E0= -.62422412E+03  d E =-.179389E-02
 trial-energy change:   -0.001794  1 .order   -0.001762   -0.002450   -0.001073
 step:   0.8656(harm=  0.9430)  dis= 0.00975  next Energy=  -624.224469 (dE=-0.214E-02)
 bond charge predicted
       N       E                     dE             d eps       ncg     rms          rms(c)
DAV:   1    -0.615958022156E+03   -0.13456E-02   -0.10162E+00  1428   0.235E+00    0.253E-01
RMM:   2    -0.615959435646E+03   -0.14135E-02   -0.20840E-02  1428   0.330E-01    0.141E-01
RMM:   3    -0.615959222224E+03    0.21342E-03   -0.96323E-04  1434   0.856E-02    0.762E-02
RMM:   4    -0.615959172906E+03    0.49318E-04   -0.36508E-04  1485   0.388E-02    0.169E-02
RMM:   5    -0.615959170228E+03    0.26787E-05   -0.20568E-05  1437   0.989E-03    0.698E-03
RMM:   6    -0.615959169809E+03    0.41824E-06   -0.28272E-06  1474   0.336E-03    0.316E-03
RMM:   7    -0.615959169644E+03    0.16566E-06   -0.88124E-07  1361   0.191E-03    0.995E-04
RMM:   8    -0.615959169624E+03    0.19289E-07   -0.11853E-07   884   0.759E-04
 371 F= -.62422454E+03 E0= -.62422454E+03  d E =-.221673E-02
 curvature: -12.62 expect dE=-0.571E-01 dE for cont linesearch -0.143E-04
 trial: gam= 0.98090 g(F)=  0.446E-02 g(S)=  0.638E-04 ort = 0.381E-03 (trialstep = 0.595E+00)
 search vector abs. value=  0.129E+00
 bond charge predicted
       N       E                     dE             d eps       ncg     rms          rms(c)
DAV:   1    -0.615961865536E+03   -0.26959E-02   -0.31798E+00  1428   0.417E+00    0.448E-01
RMM:   2    -0.615966101593E+03   -0.42361E-02   -0.62728E-02  1428   0.579E-01    0.244E-01
RMM:   3    -0.615965483502E+03    0.61809E-03   -0.29012E-03  1435   0.150E-01    0.129E-01
RMM:   4    -0.615965346874E+03    0.13663E-03   -0.95239E-04  1487   0.653E-02    0.278E-02
RMM:   5    -0.615965341474E+03    0.53994E-05   -0.50174E-05  1434   0.158E-02    0.114E-02
RMM:   6    -0.615965340424E+03    0.10507E-05   -0.96770E-06  1476   0.616E-03    0.488E-03
RMM:   7    -0.615965340190E+03    0.23344E-06   -0.21416E-06  1431   0.316E-03    0.172E-03
RMM:   8    -0.615965340191E+03   -0.79308E-09   -0.30231E-07   997   0.120E-03
 372 F= -.62422655E+03 E0= -.62422655E+03  d E =-.200799E-02
 trial-energy change:   -0.002008  1 .order   -0.001980   -0.002915   -0.001046
 step:   0.8887(harm=  0.9279)  dis= 0.01002  next Energy=  -624.226813 (dE=-0.227E-02)
 bond charge predicted
       N       E                     dE             d eps       ncg     rms          rms(c)
DAV:   1    -0.615966848382E+03   -0.15082E-02   -0.77472E-01  1440   0.206E+00    0.222E-01
RMM:   2    -0.615967879935E+03   -0.10316E-02   -0.15306E-02  1428   0.285E-01    0.121E-01
RMM:   3    -0.615967729669E+03    0.15027E-03   -0.70650E-04  1433   0.741E-02    0.638E-02
RMM:   4    -0.615967695841E+03    0.33828E-04   -0.23410E-04  1489   0.325E-02    0.138E-02
RMM:   5    -0.615967694535E+03    0.13054E-05   -0.12166E-05  1434   0.780E-03    0.574E-03
RMM:   6    -0.615967694264E+03    0.27150E-06   -0.24189E-06  1462   0.308E-03    0.241E-03
RMM:   7    -0.615967694176E+03    0.87501E-07   -0.50832E-07  1214   0.158E-03
 373 F= -.62422686E+03 E0= -.62422686E+03  d E =-.231189E-02
 curvature: -12.02 expect dE=-0.529E-01 dE for cont linesearch -0.432E-05
 trial: gam= 1.05061 g(F)=  0.434E-02 g(S)=  0.594E-04 ort = 0.215E-03 (trialstep = 0.573E+00)
 search vector abs. value=  0.147E+00
 bond charge predicted
       N       E                     dE             d eps       ncg     rms          rms(c)
DAV:   1    -0.615969615054E+03   -0.19208E-02   -0.34193E+00  1428   0.431E+00    0.452E-01
RMM:   2    -0.615974271253E+03   -0.46562E-02   -0.67421E-02  1428   0.591E-01    0.248E-01
RMM:   3    -0.615973644674E+03    0.62658E-03   -0.30785E-03  1438   0.155E-01    0.136E-01
RMM:   4    -0.615973494723E+03    0.14995E-03   -0.10949E-03  1485   0.685E-02    0.292E-02
RMM:   5    -0.615973488461E+03    0.62624E-05   -0.55807E-05  1436   0.165E-02    0.125E-02
RMM:   6    -0.615973487205E+03    0.12555E-05   -0.10665E-05  1467   0.648E-03    0.537E-03
RMM:   7    -0.615973486882E+03    0.32293E-06   -0.25688E-06  1430   0.353E-03    0.166E-03
RMM:   8    -0.615973486883E+03   -0.10114E-08   -0.29399E-07   991   0.126E-03
 374 F= -.62422851E+03 E0= -.62422851E+03  d E =-.165425E-02
 trial-energy change:   -0.001654  1 .order   -0.001620   -0.002651   -0.000588
 step:   0.7177(harm=  0.7360)  dis= 0.00878  next Energy=  -624.228585 (dE=-0.173E-02)
 bond charge predicted
       N       E                     dE             d eps       ncg     rms          rms(c)
DAV:   1    -0.615974375196E+03   -0.88831E-03   -0.21926E-01  1480   0.109E+00    0.115E-01
RMM:   2    -0.615974675981E+03   -0.30079E-03   -0.43534E-03  1428   0.150E-01    0.628E-02
RMM:   3    -0.615974635876E+03    0.40105E-04   -0.19908E-04  1436   0.395E-02    0.346E-02
RMM:   4    -0.615974625755E+03    0.10121E-04   -0.71200E-05  1484   0.175E-02    0.748E-03
RMM:   5    -0.615974625314E+03    0.44118E-06   -0.36385E-06  1439   0.424E-03    0.326E-03
RMM:   6    -0.615974625184E+03    0.12922E-06   -0.71063E-07  1358   0.169E-03    0.137E-03
RMM:   7    -0.615974625125E+03    0.59859E-07   -0.14474E-07   884   0.921E-04
 375 F= -.62422860E+03 E0= -.62422860E+03  d E =-.174636E-02
 curvature: -11.53 expect dE=-0.442E-01 dE for cont linesearch -0.130E-05
 trial: gam= 0.86053 g(F)=  0.381E-02 g(S)=  0.248E-04 ort = 0.129E-03 (trialstep = 0.602E+00)
 search vector abs. value=  0.113E+00
 bond charge predicted
       N       E                     dE             d eps       ncg     rms          rms(c)
DAV:   1    -0.615976422092E+03   -0.17969E-02   -0.29466E+00  1440   0.401E+00    0.437E-01
RMM:   2    -0.615980551915E+03   -0.41298E-02   -0.59499E-02  1428   0.549E-01    0.232E-01
RMM:   3    -0.615979959314E+03    0.59260E-03   -0.26702E-03  1436   0.146E-01    0.129E-01
RMM:   4    -0.615979817569E+03    0.14174E-03   -0.10755E-03  1485   0.663E-02    0.294E-02
RMM:   5    -0.615979808459E+03    0.91099E-05   -0.51915E-05  1435   0.160E-02    0.129E-02
RMM:   6    -0.615979806473E+03    0.19858E-05   -0.11214E-05  1455   0.652E-03    0.529E-03
RMM:   7    -0.615979805790E+03    0.68305E-06   -0.25817E-06  1429   0.359E-03    0.167E-03
RMM:   8    -0.615979805716E+03    0.74153E-07   -0.32338E-07  1005   0.124E-03
 376 F= -.62423016E+03 E0= -.62423016E+03  d E =-.155596E-02
 trial-energy change:   -0.001556  1 .order   -0.001530   -0.002372   -0.000687
 step:   0.8193(harm=  0.8472)  dis= 0.00892  next Energy=  -624.230283 (dE=-0.168E-02)
 bond charge predicted
       N       E                     dE             d eps       ncg     rms          rms(c)
DAV:   1    -0.615980823163E+03   -0.10174E-02   -0.38526E-01  1452   0.145E+00    0.158E-01
RMM:   2    -0.615981363136E+03   -0.53997E-03   -0.77900E-03  1428   0.198E-01    0.838E-02
RMM:   3    -0.615981285691E+03    0.77444E-04   -0.34973E-04  1436   0.530E-02    0.468E-02
RMM:   4    -0.615981266535E+03    0.19156E-04   -0.14133E-04  1485   0.240E-02    0.107E-02
RMM:   5    -0.615981265202E+03    0.13325E-05   -0.68112E-06  1435   0.579E-03    0.472E-03
RMM:   6    -0.615981264814E+03    0.38787E-06   -0.14883E-06  1436   0.238E-03    0.193E-03
RMM:   7    -0.615981264643E+03    0.17165E-06   -0.31011E-07   976   0.130E-03    0.631E-04
RMM:   8    -0.615981264635E+03    0.74797E-08   -0.76538E-08   882   0.768E-04
 377 F= -.62423031E+03 E0= -.62423031E+03  d E =-.170653E-02
 curvature: -11.97 expect dE=-0.433E-01 dE for cont linesearch -0.182E-05
 trial: gam= 0.91826 g(F)=  0.359E-02 g(S)=  0.299E-04 ort = 0.131E-03 (trialstep = 0.645E+00)
 search vector abs. value=  0.990E-01
 bond charge predicted
       N       E                     dE             d eps       ncg     rms          rms(c)
DAV:   1    -0.615984174802E+03   -0.29102E-02   -0.28623E+00  1428   0.397E+00    0.425E-01
RMM:   2    -0.615988067674E+03   -0.38929E-02   -0.58966E-02  1428   0.555E-01    0.233E-01
RMM:   3    -0.615987519921E+03    0.54775E-03   -0.27591E-03  1436   0.148E-01    0.128E-01
RMM:   4    -0.615987388618E+03    0.13130E-03   -0.99044E-04  1489   0.664E-02    0.298E-02
RMM:   5    -0.615987381443E+03    0.71748E-05   -0.55008E-05  1431   0.161E-02    0.122E-02
RMM:   6    -0.615987380188E+03    0.12546E-05   -0.11279E-05  1474   0.660E-03    0.544E-03
RMM:   7    -0.615987379758E+03    0.43026E-06   -0.30056E-06  1431   0.389E-03    0.195E-03
RMM:   8    -0.615987379746E+03    0.11853E-07   -0.51612E-07  1163   0.169E-03
 378 F= -.62423187E+03 E0= -.62423187E+03  d E =-.156013E-02
 trial-energy change:   -0.001560  1 .order   -0.001529   -0.002410   -0.000648
 step:   0.8530(harm=  0.8822)  dis= 0.00831  next Energy=  -624.231974 (dE=-0.167E-02)
 bond charge predicted
       N       E                     dE             d eps       ncg     rms          rms(c)
DAV:   1    -0.615988639924E+03   -0.12602E-02   -0.29691E-01  1452   0.128E+00    0.137E-01
RMM:   2    -0.615989043531E+03   -0.40361E-03   -0.61230E-03  1428   0.179E-01    0.748E-02
RMM:   3    -0.615988986690E+03    0.56841E-04   -0.28656E-04  1436   0.479E-02    0.412E-02
RMM:   4    -0.615988972445E+03    0.14245E-04   -0.10287E-04  1489   0.214E-02    0.961E-03
RMM:   5    -0.615988971670E+03    0.77487E-06   -0.56607E-06  1431   0.518E-03    0.398E-03
RMM:   6    -0.615988971493E+03    0.17775E-06   -0.11968E-06  1399   0.216E-03    0.175E-03
RMM:   7    -0.615988971401E+03    0.91168E-07   -0.27543E-07   938   0.127E-03
 379 F= -.62423200E+03 E0= -.62423200E+03  d E =-.168705E-02
 curvature: -11.51 expect dE=-0.378E-01 dE for cont linesearch -0.238E-05
 trial: gam= 0.91039 g(F)=  0.320E-02 g(S)=  0.774E-04 ort = 0.143E-03 (trialstep = 0.687E+00)
 search vector abs. value=  0.856E-01
 bond charge predicted
       N       E                     dE             d eps       ncg     rms          rms(c)
DAV:   1    -0.615990790921E+03   -0.18194E-02   -0.27454E+00  1428   0.388E+00    0.421E-01
RMM:   2    -0.615994775192E+03   -0.39843E-02   -0.57496E-02  1428   0.547E-01    0.235E-01
RMM:   3    -0.615994206662E+03    0.56853E-03   -0.25977E-03  1433   0.144E-01    0.128E-01
RMM:   4    -0.615994075248E+03    0.13141E-03   -0.98556E-04  1487   0.661E-02    0.286E-02
RMM:   5    -0.615994066562E+03    0.86867E-05   -0.58565E-05  1437   0.163E-02    0.111E-02
RMM:   6    -0.615994066023E+03    0.53864E-06   -0.90669E-06  1497   0.592E-03    0.530E-03
RMM:   7    -0.615994065747E+03    0.27651E-06   -0.27464E-06  1432   0.348E-03    0.200E-03
RMM:   8    -0.615994065722E+03    0.24716E-07   -0.59616E-07  1202   0.162E-03
 380 F= -.62423340E+03 E0= -.62423340E+03  d E =-.140191E-02
 trial-energy change:   -0.001402  1 .order   -0.001374   -0.002344   -0.000404
 step:   0.8166(harm=  0.8300)  dis= 0.00719  next Energy=  -624.233436 (dE=-0.144E-02)
 bond charge predicted
       N       E                     dE             d eps       ncg     rms          rms(c)
DAV:   1    -0.615994693095E+03   -0.62735E-03   -0.98144E-02  1480   0.733E-01    0.799E-02
RMM:   2    -0.615994835091E+03   -0.14200E-03   -0.20544E-03  1428   0.103E-01    0.443E-02
RMM:   3    -0.615994814826E+03    0.20265E-04   -0.92981E-05  1433   0.274E-02    0.242E-02
RMM:   4    -0.615994809858E+03    0.49683E-05   -0.35022E-05  1488   0.125E-02    0.537E-03
RMM:   5    -0.615994809589E+03    0.26856E-06   -0.20281E-06  1436   0.304E-03    0.213E-03
RMM:   6    -0.615994809565E+03    0.24236E-07   -0.28311E-07   957   0.113E-03
 381 F= -.62423344E+03 E0= -.62423344E+03  d E =-.144862E-02
 curvature: -10.32 expect dE=-0.279E-01 dE for cont linesearch -0.292E-06
 trial: gam= 0.85070 g(F)=  0.262E-02 g(S)=  0.852E-04 ort = 0.492E-04 (trialstep = 0.713E+00)
 search vector abs. value=  0.647E-01
 bond charge predicted
       N       E                     dE             d eps       ncg     rms          rms(c)
DAV:   1    -0.615994654484E+03    0.15511E-03   -0.23693E+00  1428   0.357E+00    0.364E-01
RMM:   2    -0.615998335067E+03   -0.36806E-02   -0.48914E-02  1428   0.495E-01    0.208E-01
RMM:   3    -0.615997852116E+03    0.48295E-03   -0.20859E-03  1432   0.127E-01    0.116E-01
RMM:   4    -0.615997736201E+03    0.11592E-03   -0.90419E-04  1475   0.593E-02    0.238E-02
RMM:   5    -0.615997727183E+03    0.90176E-05   -0.50806E-05  1446   0.153E-02    0.101E-02
RMM:   6    -0.615997726524E+03    0.65962E-06   -0.52365E-06  1474   0.474E-03    0.486E-03
RMM:   7    -0.615997726276E+03    0.24730E-06   -0.20484E-06  1430   0.270E-03    0.154E-03
RMM:   8    -0.615997726236E+03    0.40185E-07   -0.38936E-07  1037   0.125E-03
 382 F= -.62423470E+03 E0= -.62423470E+03  d E =-.125469E-02
 trial-energy change:   -0.001255  1 .order   -0.001233   -0.001958   -0.000509
 step:   0.9366(harm=  0.9629)  dis= 0.00736  next Energy=  -624.234779 (dE=-0.134E-02)
 bond charge predicted
       N       E                     dE             d eps       ncg     rms          rms(c)
DAV:   1    -0.615998036321E+03   -0.31004E-03   -0.23358E-01  1440   0.112E+00    0.114E-01
RMM:   2    -0.615998398907E+03   -0.36259E-03   -0.48154E-03  1428   0.155E-01    0.651E-02
RMM:   3    -0.615998351744E+03    0.47162E-04   -0.20509E-04  1431   0.398E-02    0.364E-02
RMM:   4    -0.615998340154E+03    0.11590E-04   -0.88948E-05  1476   0.186E-02    0.746E-03
RMM:   5    -0.615998339211E+03    0.94337E-06   -0.49725E-06  1446   0.481E-03    0.320E-03
RMM:   6    -0.615998339090E+03    0.12097E-06   -0.47478E-07  1150   0.149E-03    0.153E-03
RMM:   7    -0.615998339035E+03    0.54919E-07   -0.19718E-07   917   0.912E-04
 383 F= -.62423479E+03 E0= -.62423479E+03  d E =-.134683E-02
 curvature: -11.22 expect dE=-0.352E-01 dE for cont linesearch -0.757E-06
 trial: gam= 1.13177 g(F)=  0.310E-02 g(S)=  0.402E-04 ort = 0.661E-04 (trialstep = 0.569E+00)
 search vector abs. value=  0.862E-01
 bond charge predicted
       N       E                     dE             d eps       ncg     rms          rms(c)
DAV:   1    -0.615998674083E+03   -0.33499E-03   -0.19787E+00  1428   0.327E+00    0.340E-01
RMM:   2    -0.616001647922E+03   -0.29738E-02   -0.40192E-02  1428   0.451E-01    0.192E-01
RMM:   3    -0.616001242135E+03    0.40579E-03   -0.17380E-03  1429   0.117E-01    0.106E-01
RMM:   4    -0.616001149021E+03    0.93113E-04   -0.73617E-04  1479   0.544E-02    0.219E-02
RMM:   5    -0.616001142138E+03    0.68835E-05   -0.40487E-05  1448   0.141E-02    0.938E-03
RMM:   6    -0.616001141686E+03    0.45206E-06   -0.45463E-06  1468   0.433E-03    0.430E-03
RMM:   7    -0.616001141552E+03    0.13402E-06   -0.14471E-06  1428   0.243E-03    0.131E-03
RMM:   8    -0.616001141547E+03    0.47767E-08   -0.22022E-07   952   0.101E-03
 384 F= -.62423586E+03 E0= -.62423586E+03  d E =-.107333E-02
 trial-energy change:   -0.001073  1 .order   -0.001060   -0.001827   -0.000293
 step:   0.6711(harm=  0.6774)  dis= 0.00548  next Energy=  -624.235890 (dE=-0.110E-02)
 bond charge predicted
       N       E                     dE             d eps       ncg     rms          rms(c)
DAV:   1    -0.616001403158E+03   -0.26161E-03   -0.63898E-02  1512   0.587E-01    0.610E-02
RMM:   2    -0.616001499345E+03   -0.96188E-04   -0.12966E-03  1428   0.810E-02    0.344E-02
RMM:   3    -0.616001486370E+03    0.12975E-04   -0.56095E-05  1429   0.210E-02    0.191E-02
RMM:   4    -0.616001483241E+03    0.31285E-05   -0.23700E-05  1478   0.978E-03    0.394E-03
RMM:   5    -0.616001482981E+03    0.26022E-06   -0.12851E-06  1446   0.252E-03    0.171E-03
RMM:   6    -0.616001482933E+03    0.48254E-07   -0.12033E-07   882   0.784E-04
 385 F= -.62423590E+03 E0= -.62423590E+03  d E =-.110432E-02
 curvature:  -9.06 expect dE=-0.196E-01 dE for cont linesearch -0.528E-07
 trial: gam= 0.70921 g(F)=  0.210E-02 g(S)=  0.599E-04 ort = 0.224E-04 (trialstep = 0.589E+00)
 search vector abs. value=  0.456E-01
 bond charge predicted
       N       E                     dE             d eps       ncg     rms          rms(c)
DAV:   1    -0.616003447748E+03   -0.19648E-02   -0.10712E+00  1428   0.243E+00    0.260E-01
RMM:   2    -0.616004892426E+03   -0.14447E-02   -0.21377E-02  1428   0.337E-01    0.146E-01
RMM:   3    -0.616004674499E+03    0.21793E-03   -0.98564E-04  1436   0.887E-02    0.790E-02
RMM:   4    -0.616004621163E+03    0.53336E-04   -0.35733E-04  1484   0.399E-02    0.166E-02
RMM:   5    -0.616004618617E+03    0.25458E-05   -0.19902E-05  1437   0.980E-03    0.682E-03
RMM:   6    -0.616004618402E+03    0.21475E-06   -0.32919E-06  1481   0.366E-03    0.325E-03
RMM:   7    -0.616004618244E+03    0.15845E-06   -0.97050E-07  1360   0.216E-03    0.114E-03
RMM:   8    -0.616004618232E+03    0.11871E-07   -0.16073E-07   889   0.958E-04
 386 F= -.62423672E+03 E0= -.62423672E+03  d E =-.824907E-03
 trial-energy change:   -0.000825  1 .order   -0.000812   -0.001282   -0.000342
 step:   0.7830(harm=  0.8038)  dis= 0.00523  next Energy=  -624.236777 (dE=-0.882E-03)
 bond charge predicted
       N       E                     dE             d eps       ncg     rms          rms(c)
DAV:   1    -0.616005317752E+03   -0.69951E-03   -0.11577E-01  1464   0.799E-01    0.856E-02
RMM:   2    -0.616005473381E+03   -0.15563E-03   -0.23097E-03  1428   0.110E-01    0.478E-02
RMM:   3    -0.616005449494E+03    0.23886E-04   -0.10665E-04  1436   0.292E-02    0.259E-02
RMM:   4    -0.616005443357E+03    0.61366E-05   -0.38646E-05  1483   0.131E-02    0.545E-03
RMM:   5    -0.616005443106E+03    0.25161E-06   -0.21455E-06  1437   0.323E-03    0.227E-03
RMM:   6    -0.616005443074E+03    0.31741E-07   -0.30927E-07   970   0.121E-03
 387 F= -.62423679E+03 E0= -.62423679E+03  d E =-.891033E-03
 curvature:  -8.33 expect dE=-0.170E-01 dE for cont linesearch -0.439E-06
 trial: gam= 0.91439 g(F)=  0.202E-02 g(S)=  0.194E-04 ort = 0.490E-04 (trialstep = 0.628E+00)
 search vector abs. value=  0.402E-01
 bond charge predicted
       N       E                     dE             d eps       ncg     rms          rms(c)
DAV:   1    -0.616006579882E+03   -0.11368E-02   -0.11316E+00  1428   0.248E+00    0.258E-01
RMM:   2    -0.616008125419E+03   -0.15455E-02   -0.21416E-02  1428   0.333E-01    0.145E-01
RMM:   3    -0.616007912253E+03    0.21317E-03   -0.97319E-04  1438   0.867E-02    0.810E-02
RMM:   4    -0.616007859115E+03    0.53137E-04   -0.40710E-04  1485   0.405E-02    0.164E-02
RMM:   5    -0.616007855437E+03    0.36781E-05   -0.21443E-05  1434   0.101E-02    0.695E-03
RMM:   6    -0.616007855191E+03    0.24672E-06   -0.31851E-06  1476   0.364E-03    0.337E-03
RMM:   7    -0.616007855063E+03    0.12793E-06   -0.99094E-07  1381   0.201E-03    0.104E-03
RMM:   8    -0.616007855059E+03    0.33870E-08   -0.11088E-07   882   0.782E-04
 388 F= -.62423760E+03 E0= -.62423760E+03  d E =-.813182E-03
 trial-energy change:   -0.000813  1 .order   -0.000800   -0.001308   -0.000291
 step:   0.7911(harm=  0.8075)  dis= 0.00468  next Energy=  -624.237637 (dE=-0.851E-03)
 bond charge predicted
       N       E                     dE             d eps       ncg     rms          rms(c)
DAV:   1    -0.616008229628E+03   -0.37457E-03   -0.76234E-02  1464   0.643E-01    0.669E-02
RMM:   2    -0.616008333482E+03   -0.10385E-03   -0.14407E-03  1428   0.864E-02    0.376E-02
RMM:   3    -0.616008318901E+03    0.14582E-04   -0.65543E-05  1438   0.225E-02    0.210E-02
RMM:   4    -0.616008315019E+03    0.38819E-05   -0.27325E-05  1485   0.105E-02    0.424E-03
RMM:   5    -0.616008314790E+03    0.22914E-06   -0.14285E-06  1434   0.262E-03    0.181E-03
RMM:   6    -0.616008314764E+03    0.25182E-07   -0.16926E-07   889   0.941E-04
 389 F= -.62423764E+03 E0= -.62423764E+03  d E =-.858482E-03
 curvature:  -7.73 expect dE=-0.157E-01 dE for cont linesearch -0.193E-06
 trial: gam= 1.01671 g(F)=  0.193E-02 g(S)=  0.102E-03 ort = 0.317E-04 (trialstep = 0.608E+00)
 search vector abs. value=  0.437E-01
 bond charge predicted
       N       E                     dE             d eps       ncg     rms          rms(c)
DAV:   1    -0.616007705312E+03    0.60948E-03   -0.10822E+00  1428   0.241E+00    0.241E-01
RMM:   2    -0.616009163051E+03   -0.14577E-02   -0.19512E-02  1428   0.312E-01    0.142E-01
RMM:   3    -0.616008964572E+03    0.19848E-03   -0.86345E-04  1431   0.807E-02    0.789E-02
RMM:   4    -0.616008921715E+03    0.42856E-04   -0.38824E-04  1476   0.388E-02    0.160E-02
RMM:   5    -0.616008916615E+03    0.51000E-05   -0.30000E-05  1442   0.115E-02    0.677E-03
RMM:   6    -0.616008916377E+03    0.23874E-06   -0.20377E-06  1477   0.325E-03    0.363E-03
RMM:   7    -0.616008916283E+03    0.93518E-07   -0.12689E-06  1385   0.208E-03    0.114E-03
RMM:   8    -0.616008916272E+03    0.11190E-07   -0.17984E-07   946   0.887E-04
 390 F= -.62423851E+03 E0= -.62423851E+03  d E =-.860672E-03
 trial-energy change:   -0.000861  1 .order   -0.000853   -0.001253   -0.000452
 step:   0.9241(harm=  0.9523)  dis= 0.00615  next Energy=  -624.238624 (dE=-0.979E-03)
 bond charge predicted
       N       E                     dE             d eps       ncg     rms          rms(c)
DAV:   1    -0.616008585580E+03    0.33070E-03   -0.29114E-01  1440   0.125E+00    0.125E-01
RMM:   2    -0.616008977587E+03   -0.39201E-03   -0.52402E-03  1428   0.162E-01    0.734E-02
RMM:   3    -0.616008924390E+03    0.53197E-04   -0.23196E-04  1431   0.418E-02    0.409E-02
RMM:   4    -0.616008912860E+03    0.11530E-04   -0.10392E-04  1476   0.201E-02    0.827E-03
RMM:   5    -0.616008911456E+03    0.14039E-05   -0.79751E-06  1442   0.593E-03    0.351E-03
RMM:   6    -0.616008911366E+03    0.90055E-07   -0.50182E-07  1142   0.168E-03
 391 F= -.62423864E+03 E0= -.62423864E+03  d E =-.991515E-03
 curvature: -10.03 expect dE=-0.193E-01 dE for cont linesearch -0.348E-06
 trial: gam= 0.93281 g(F)=  0.190E-02 g(S)=  0.249E-04 ort = 0.389E-04 (trialstep = 0.672E+00)
 search vector abs. value=  0.400E-01
 bond charge predicted
       N       E                     dE             d eps       ncg     rms          rms(c)
DAV:   1    -0.616007676776E+03    0.12347E-02   -0.12271E+00  1428   0.257E+00    0.259E-01
RMM:   2    -0.616009411165E+03   -0.17344E-02   -0.22863E-02  1428   0.339E-01    0.149E-01
RMM:   3    -0.616009181662E+03    0.22950E-03   -0.98293E-04  1433   0.871E-02    0.832E-02
RMM:   4    -0.616009129548E+03    0.52114E-04   -0.44116E-04  1465   0.412E-02    0.157E-02
RMM:   5    -0.616009124561E+03    0.49876E-05   -0.26258E-05  1446   0.114E-02    0.666E-03
RMM:   6    -0.616009124581E+03   -0.20817E-07   -0.28898E-06  1496   0.351E-03    0.354E-03
RMM:   7    -0.616009124562E+03    0.19412E-07   -0.92024E-07  1366   0.192E-03
 392 F= -.62423946E+03 E0= -.62423946E+03  d E =-.823442E-03
 trial-energy change:   -0.000823  1 .order   -0.000812   -0.001315   -0.000308
 step:   0.8603(harm=  0.8775)  dis= 0.00610  next Energy=  -624.239503 (dE=-0.867E-03)
 bond charge predicted
       N       E                     dE             d eps       ncg     rms          rms(c)
DAV:   1    -0.616008890118E+03    0.23446E-03   -0.96921E-02  1464   0.723E-01    0.728E-02
RMM:   2    -0.616009027426E+03   -0.13731E-03   -0.18087E-03  1428   0.953E-02    0.421E-02
RMM:   3    -0.616009009059E+03    0.18368E-04   -0.77953E-05  1433   0.245E-02    0.234E-02
RMM:   4    -0.616009004943E+03    0.41156E-05   -0.35151E-05  1468   0.116E-02    0.445E-03
RMM:   5    -0.616009004568E+03    0.37521E-06   -0.20950E-06  1442   0.321E-03    0.188E-03
RMM:   6    -0.616009004575E+03   -0.74433E-08   -0.17790E-07   902   0.992E-04
 393 F= -.62423951E+03 E0= -.62423951E+03  d E =-.875580E-03
 curvature:  -8.90 expect dE=-0.166E-01 dE for cont linesearch -0.208E-06
 trial: gam= 0.98779 g(F)=  0.185E-02 g(S)=  0.138E-04 ort = 0.305E-04 (trialstep = 0.693E+00)
 search vector abs. value=  0.409E-01
 bond charge predicted
       N       E                     dE             d eps       ncg     rms          rms(c)
DAV:   1    -0.616007672045E+03    0.13325E-02   -0.13173E+00  1428   0.266E+00    0.269E-01
RMM:   2    -0.616009597892E+03   -0.19258E-02   -0.25120E-02  1428   0.358E-01    0.158E-01
RMM:   3    -0.616009339651E+03    0.25824E-03   -0.10731E-03  1434   0.906E-02    0.865E-02
RMM:   4    -0.616009282867E+03    0.56784E-04   -0.47427E-04  1471   0.429E-02    0.160E-02
RMM:   5    -0.616009277893E+03    0.49739E-05   -0.26710E-05  1444   0.115E-02    0.702E-03
RMM:   6    -0.616009277889E+03    0.40818E-08   -0.31104E-06  1483   0.357E-03    0.340E-03
RMM:   7    -0.616009277868E+03    0.20824E-07   -0.89163E-07  1387   0.192E-03
 394 F= -.62424036E+03 E0= -.62424036E+03  d E =-.843478E-03
 trial-energy change:   -0.000843  1 .order   -0.000835   -0.001314   -0.000355
 step:   0.9319(harm=  0.9496)  dis= 0.00678  next Energy=  -624.240417 (dE=-0.905E-03)
 bond charge predicted
       N       E                     dE             d eps       ncg     rms          rms(c)
DAV:   1    -0.616008959955E+03    0.31793E-03   -0.15696E-01  1440   0.919E-01    0.930E-02
RMM:   2    -0.616009189445E+03   -0.22949E-03   -0.29950E-03  1428   0.124E-01    0.546E-02
RMM:   3    -0.616009158342E+03    0.31104E-04   -0.12839E-04  1434   0.313E-02    0.299E-02
RMM:   4    -0.616009151576E+03    0.67657E-05   -0.56746E-05  1470   0.148E-02    0.553E-03
RMM:   5    -0.616009151067E+03    0.50841E-06   -0.32080E-06  1444   0.399E-03    0.243E-03
RMM:   6    -0.616009151099E+03   -0.31985E-07   -0.32169E-07  1009   0.124E-03
 395 F= -.62424043E+03 E0= -.62424043E+03  d E =-.914335E-03
 curvature: -10.20 expect dE=-0.256E-01 dE for cont linesearch -0.217E-06
 trial: gam= 1.33520 g(F)=  0.248E-02 g(S)=  0.294E-04 ort = 0.295E-04 (trialstep = 0.401E+00)
 search vector abs. value=  0.756E-01
 bond charge predicted
       N       E                     dE             d eps       ncg     rms          rms(c)
DAV:   1    -0.616008425206E+03    0.72586E-03   -0.76169E-01  1428   0.202E+00    0.206E-01
RMM:   2    -0.616009529277E+03   -0.11041E-02   -0.14561E-02  1428   0.272E-01    0.120E-01
RMM:   3    -0.616009381137E+03    0.14814E-03   -0.63062E-04  1431   0.692E-02    0.655E-02
RMM:   4    -0.616009350419E+03    0.30718E-04   -0.27221E-04  1464   0.326E-02    0.119E-02
RMM:   5    -0.616009347633E+03    0.27862E-05   -0.16226E-05  1451   0.912E-03    0.529E-03
RMM:   6    -0.616009347625E+03    0.78871E-08   -0.16916E-06  1467   0.268E-03    0.266E-03
RMM:   7    -0.616009347618E+03    0.64756E-08   -0.50753E-07  1176   0.147E-03
 396 F= -.62424124E+03 E0= -.62424124E+03  d E =-.814863E-03
 trial-energy change:   -0.000815  1 .order   -0.000806   -0.001021   -0.000591
 step:   0.8372(harm=  0.9524)  dis= 0.00887  next Energy=  -624.241573 (dE=-0.115E-02)
 bond charge predicted
       N       E                     dE             d eps       ncg     rms          rms(c)
DAV:   1    -0.616007972318E+03    0.13753E-02   -0.89930E-01  1428   0.220E+00    0.223E-01
RMM:   2    -0.616009275096E+03   -0.13028E-02   -0.17193E-02  1428   0.296E-01    0.131E-01
RMM:   3    -0.616009099490E+03    0.17561E-03   -0.74451E-04  1430   0.752E-02    0.712E-02
RMM:   4    -0.616009063078E+03    0.36411E-04   -0.32205E-04  1463   0.354E-02    0.130E-02
RMM:   5    -0.616009059770E+03    0.33080E-05   -0.19336E-05  1452   0.995E-03    0.576E-03
RMM:   6    -0.616009059755E+03    0.15556E-07   -0.19886E-06  1481   0.292E-03    0.289E-03
RMM:   7    -0.616009059745E+03    0.92623E-08   -0.60886E-07  1254   0.160E-03
 397 F= -.62424163E+03 E0= -.62424163E+03  d E =-.120168E-02
 curvature: -13.53 expect dE=-0.314E-01 dE for cont linesearch -0.161E-04
 trial: gam= 0.82408 g(F)=  0.232E-02 g(S)=  0.366E-05 ort = 0.300E-03 (trialstep = 0.488E+00)
 search vector abs. value=  0.541E-01
 bond charge predicted
       N       E                     dE             d eps       ncg     rms          rms(c)
DAV:   1    -0.616008232051E+03    0.82770E-03   -0.78794E-01  1428   0.206E+00    0.219E-01
RMM:   2    -0.616009331556E+03   -0.10995E-02   -0.14722E-02  1428   0.274E-01    0.125E-01
RMM:   3    -0.616009171742E+03    0.15981E-03   -0.65042E-04  1430   0.704E-02    0.672E-02
RMM:   4    -0.616009138788E+03    0.32953E-04   -0.27800E-04  1474   0.332E-02    0.124E-02
RMM:   5    -0.616009135884E+03    0.29038E-05   -0.15697E-05  1445   0.885E-03    0.558E-03
RMM:   6    -0.616009135723E+03    0.16123E-06   -0.15587E-06  1464   0.267E-03    0.274E-03
RMM:   7    -0.616009135627E+03    0.96246E-07   -0.55770E-07  1172   0.151E-03
 398 F= -.62424251E+03 E0= -.62424251E+03  d E =-.885225E-03
 trial-energy change:   -0.000885  1 .order   -0.000880   -0.001254   -0.000506
 step:   0.7972(harm=  0.8184)  dis= 0.00640  next Energy=  -624.242674 (dE=-0.105E-02)
 bond charge predicted
       N       E                     dE             d eps       ncg     rms          rms(c)
DAV:   1    -0.616008438207E+03    0.69752E-03   -0.31500E-01  1440   0.130E+00    0.138E-01
RMM:   2    -0.616008878299E+03   -0.44009E-03   -0.58909E-03  1428   0.174E-01    0.791E-02
RMM:   3    -0.616008814267E+03    0.64032E-04   -0.26053E-04  1430   0.446E-02    0.425E-02
RMM:   4    -0.616008801086E+03    0.13181E-04   -0.11141E-04  1473   0.210E-02    0.786E-03
RMM:   5    -0.616008799895E+03    0.11913E-05   -0.62795E-06  1446   0.561E-03    0.354E-03
RMM:   6    -0.616008799802E+03    0.93176E-07   -0.58730E-07  1233   0.169E-03
 399 F= -.62424269E+03 E0= -.62424269E+03  d E =-.106248E-02
 curvature:  -8.59 expect dE=-0.181E-01 dE for cont linesearch -0.480E-06
 trial: gam= 1.05659 g(F)=  0.207E-02 g(S)=  0.361E-04 ort = 0.550E-04 (trialstep = 0.475E+00)
 search vector abs. value=  0.627E-01
 bond charge predicted
       N       E                     dE             d eps       ncg     rms          rms(c)
DAV:   1    -0.616008426565E+03    0.37333E-03   -0.83880E-01  1428   0.212E+00    0.213E-01
RMM:   2    -0.616009525079E+03   -0.10985E-02   -0.14670E-02  1428   0.273E-01    0.126E-01
RMM:   3    -0.616009377408E+03    0.14767E-03   -0.65569E-04  1437   0.695E-02    0.673E-02
RMM:   4    -0.616009349567E+03    0.27841E-04   -0.26959E-04  1465   0.323E-02    0.122E-02
RMM:   5    -0.616009346660E+03    0.29065E-05   -0.17719E-05  1447   0.925E-03    0.533E-03
RMM:   6    -0.616009346611E+03    0.49600E-07   -0.15248E-06  1457   0.268E-03    0.274E-03
RMM:   7    -0.616009346591E+03    0.19838E-07   -0.64403E-07  1260   0.153E-03
 400 F= -.62424347E+03 E0= -.62424347E+03  d E =-.775106E-03
 trial-energy change:   -0.000775  1 .order   -0.000768   -0.001029   -0.000507
 step:   0.8777(harm=  0.9380)  dis= 0.00762  next Energy=  -624.243684 (dE=-0.994E-03)
 bond charge predicted
       N       E                     dE             d eps       ncg     rms          rms(c)
DAV:   1    -0.616008737340E+03    0.60927E-03   -0.60079E-01  1428   0.179E+00    0.180E-01
RMM:   2    -0.616009524360E+03   -0.78702E-03   -0.10513E-02  1428   0.231E-01    0.107E-01
RMM:   3    -0.616009417907E+03    0.10645E-03   -0.46990E-04  1436   0.588E-02    0.570E-02
RMM:   4    -0.616009397856E+03    0.20051E-04   -0.19371E-04  1466   0.273E-02    0.104E-02
RMM:   5    -0.616009395780E+03    0.20758E-05   -0.12869E-05  1447   0.786E-03    0.453E-03
RMM:   6    -0.616009395744E+03    0.36373E-07   -0.10740E-06  1414   0.227E-03    0.232E-03
RMM:   7    -0.616009395729E+03    0.14123E-07   -0.45771E-07  1099   0.131E-03
 401 F= -.62424371E+03 E0= -.62424371E+03  d E =-.101964E-02
 curvature: -13.35 expect dE=-0.292E-01 dE for cont linesearch -0.338E-05
 trial: gam= 0.90559 g(F)=  0.216E-02 g(S)=  0.238E-04 ort = 0.126E-03 (trialstep = 0.556E+00)
 search vector abs. value=  0.538E-01
 bond charge predicted
       N       E                     dE             d eps       ncg     rms          rms(c)
DAV:   1    -0.616009643127E+03   -0.24738E-03   -0.10250E+00  1428   0.234E+00    0.237E-01
RMM:   2    -0.616010961903E+03   -0.13188E-02   -0.17485E-02  1428   0.301E-01    0.138E-01
RMM:   3    -0.616010782118E+03    0.17978E-03   -0.76987E-04  1428   0.766E-02    0.714E-02
RMM:   4    -0.616010747090E+03    0.35029E-04   -0.30765E-04  1471   0.357E-02    0.120E-02
RMM:   5    -0.616010744512E+03    0.25779E-05   -0.14081E-05  1453   0.889E-03    0.581E-03
RMM:   6    -0.616010744430E+03    0.82291E-07   -0.29375E-06  1463   0.329E-03    0.245E-03
RMM:   7    -0.616010744361E+03    0.69223E-07   -0.42271E-07  1056   0.148E-03
 402 F= -.62424456E+03 E0= -.62424456E+03  d E =-.846961E-03
 trial-energy change:   -0.000847  1 .order   -0.000836   -0.001280   -0.000393
 step:   0.7797(harm=  0.8021)  dis= 0.00619  next Energy=  -624.244637 (dE=-0.927E-03)
 bond charge predicted
       N       E                     dE             d eps       ncg     rms          rms(c)
DAV:   1    -0.616010860368E+03   -0.11594E-03   -0.16639E-01  1464   0.945E-01    0.956E-02
RMM:   2    -0.616011073993E+03   -0.21363E-03   -0.28374E-03  1428   0.121E-01    0.556E-02
RMM:   3    -0.616011044527E+03    0.29466E-04   -0.12511E-04  1428   0.308E-02    0.287E-02
RMM:   4    -0.616011038705E+03    0.58215E-05   -0.50063E-05  1471   0.143E-02    0.483E-03
RMM:   5    -0.616011038359E+03    0.34623E-06   -0.22801E-06  1456   0.358E-03    0.235E-03
RMM:   6    -0.616011038380E+03   -0.21271E-07   -0.44206E-07  1160   0.132E-03
 403 F= -.62424465E+03 E0= -.62424465E+03  d E =-.939918E-03
 curvature:  -9.29 expect dE=-0.207E-01 dE for cont linesearch -0.640E-06
 trial: gam= 1.05944 g(F)=  0.220E-02 g(S)=  0.293E-04 ort = 0.609E-04 (trialstep = 0.515E+00)
 search vector abs. value=  0.627E-01
 bond charge predicted
       N       E                     dE             d eps       ncg     rms          rms(c)
DAV:   1    -0.616011130580E+03   -0.92221E-04   -0.10187E+00  1428   0.234E+00    0.240E-01
RMM:   2    -0.616012449384E+03   -0.13188E-02   -0.17584E-02  1428   0.300E-01    0.137E-01
RMM:   3    -0.616012278857E+03    0.17053E-03   -0.76718E-04  1431   0.763E-02    0.726E-02
RMM:   4    -0.616012243287E+03    0.35570E-04   -0.30898E-04  1459   0.354E-02    0.117E-02
RMM:   5    -0.616012240667E+03    0.26201E-05   -0.14535E-05  1477   0.911E-03    0.586E-03
RMM:   6    -0.616012240575E+03    0.92201E-07   -0.28597E-06  1457   0.318E-03    0.251E-03
RMM:   7    -0.616012240543E+03    0.32222E-07   -0.34298E-07  1006   0.140E-03
 404 F= -.62424546E+03 E0= -.62424546E+03  d E =-.813042E-03
 trial-energy change:   -0.000813  1 .order   -0.000802   -0.001182   -0.000422
 step:   0.7684(harm=  0.8011)  dis= 0.00638  next Energy=  -624.245568 (dE=-0.918E-03)
 bond charge predicted
       N       E                     dE             d eps       ncg     rms          rms(c)
DAV:   1    -0.616012284407E+03   -0.43832E-04   -0.24678E-01  1428   0.115E+00    0.118E-01
RMM:   2    -0.616012603662E+03   -0.31925E-03   -0.42608E-03  1428   0.148E-01    0.673E-02
RMM:   3    -0.616012562131E+03    0.41530E-04   -0.18601E-04  1431   0.375E-02    0.357E-02
RMM:   4    -0.616012553365E+03    0.87664E-05   -0.75053E-05  1459   0.174E-02    0.577E-03
RMM:   5    -0.616012552742E+03    0.62314E-06   -0.35310E-06  1476   0.450E-03    0.289E-03
RMM:   6    -0.616012552717E+03    0.24596E-07   -0.66813E-07  1294   0.156E-03
 405 F= -.62424558E+03 E0= -.62424558E+03  d E =-.935072E-03
 curvature: -10.81 expect dE=-0.178E-01 dE for cont linesearch -0.128E-05
 trial: gam= 0.70332 g(F)=  0.164E-02 g(S)=  0.750E-05 ort = 0.862E-04 (trialstep = 0.566E+00)
 search vector abs. value=  0.328E-01
 bond charge predicted
       N       E                     dE             d eps       ncg     rms          rms(c)
DAV:   1    -0.616012459423E+03    0.93319E-04   -0.64905E-01  1428   0.187E+00    0.193E-01
RMM:   2    -0.616013349195E+03   -0.88977E-03   -0.11783E-02  1428   0.245E-01    0.111E-01
RMM:   3    -0.616013230994E+03    0.11820E-03   -0.51693E-04  1432   0.621E-02    0.590E-02
RMM:   4    -0.616013207034E+03    0.23959E-04   -0.20655E-04  1456   0.288E-02    0.105E-02
RMM:   5    -0.616013204701E+03    0.23338E-05   -0.10956E-05  1459   0.785E-03    0.505E-03
RMM:   6    -0.616013204388E+03    0.31288E-06   -0.17355E-06  1452   0.262E-03    0.217E-03
RMM:   7    -0.616013204324E+03    0.63690E-07   -0.30098E-07   985   0.126E-03
 406 F= -.62424623E+03 E0= -.62424623E+03  d E =-.642451E-03
 trial-energy change:   -0.000642  1 .order   -0.000634   -0.000967   -0.000302
 step:   0.7989(harm=  0.8227)  dis= 0.00518  next Energy=  -624.246290 (dE=-0.705E-03)
 bond charge predicted
       N       E                     dE             d eps       ncg     rms          rms(c)
DAV:   1    -0.616013148427E+03    0.55961E-04   -0.11042E-01  1464   0.770E-01    0.794E-02
RMM:   2    -0.616013300011E+03   -0.15158E-03   -0.20073E-03  1428   0.101E-01    0.460E-02
RMM:   3    -0.616013279661E+03    0.20350E-04   -0.88137E-05  1432   0.256E-02    0.244E-02
RMM:   4    -0.616013275390E+03    0.42711E-05   -0.35363E-05  1457   0.119E-02    0.436E-03
RMM:   5    -0.616013274909E+03    0.48112E-06   -0.18744E-06  1459   0.323E-03    0.210E-03
RMM:   6    -0.616013274798E+03    0.11106E-06   -0.24771E-07   934   0.108E-03    0.870E-04
RMM:   7    -0.616013274784E+03    0.14461E-07   -0.63788E-08   882   0.668E-04
 407 F= -.62424629E+03 E0= -.62424629E+03  d E =-.709810E-03
 curvature:  -7.83 expect dE=-0.145E-01 dE for cont linesearch -0.578E-06
 trial: gam= 1.14129 g(F)=  0.179E-02 g(S)=  0.578E-04 ort = 0.492E-04 (trialstep = 0.449E+00)
 search vector abs. value=  0.447E-01
 bond charge predicted
       N       E                     dE             d eps       ncg     rms          rms(c)
DAV:   1    -0.616014100543E+03   -0.82574E-03   -0.53314E-01  1428   0.170E+00    0.177E-01
RMM:   2    -0.616014811828E+03   -0.71129E-03   -0.98753E-03  1428   0.226E-01    0.103E-01
RMM:   3    -0.616014710362E+03    0.10147E-03   -0.43557E-04  1430   0.579E-02    0.544E-02
RMM:   4    -0.616014688334E+03    0.22027E-04   -0.16017E-04  1456   0.261E-02    0.939E-03
RMM:   5    -0.616014687105E+03    0.12289E-05   -0.83558E-06  1466   0.677E-03    0.454E-03
RMM:   6    -0.616014686974E+03    0.13180E-06   -0.15096E-06  1439   0.244E-03    0.201E-03
RMM:   7    -0.616014686921E+03    0.52503E-07   -0.23462E-07   931   0.114E-03
 408 F= -.62424696E+03 E0= -.62424696E+03  d E =-.662758E-03
 trial-energy change:   -0.000663  1 .order   -0.000660   -0.000855   -0.000464
 step:   0.9381(harm=  0.9832)  dis= 0.00680  next Energy=  -624.247213 (dE=-0.919E-03)
 bond charge predicted
       N       E                     dE             d eps       ncg     rms          rms(c)
DAV:   1    -0.616015083322E+03   -0.39635E-03   -0.62994E-01  1428   0.185E+00    0.192E-01
RMM:   2    -0.616015924197E+03   -0.84087E-03   -0.11668E-02  1428   0.246E-01    0.112E-01
RMM:   3    -0.616015804243E+03    0.11995E-03   -0.51449E-04  1430   0.629E-02    0.591E-02
RMM:   4    -0.616015778311E+03    0.25933E-04   -0.18926E-04  1455   0.284E-02    0.102E-02
RMM:   5    -0.616015776859E+03    0.14513E-05   -0.99106E-06  1466   0.738E-03    0.493E-03
RMM:   6    -0.616015776707E+03    0.15265E-06   -0.17876E-06  1455   0.265E-03    0.219E-03
RMM:   7    -0.616015776646E+03    0.60601E-07   -0.28541E-07   966   0.124E-03
 409 F= -.62424724E+03 E0= -.62424724E+03  d E =-.940509E-03
 curvature: -11.46 expect dE=-0.208E-01 dE for cont linesearch -0.203E-05
 trial: gam= 0.95235 g(F)=  0.181E-02 g(S)=  0.891E-05 ort = 0.889E-04 (trialstep = 0.547E+00)
 search vector abs. value=  0.425E-01
 bond charge predicted
       N       E                     dE             d eps       ncg     rms          rms(c)
DAV:   1    -0.616016672622E+03   -0.89592E-03   -0.79844E-01  1428   0.208E+00    0.217E-01
RMM:   2    -0.616017777352E+03   -0.11047E-02   -0.15066E-02  1428   0.281E-01    0.125E-01
RMM:   3    -0.616017622325E+03    0.15503E-03   -0.66092E-04  1435   0.714E-02    0.665E-02
RMM:   4    -0.616017589007E+03    0.33318E-04   -0.26453E-04  1469   0.334E-02    0.121E-02
RMM:   5    -0.616017586832E+03    0.21754E-05   -0.13439E-05  1448   0.830E-03    0.544E-03
RMM:   6    -0.616017586802E+03    0.29759E-07   -0.29568E-06  1477   0.329E-03    0.258E-03
RMM:   7    -0.616017586775E+03    0.26732E-07   -0.47914E-07  1124   0.161E-03
 410 F= -.62424794E+03 E0= -.62424794E+03  d E =-.704965E-03
 trial-energy change:   -0.000705  1 .order   -0.000693   -0.001041   -0.000345
 step:   0.7842(harm=  0.8190)  dis= 0.00543  next Energy=  -624.248016 (dE=-0.781E-03)
 bond charge predicted
       N       E                     dE             d eps       ncg     rms          rms(c)
DAV:   1    -0.616017983230E+03   -0.39643E-03   -0.14978E-01  1464   0.902E-01    0.940E-02
RMM:   2    -0.616018190175E+03   -0.20694E-03   -0.28284E-03  1428   0.122E-01    0.541E-02
RMM:   3    -0.616018160720E+03    0.29455E-04   -0.12420E-04  1435   0.310E-02    0.288E-02
RMM:   4    -0.616018154194E+03    0.65259E-05   -0.49839E-05  1468   0.145E-02    0.525E-03
RMM:   5    -0.616018153863E+03    0.33055E-06   -0.25369E-06  1450   0.361E-03    0.236E-03
RMM:   6    -0.616018153897E+03   -0.33891E-07   -0.51567E-07  1227   0.142E-03
 411 F= -.62424803E+03 E0= -.62424803E+03  d E =-.794538E-03
 curvature:  -9.01 expect dE=-0.151E-01 dE for cont linesearch -0.125E-05
 trial: gam= 0.93797 g(F)=  0.160E-02 g(S)=  0.788E-04 ort = 0.767E-04 (trialstep = 0.595E+00)
 search vector abs. value=  0.392E-01
 bond charge predicted
       N       E                     dE             d eps       ncg     rms          rms(c)
DAV:   1    -0.616017484622E+03    0.66924E-03   -0.85670E-01  1428   0.215E+00    0.232E-01
RMM:   2    -0.616018759866E+03   -0.12752E-02   -0.16388E-02  1428   0.286E-01    0.125E-01
RMM:   3    -0.616018600812E+03    0.15905E-03   -0.66408E-04  1433   0.716E-02    0.699E-02
RMM:   4    -0.616018563210E+03    0.37602E-04   -0.30287E-04  1450   0.343E-02    0.125E-02
RMM:   5    -0.616018559401E+03    0.38097E-05   -0.16374E-05  1449   0.922E-03    0.532E-03
RMM:   6    -0.616018559222E+03    0.17829E-06   -0.23790E-06  1506   0.307E-03    0.277E-03
RMM:   7    -0.616018559118E+03    0.10402E-06   -0.69511E-07  1245   0.158E-03    0.879E-04
RMM:   8    -0.616018559093E+03    0.25626E-07   -0.12650E-07   882   0.783E-04
 412 F= -.62424874E+03 E0= -.62424874E+03  d E =-.708451E-03
 trial-energy change:   -0.000708  1 .order   -0.000700   -0.001042   -0.000358
 step:   0.8739(harm=  0.9056)  dis= 0.00602  next Energy=  -624.248823 (dE=-0.793E-03)
 bond charge predicted
       N       E                     dE             d eps       ncg     rms          rms(c)
DAV:   1    -0.616018272033E+03    0.28709E-03   -0.18896E-01  1440   0.101E+00    0.109E-01
RMM:   2    -0.616018552866E+03   -0.28083E-03   -0.36067E-03  1428   0.134E-01    0.588E-02
RMM:   3    -0.616018517910E+03    0.34956E-04   -0.14618E-04  1434   0.336E-02    0.328E-02
RMM:   4    -0.616018509702E+03    0.82081E-05   -0.66543E-05  1451   0.161E-02    0.585E-03
RMM:   5    -0.616018508858E+03    0.84359E-06   -0.35773E-06  1449   0.430E-03    0.250E-03
RMM:   6    -0.616018508810E+03    0.48305E-07   -0.46453E-07  1136   0.143E-03
 413 F= -.62424883E+03 E0= -.62424883E+03  d E =-.801702E-03
 curvature: -10.04 expect dE=-0.191E-01 dE for cont linesearch -0.473E-06
 trial: gam= 1.14575 g(F)=  0.184E-02 g(S)=  0.585E-04 ort = 0.430E-04 (trialstep = 0.477E+00)
 search vector abs. value=  0.535E-01
 bond charge predicted
       N       E                     dE             d eps       ncg     rms          rms(c)
DAV:   1    -0.616017264015E+03    0.12448E-02   -0.72237E-01  1428   0.198E+00    0.206E-01
RMM:   2    -0.616018281732E+03   -0.10177E-02   -0.13597E-02  1428   0.263E-01    0.119E-01
RMM:   3    -0.616018144536E+03    0.13720E-03   -0.57714E-04  1432   0.666E-02    0.636E-02
RMM:   4    -0.616018115261E+03    0.29275E-04   -0.22304E-04  1457   0.313E-02    0.111E-02
RMM:   5    -0.616018112972E+03    0.22890E-05   -0.12325E-05  1458   0.822E-03    0.510E-03
RMM:   6    -0.616018112724E+03    0.24868E-06   -0.20648E-06  1490   0.282E-03    0.240E-03
RMM:   7    -0.616018112691E+03    0.32422E-07   -0.43314E-07  1032   0.138E-03
 414 F= -.62424949E+03 E0= -.62424949E+03  d E =-.660250E-03
 trial-energy change:   -0.000660  1 .order   -0.000652   -0.000929   -0.000375
 step:   0.7609(harm=  0.7998)  dis= 0.00620  next Energy=  -624.249605 (dE=-0.774E-03)
 bond charge predicted
       N       E                     dE             d eps       ncg     rms          rms(c)
DAV:   1    -0.616017310183E+03    0.80254E-03   -0.25601E-01  1440   0.118E+00    0.123E-01
RMM:   2    -0.616017671217E+03   -0.36103E-03   -0.48239E-03  1428   0.157E-01    0.707E-02
RMM:   3    -0.616017622370E+03    0.48847E-04   -0.20489E-04  1432   0.397E-02    0.380E-02
RMM:   4    -0.616017612054E+03    0.10316E-04   -0.79531E-05  1456   0.186E-02    0.665E-03
RMM:   5    -0.616017611161E+03    0.89331E-06   -0.44897E-06  1458   0.494E-03    0.303E-03
RMM:   6    -0.616017611043E+03    0.11778E-06   -0.68966E-07  1311   0.166E-03    0.142E-03
RMM:   7    -0.616017611032E+03    0.10405E-07   -0.15713E-07   894   0.924E-04
 415 F= -.62424962E+03 E0= -.62424962E+03  d E =-.788847E-03
 curvature: -10.82 expect dE=-0.153E-01 dE for cont linesearch -0.181E-05
 trial: gam= 0.70943 g(F)=  0.139E-02 g(S)=  0.264E-04 ort = 0.947E-04 (trialstep = 0.534E+00)
 search vector abs. value=  0.285E-01
 bond charge predicted
       N       E                     dE             d eps       ncg     rms          rms(c)
DAV:   1    -0.616017431389E+03    0.17965E-03   -0.48602E-01  1428   0.162E+00    0.171E-01
RMM:   2    -0.616018116353E+03   -0.68496E-03   -0.90361E-03  1428   0.213E-01    0.974E-02
RMM:   3    -0.616018017817E+03    0.98536E-04   -0.37270E-04  1431   0.534E-02    0.520E-02
RMM:   4    -0.616017996688E+03    0.21129E-04   -0.15384E-04  1462   0.248E-02    0.906E-03
RMM:   5    -0.616017995045E+03    0.16437E-05   -0.88040E-06  1447   0.672E-03    0.396E-03
RMM:   6    -0.616017995030E+03    0.14541E-07   -0.12836E-06  1443   0.224E-03    0.205E-03
RMM:   7    -0.616017995007E+03    0.22777E-07   -0.34161E-07   998   0.117E-03
 416 F= -.62425016E+03 E0= -.62425016E+03  d E =-.540768E-03
 trial-energy change:   -0.000541  1 .order   -0.000541   -0.000789   -0.000292
 step:   0.8478(harm=  0.8478)  dis= 0.00520  next Energy=  -624.250247 (dE=-0.627E-03)
 bond charge predicted
       N       E                     dE             d eps       ncg     rms          rms(c)
DAV:   1    -0.616017796127E+03    0.19890E-03   -0.16823E-01  1464   0.953E-01    0.100E-01
RMM:   2    -0.616018033160E+03   -0.23703E-03   -0.31295E-03  1428   0.126E-01    0.574E-02
RMM:   3    -0.616017998752E+03    0.34408E-04   -0.12917E-04  1431   0.314E-02    0.306E-02
RMM:   4    -0.616017991326E+03    0.74263E-05   -0.53417E-05  1461   0.146E-02    0.534E-03
RMM:   5    -0.616017990785E+03    0.54047E-06   -0.30784E-06  1448   0.398E-03    0.234E-03
RMM:   6    -0.616017990787E+03   -0.19245E-08   -0.38971E-07  1063   0.132E-03
 417 F= -.62425025E+03 E0= -.62425025E+03  d E =-.629799E-03
 curvature:  -8.16 expect dE=-0.113E-01 dE for cont linesearch -0.146E-07
 trial: gam= 1.04807 g(F)=  0.135E-02 g(S)=  0.393E-04 ort =-0.715E-05 (trialstep = 0.520E+00)
 search vector abs. value=  0.326E-01
 bond charge predicted
       N       E                     dE             d eps       ncg     rms          rms(c)
DAV:   1    -0.616018630970E+03   -0.64019E-03   -0.50555E-01  1428   0.166E+00    0.181E-01
RMM:   2    -0.616019304026E+03   -0.67306E-03   -0.94723E-03  1428   0.221E-01    0.103E-01
RMM:   3    -0.616019197357E+03    0.10667E-03   -0.40471E-04  1429   0.557E-02    0.545E-02
RMM:   4    -0.616019174049E+03    0.23308E-04   -0.16281E-04  1473   0.264E-02    0.976E-03
RMM:   5    -0.616019172427E+03    0.16227E-05   -0.87923E-06  1443   0.662E-03    0.424E-03
RMM:   6    -0.616019172371E+03    0.55319E-07   -0.15886E-06  1449   0.247E-03    0.198E-03
RMM:   7    -0.616019172340E+03    0.31290E-07   -0.30941E-07   986   0.119E-03
 418 F= -.62425077E+03 E0= -.62425077E+03  d E =-.516695E-03
 trial-energy change:   -0.000517  1 .order   -0.000510   -0.000717   -0.000302
 step:   0.8465(harm=  0.8997)  dis= 0.00573  next Energy=  -624.250863 (dE=-0.613E-03)
 bond charge predicted
       N       E                     dE             d eps       ncg     rms          rms(c)
DAV:   1    -0.616019487697E+03   -0.31533E-03   -0.19867E-01  1428   0.104E+00    0.113E-01
RMM:   2    -0.616019752013E+03   -0.26432E-03   -0.37252E-03  1428   0.138E-01    0.647E-02
RMM:   3    -0.616019709536E+03    0.42477E-04   -0.15911E-04  1429   0.349E-02    0.342E-02
RMM:   4    -0.616019700050E+03    0.94860E-05   -0.64230E-05  1472   0.165E-02    0.614E-03
RMM:   5    -0.616019699447E+03    0.60350E-06   -0.35074E-06  1444   0.418E-03    0.266E-03
RMM:   6    -0.616019699439E+03    0.80763E-08   -0.58566E-07  1279   0.154E-03
 419 F= -.62425088E+03 E0= -.62425088E+03  d E =-.628344E-03
 curvature: -10.45 expect dE=-0.124E-01 dE for cont linesearch -0.175E-05
 trial: gam= 0.73712 g(F)=  0.117E-02 g(S)=  0.162E-04 ort = 0.740E-04 (trialstep = 0.586E+00)
 search vector abs. value=  0.190E-01
 bond charge predicted
       N       E                     dE             d eps       ncg     rms          rms(c)
DAV:   1    -0.616019990408E+03   -0.29096E-03   -0.36825E-01  1428   0.141E+00    0.160E-01
RMM:   2    -0.616020538197E+03   -0.54779E-03   -0.72509E-03  1428   0.192E-01    0.884E-02
RMM:   3    -0.616020457249E+03    0.80948E-04   -0.30306E-04  1428   0.484E-02    0.473E-02
RMM:   4    -0.616020441161E+03    0.16088E-04   -0.13133E-04  1464   0.228E-02    0.935E-03
RMM:   5    -0.616020439129E+03    0.20316E-05   -0.78810E-06  1440   0.624E-03    0.406E-03
RMM:   6    -0.616020438906E+03    0.22255E-06   -0.10843E-06  1411   0.210E-03    0.174E-03
RMM:   7    -0.616020438849E+03    0.57866E-07   -0.19883E-07   925   0.104E-03
 420 F= -.62425137E+03 E0= -.62425137E+03  d E =-.495884E-03
 trial-energy change:   -0.000496  1 .order   -0.000490   -0.000727   -0.000253
 step:   0.8676(harm=  0.8986)  dis= 0.00425  next Energy=  -624.251436 (dE=-0.558E-03)
 bond charge predicted
       N       E                     dE             d eps       ncg     rms          rms(c)
DAV:   1    -0.616020521692E+03   -0.82786E-04   -0.85471E-02  1464   0.680E-01    0.770E-02
RMM:   2    -0.616020649155E+03   -0.12746E-03   -0.16847E-03  1428   0.925E-02    0.426E-02
RMM:   3    -0.616020630258E+03    0.18897E-04   -0.70427E-05  1428   0.233E-02    0.228E-02
RMM:   4    -0.616020626411E+03    0.38472E-05   -0.30769E-05  1465   0.110E-02    0.455E-03
RMM:   5    -0.616020625841E+03    0.56994E-06   -0.18743E-06  1439   0.303E-03    0.197E-03
RMM:   6    -0.616020625739E+03    0.10144E-06   -0.20191E-07   900   0.101E-03    0.838E-04
RMM:   7    -0.616020625714E+03    0.25189E-07   -0.63379E-08   882   0.621E-04
 421 F= -.62425144E+03 E0= -.62425144E+03  d E =-.566039E-03
 curvature:  -6.82 expect dE=-0.800E-02 dE for cont linesearch -0.673E-06
 trial: gam= 1.04040 g(F)=  0.116E-02 g(S)=  0.959E-05 ort = 0.433E-04 (trialstep = 0.559E+00)
 search vector abs. value=  0.219E-01
 bond charge predicted
       N       E                     dE             d eps       ncg     rms          rms(c)
DAV:   1    -0.616021195375E+03   -0.56964E-03   -0.36157E-01  1428   0.140E+00    0.157E-01
RMM:   2    -0.616021734549E+03   -0.53917E-03   -0.72271E-03  1428   0.192E-01    0.881E-02
RMM:   3    -0.616021659323E+03    0.75226E-04   -0.30471E-04  1430   0.488E-02    0.472E-02
RMM:   4    -0.616021643615E+03    0.15708E-04   -0.11976E-04  1458   0.222E-02    0.835E-03
RMM:   5    -0.616021642229E+03    0.13855E-05   -0.66189E-06  1446   0.591E-03    0.372E-03
RMM:   6    -0.616021642103E+03    0.12644E-06   -0.92902E-07  1379   0.191E-03    0.159E-03
RMM:   7    -0.616021642084E+03    0.18968E-07   -0.17306E-07   901   0.965E-04
 422 F= -.62425190E+03 E0= -.62425190E+03  d E =-.459753E-03
 trial-energy change:   -0.000460  1 .order   -0.000454   -0.000680   -0.000228
 step:   0.8117(harm=  0.8401)  dis= 0.00411  next Energy=  -624.251956 (dE=-0.512E-03)
 bond charge predicted
       N       E                     dE             d eps       ncg     rms          rms(c)
DAV:   1    -0.616021861134E+03   -0.21903E-03   -0.74068E-02  1464   0.634E-01    0.710E-02
RMM:   2    -0.616021971900E+03   -0.11077E-03   -0.14820E-03  1428   0.868E-02    0.399E-02
RMM:   3    -0.616021956420E+03    0.15480E-04   -0.62513E-05  1430   0.221E-02    0.214E-02
RMM:   4    -0.616021953047E+03    0.33726E-05   -0.24635E-05  1458   0.101E-02    0.380E-03
RMM:   5    -0.616021952721E+03    0.32669E-06   -0.13733E-06  1441   0.269E-03    0.169E-03
RMM:   6    -0.616021952668E+03    0.52307E-07   -0.15369E-07   888   0.870E-04
 423 F= -.62425196E+03 E0= -.62425196E+03  d E =-.519065E-03
 curvature:  -7.47 expect dE=-0.952E-02 dE for cont linesearch -0.587E-06
 trial: gam= 1.07452 g(F)=  0.125E-02 g(S)=  0.285E-04 ort = 0.414E-04 (trialstep = 0.501E+00)
 search vector abs. value=  0.266E-01
 bond charge predicted
       N       E                     dE             d eps       ncg     rms          rms(c)
DAV:   1    -0.616022991053E+03   -0.10383E-02   -0.36290E-01  1428   0.141E+00    0.157E-01
RMM:   2    -0.616023512223E+03   -0.52117E-03   -0.70802E-03  1428   0.191E-01    0.878E-02
RMM:   3    -0.616023437385E+03    0.74838E-04   -0.30321E-04  1429   0.493E-02    0.465E-02
RMM:   4    -0.616023421653E+03    0.15732E-04   -0.11709E-04  1475   0.226E-02    0.830E-03
RMM:   5    -0.616023420610E+03    0.10433E-05   -0.55372E-06  1452   0.539E-03    0.375E-03
RMM:   6    -0.616023420537E+03    0.73189E-07   -0.14817E-06  1420   0.228E-03    0.161E-03
RMM:   7    -0.616023420492E+03    0.44911E-07   -0.22034E-07   933   0.113E-03
 424 F= -.62425246E+03 E0= -.62425246E+03  d E =-.498106E-03
 trial-energy change:   -0.000498  1 .order   -0.000495   -0.000660   -0.000329
 step:   0.9495(harm=  0.9993)  dis= 0.00523  next Energy=  -624.252611 (dE=-0.648E-03)
 bond charge predicted
       N       E                     dE             d eps       ncg     rms          rms(c)
DAV:   1    -0.616024112191E+03   -0.69165E-03   -0.29143E-01  1428   0.126E+00    0.140E-01
RMM:   2    -0.616024530484E+03   -0.41829E-03   -0.56860E-03  1428   0.171E-01    0.787E-02
RMM:   3    -0.616024470013E+03    0.60471E-04   -0.24342E-04  1429   0.442E-02    0.417E-02
RMM:   4    -0.616024457162E+03    0.12850E-04   -0.94319E-05  1475   0.202E-02    0.745E-03
RMM:   5    -0.616024456325E+03    0.83785E-06   -0.44887E-06  1451   0.485E-03    0.336E-03
RMM:   6    -0.616024456271E+03    0.54075E-07   -0.11818E-06  1398   0.204E-03    0.145E-03
RMM:   7    -0.616024456231E+03    0.39094E-07   -0.17722E-07   897   0.102E-03
 425 F= -.62425263E+03 E0= -.62425263E+03  d E =-.666466E-03
 curvature:  -9.98 expect dE=-0.135E-01 dE for cont linesearch -0.161E-05
 trial: gam= 1.05289 g(F)=  0.135E-02 g(S)=  0.564E-05 ort = 0.654E-04 (trialstep = 0.507E+00)
 search vector abs. value=  0.310E-01
 bond charge predicted
       N       E                     dE             d eps       ncg     rms          rms(c)
DAV:   1    -0.616025464166E+03   -0.10079E-02   -0.38978E-01  1428   0.146E+00    0.167E-01
RMM:   2    -0.616026008620E+03   -0.54445E-03   -0.76156E-03  1428   0.196E-01    0.944E-02
RMM:   3    -0.616025927466E+03    0.81154E-04   -0.33345E-04  1431   0.515E-02    0.503E-02
RMM:   4    -0.616025910756E+03    0.16710E-04   -0.12549E-04  1478   0.234E-02    0.923E-03
RMM:   5    -0.616025909411E+03    0.13451E-05   -0.66205E-06  1442   0.581E-03    0.388E-03
RMM:   6    -0.616025909321E+03    0.89254E-07   -0.12891E-06  1439   0.218E-03    0.175E-03
RMM:   7    -0.616025909278E+03    0.43350E-07   -0.25305E-07   940   0.117E-03
 426 F= -.62425311E+03 E0= -.62425311E+03  d E =-.483801E-03
 trial-energy change:   -0.000484  1 .order   -0.000480   -0.000722   -0.000238
 step:   0.7389(harm=  0.7556)  dis= 0.00473  next Energy=  -624.253168 (dE=-0.539E-03)
 bond charge predicted
       N       E                     dE             d eps       ncg     rms          rms(c)
DAV:   1    -0.616026321949E+03   -0.41263E-03   -0.81537E-02  1464   0.667E-01    0.764E-02
RMM:   2    -0.616026435872E+03   -0.11392E-03   -0.15948E-03  1428   0.896E-02    0.432E-02
RMM:   3    -0.616026418645E+03    0.17227E-04   -0.69816E-05  1431   0.235E-02    0.230E-02
RMM:   4    -0.616026414862E+03    0.37834E-05   -0.26363E-05  1480   0.107E-02    0.424E-03
RMM:   5    -0.616026414581E+03    0.28100E-06   -0.13902E-06  1431   0.265E-03    0.178E-03
RMM:   6    -0.616026414555E+03    0.25415E-07   -0.21840E-07   902   0.101E-03
 427 F= -.62425318E+03 E0= -.62425318E+03  d E =-.546582E-03
 curvature:  -8.18 expect dE=-0.131E-01 dE for cont linesearch -0.199E-06
 trial: gam= 1.22545 g(F)=  0.157E-02 g(S)=  0.343E-04 ort = 0.275E-04 (trialstep = 0.356E+00)
 search vector abs. value=  0.482E-01
 bond charge predicted
       N       E                     dE             d eps       ncg     rms          rms(c)
DAV:   1    -0.616026944830E+03   -0.53025E-03   -0.30219E-01  1428   0.128E+00    0.141E-01
RMM:   2    -0.616027369128E+03   -0.42430E-03   -0.56514E-03  1428   0.168E-01    0.819E-02
RMM:   3    -0.616027309926E+03    0.59202E-04   -0.23832E-04  1432   0.434E-02    0.438E-02
RMM:   4    -0.616027298183E+03    0.11743E-04   -0.10192E-04  1479   0.200E-02    0.866E-03
RMM:   5    -0.616027296500E+03    0.16830E-05   -0.73809E-06  1438   0.567E-03    0.345E-03
RMM:   6    -0.616027296285E+03    0.21520E-06   -0.53060E-07  1174   0.168E-03    0.165E-03
RMM:   7    -0.616027296186E+03    0.98869E-07   -0.31840E-07  1004   0.107E-03
 428 F= -.62425368E+03 E0= -.62425368E+03  d E =-.501331E-03
 trial-energy change:   -0.000501  1 .order   -0.000496   -0.000583   -0.000410
 step:   0.9369(harm=  1.1936)  dis= 0.00692  next Energy=  -624.254034 (dE=-0.857E-03)
 bond charge predicted
       N       E                     dE             d eps       ncg     rms          rms(c)
DAV:   1    -0.616027417926E+03   -0.12164E-03   -0.80653E-01  1428   0.208E+00    0.230E-01
RMM:   2    -0.616028549745E+03   -0.11318E-02   -0.15080E-02  1428   0.274E-01    0.134E-01
RMM:   3    -0.616028390704E+03    0.15904E-03   -0.63581E-04  1432   0.708E-02    0.715E-02
RMM:   4    -0.616028359684E+03    0.31020E-04   -0.27285E-04  1477   0.327E-02    0.142E-02
RMM:   5    -0.616028355345E+03    0.43395E-05   -0.20033E-05  1437   0.935E-03    0.563E-03
RMM:   6    -0.616028354888E+03    0.45716E-06   -0.15046E-06  1444   0.277E-03    0.270E-03
RMM:   7    -0.616028354671E+03    0.21647E-06   -0.82140E-07  1320   0.166E-03    0.105E-03
RMM:   8    -0.616028354641E+03    0.29737E-07   -0.21086E-07   954   0.929E-04
 429 F= -.62425412E+03 E0= -.62425412E+03  d E =-.941926E-03
 curvature: -15.90 expect dE=-0.203E-01 dE for cont linesearch -0.404E-04
 ZBRENT: extrapolating
 opt :   1.1908  next Energy=  -624.254163 (dE=-0.986E-03)
 bond charge predicted
       N       E                     dE             d eps       ncg     rms          rms(c)
DAV:   1    -0.616028489884E+03   -0.13521E-03   -0.15394E-01  1452   0.911E-01    0.100E-01
RMM:   2    -0.616028705632E+03   -0.21575E-03   -0.28706E-03  1428   0.120E-01    0.584E-02
RMM:   3    -0.616028675499E+03    0.30133E-04   -0.12082E-04  1432   0.309E-02    0.312E-02
RMM:   4    -0.616028669380E+03    0.61192E-05   -0.51603E-05  1477   0.142E-02    0.615E-03
RMM:   5    -0.616028668495E+03    0.88448E-06   -0.36990E-06  1438   0.403E-03    0.246E-03
RMM:   6    -0.616028668360E+03    0.13547E-06   -0.24556E-07   950   0.120E-03    0.118E-03
RMM:   7    -0.616028668297E+03    0.63090E-07   -0.16761E-07   889   0.836E-04
 430 F= -.62425416E+03 E0= -.62425416E+03  d E =-.986824E-03
 curvature: -17.49 expect dE=-0.336E-01 dE for cont linesearch -0.993E-08
 trial: gam= 1.16134 g(F)=  0.190E-02 g(S)=  0.226E-04 ort =-0.523E-05 (trialstep = 0.377E+00)
 search vector abs. value=  0.669E-01
 bond charge predicted
       N       E                     dE             d eps       ncg     rms          rms(c)
DAV:   1    -0.616028804769E+03   -0.13641E-03   -0.45208E-01  1428   0.156E+00    0.176E-01
RMM:   2    -0.616029427934E+03   -0.62316E-03   -0.82610E-03  1428   0.204E-01    0.101E-01
RMM:   3    -0.616029337602E+03    0.90332E-04   -0.35002E-04  1430   0.524E-02    0.525E-02
RMM:   4    -0.616029320809E+03    0.16793E-04   -0.14235E-04  1487   0.240E-02    0.963E-03
RMM:   5    -0.616029318939E+03    0.18702E-05   -0.97723E-06  1433   0.656E-03    0.379E-03
RMM:   6    -0.616029318866E+03    0.72119E-07   -0.79104E-07  1338   0.197E-03
 431 F= -.62425471E+03 E0= -.62425471E+03  d E =-.549877E-03
 trial-energy change:   -0.000550  1 .order   -0.000547   -0.000721   -0.000373
 step:   0.7436(harm=  0.7804)  dis= 0.00651  next Energy=  -624.254898 (dE=-0.734E-03)
 bond charge predicted
       N       E                     dE             d eps       ncg     rms          rms(c)
DAV:   1    -0.616029137580E+03    0.18136E-03   -0.42978E-01  1428   0.152E+00    0.172E-01
RMM:   2    -0.616029730538E+03   -0.59296E-03   -0.78572E-03  1428   0.199E-01    0.989E-02
RMM:   3    -0.616029645276E+03    0.85262E-04   -0.33283E-04  1429   0.511E-02    0.512E-02
RMM:   4    -0.616029629354E+03    0.15922E-04   -0.13555E-04  1487   0.235E-02    0.933E-03
RMM:   5    -0.616029627592E+03    0.17618E-05   -0.90758E-06  1433   0.636E-03    0.370E-03
RMM:   6    -0.616029627523E+03    0.69260E-07   -0.78467E-07  1337   0.194E-03
 432 F= -.62425493E+03 E0= -.62425493E+03  d E =-.762655E-03
 curvature: -13.53 expect dE=-0.247E-01 dE for cont linesearch -0.223E-05
 trial: gam= 0.86179 g(F)=  0.178E-02 g(S)=  0.440E-04 ort = 0.105E-03 (trialstep = 0.450E+00)
 search vector abs. value=  0.517E-01
 bond charge predicted
       N       E                     dE             d eps       ncg     rms          rms(c)
DAV:   1    -0.616028993966E+03    0.63363E-03   -0.51631E-01  1428   0.167E+00    0.190E-01
RMM:   2    -0.616029693416E+03   -0.69945E-03   -0.93742E-03  1428   0.220E-01    0.110E-01
RMM:   3    -0.616029585759E+03    0.10766E-03   -0.40125E-04  1428   0.559E-02    0.578E-02
RMM:   4    -0.616029567180E+03    0.18579E-04   -0.18001E-04  1484   0.261E-02    0.112E-02
RMM:   5    -0.616029564567E+03    0.26126E-05   -0.13726E-05  1436   0.761E-03    0.444E-03
RMM:   6    -0.616029564534E+03    0.33691E-07   -0.10003E-06  1409   0.228E-03    0.208E-03
RMM:   7    -0.616029564577E+03   -0.43688E-07   -0.49507E-07  1172   0.126E-03
 433 F= -.62425556E+03 E0= -.62425556E+03  d E =-.636367E-03
 trial-energy change:   -0.000636  1 .order   -0.000632   -0.000862   -0.000403
 step:   0.8103(harm=  0.8447)  dis= 0.00629  next Energy=  -624.255726 (dE=-0.800E-03)
 bond charge predicted
       N       E                     dE             d eps       ncg     rms          rms(c)
DAV:   1    -0.616028813852E+03    0.75068E-03   -0.33113E-01  1440   0.133E+00    0.152E-01
RMM:   2    -0.616029262615E+03   -0.44876E-03   -0.60120E-03  1428   0.176E-01    0.881E-02
RMM:   3    -0.616029193036E+03    0.69579E-04   -0.25801E-04  1429   0.448E-02    0.463E-02
RMM:   4    -0.616029181133E+03    0.11903E-04   -0.11544E-04  1484   0.209E-02    0.906E-03
RMM:   5    -0.616029179480E+03    0.16523E-05   -0.90192E-06  1435   0.614E-03    0.357E-03
RMM:   6    -0.616029179473E+03    0.72068E-08   -0.60984E-07  1245   0.183E-03
 434 F= -.62425574E+03 E0= -.62425574E+03  d E =-.813478E-03
 curvature: -11.32 expect dE=-0.169E-01 dE for cont linesearch -0.639E-06
 trial: gam= 0.89206 g(F)=  0.147E-02 g(S)=  0.270E-04 ort = 0.540E-04 (trialstep = 0.522E+00)
 search vector abs. value=  0.427E-01
 bond charge predicted
       N       E                     dE             d eps       ncg     rms          rms(c)
DAV:   1    -0.616027841562E+03    0.13379E-02   -0.52103E-01  1428   0.168E+00    0.198E-01
RMM:   2    -0.616028481820E+03   -0.64026E-03   -0.91046E-03  1428   0.220E-01    0.113E-01
RMM:   3    -0.616028383342E+03    0.98478E-04   -0.42009E-04  1433   0.583E-02    0.570E-02
RMM:   4    -0.616028365958E+03    0.17385E-04   -0.14954E-04  1487   0.260E-02    0.104E-02
RMM:   5    -0.616028364161E+03    0.17961E-05   -0.98895E-06  1437   0.674E-03    0.407E-03
RMM:   6    -0.616028364031E+03    0.13087E-06   -0.11125E-06  1435   0.218E-03    0.201E-03
RMM:   7    -0.616028364000E+03    0.30115E-07   -0.41672E-07  1079   0.124E-03
 435 F= -.62425630E+03 E0= -.62425630E+03  d E =-.561433E-03
 trial-energy change:   -0.000561  1 .order   -0.000557   -0.000804   -0.000310
 step:   0.8261(harm=  0.8498)  dis= 0.00578  next Energy=  -624.256392 (dE=-0.653E-03)
 bond charge predicted
       N       E                     dE             d eps       ncg     rms          rms(c)
DAV:   1    -0.616027478617E+03    0.88541E-03   -0.17671E-01  1452   0.980E-01    0.115E-01
RMM:   2    -0.616027696309E+03   -0.21769E-03   -0.30894E-03  1428   0.128E-01    0.661E-02
RMM:   3    -0.616027662656E+03    0.33653E-04   -0.14289E-04  1433   0.340E-02    0.333E-02
RMM:   4    -0.616027656869E+03    0.57873E-05   -0.51005E-05  1487   0.152E-02    0.616E-03
RMM:   5    -0.616027656199E+03    0.66941E-06   -0.34911E-06  1436   0.398E-03    0.237E-03
RMM:   6    -0.616027656143E+03    0.56410E-07   -0.31398E-07   978   0.126E-03
 436 F= -.62425640E+03 E0= -.62425640E+03  d E =-.656996E-03
 curvature: -11.72 expect dE=-0.171E-01 dE for cont linesearch -0.290E-06
 trial: gam= 0.97236 g(F)=  0.141E-02 g(S)=  0.499E-04 ort = 0.325E-04 (trialstep = 0.583E+00)
 search vector abs. value=  0.419E-01
 bond charge predicted
       N       E                     dE             d eps       ncg     rms          rms(c)
DAV:   1    -0.616026957460E+03    0.69874E-03   -0.66734E-01  1428   0.189E+00    0.225E-01
RMM:   2    -0.616027806513E+03   -0.84905E-03   -0.11221E-02  1428   0.241E-01    0.123E-01
RMM:   3    -0.616027684740E+03    0.12177E-03   -0.48083E-04  1429   0.616E-02    0.643E-02
RMM:   4    -0.616027660717E+03    0.24023E-04   -0.20808E-04  1484   0.292E-02    0.112E-02
RMM:   5    -0.616027658007E+03    0.27103E-05   -0.12766E-05  1431   0.784E-03    0.459E-03
RMM:   6    -0.616027657831E+03    0.17630E-06   -0.10861E-06  1429   0.230E-03    0.230E-03
RMM:   7    -0.616027657764E+03    0.67201E-07   -0.55279E-07  1256   0.142E-03
 437 F= -.62425695E+03 E0= -.62425695E+03  d E =-.550325E-03
 trial-energy change:   -0.000550  1 .order   -0.000547   -0.000869   -0.000224
 step:   0.7771(harm=  0.7855)  dis= 0.00539  next Energy=  -624.256984 (dE=-0.588E-03)
 bond charge predicted
       N       E                     dE             d eps       ncg     rms          rms(c)
DAV:   1    -0.616027435585E+03    0.22225E-03   -0.74136E-02  1464   0.631E-01    0.749E-02
RMM:   2    -0.616027530185E+03   -0.94600E-04   -0.12478E-03  1428   0.803E-02    0.412E-02
RMM:   3    -0.616027516466E+03    0.13720E-04   -0.53700E-05  1429   0.206E-02    0.215E-02
RMM:   4    -0.616027513777E+03    0.26882E-05   -0.23288E-05  1485   0.977E-03    0.379E-03
RMM:   5    -0.616027513429E+03    0.34831E-06   -0.14628E-06  1422   0.264E-03    0.155E-03
RMM:   6    -0.616027513391E+03    0.37682E-07   -0.95416E-08   882   0.779E-04
 438 F= -.62425699E+03 E0= -.62425699E+03  d E =-.589643E-03
 curvature: -11.02 expect dE=-0.205E-01 dE for cont linesearch -0.438E-07
 trial: gam= 1.28323 g(F)=  0.177E-02 g(S)=  0.849E-04 ort = 0.129E-04 (trialstep = 0.367E+00)
 search vector abs. value=  0.709E-01
 bond charge predicted
       N       E                     dE             d eps       ncg     rms          rms(c)
DAV:   1    -0.616028138682E+03   -0.62525E-03   -0.42778E-01  1428   0.151E+00    0.169E-01
RMM:   2    -0.616028638386E+03   -0.49970E-03   -0.68919E-03  1428   0.190E-01    0.101E-01
RMM:   3    -0.616028561775E+03    0.76611E-04   -0.30734E-04  1429   0.488E-02    0.508E-02
RMM:   4    -0.616028548319E+03    0.13456E-04   -0.12011E-04  1487   0.224E-02    0.902E-03
RMM:   5    -0.616028546966E+03    0.13526E-05   -0.88364E-06  1429   0.630E-03    0.360E-03
RMM:   6    -0.616028546946E+03    0.20580E-07   -0.69408E-07  1288   0.190E-03
 439 F= -.62425758E+03 E0= -.62425758E+03  d E =-.596617E-03
 trial-energy change:   -0.000597  1 .order   -0.000588   -0.000688   -0.000487
 step:   0.9051(harm=  1.2580)  dis= 0.00812  next Energy=  -624.257967 (dE=-0.981E-03)
 bond charge predicted
       N       E                     dE             d eps       ncg     rms          rms(c)
DAV:   1    -0.616028821159E+03   -0.27419E-03   -0.91562E-01  1428   0.221E+00    0.247E-01
RMM:   2    -0.616029892371E+03   -0.10712E-02   -0.14755E-02  1428   0.278E-01    0.147E-01
RMM:   3    -0.616029729304E+03    0.16307E-03   -0.65821E-04  1429   0.714E-02    0.743E-02
RMM:   4    -0.616029701048E+03    0.28256E-04   -0.25742E-04  1487   0.328E-02    0.132E-02
RMM:   5    -0.616029698036E+03    0.30120E-05   -0.18970E-05  1430   0.922E-03    0.526E-03
RMM:   6    -0.616029697979E+03    0.56887E-07   -0.15478E-06  1459   0.278E-03    0.273E-03
RMM:   7    -0.616029697996E+03   -0.16800E-07   -0.69692E-07  1313   0.153E-03
 440 F= -.62425810E+03 E0= -.62425810E+03  d E =-.111327E-02
 curvature: -20.09 expect dE=-0.254E-01 dE for cont linesearch -0.869E-04
 ZBRENT: increasing intervall
 opt :   1.9804  next Energy=  -624.257865 (dE=-0.879E-03)
 bond charge predicted
       N       E                     dE             d eps       ncg     rms          rms(c)
DAV:   1    -0.616027182809E+03    0.25152E-02   -0.36609E+00  1428   0.443E+00    0.494E-01
RMM:   2    -0.616031474657E+03   -0.42918E-02   -0.59001E-02  1428   0.557E-01    0.294E-01
RMM:   3    -0.616030823240E+03    0.65142E-03   -0.26319E-03  1429   0.143E-01    0.149E-01
RMM:   4    -0.616030711771E+03    0.11147E-03   -0.10312E-03  1487   0.656E-02    0.266E-02
RMM:   5    -0.616030698933E+03    0.12838E-04   -0.78035E-05  1428   0.186E-02    0.104E-02
RMM:   6    -0.616030698639E+03    0.29421E-06   -0.62068E-06  1482   0.561E-03    0.550E-03
RMM:   7    -0.616030698647E+03   -0.75088E-08   -0.28388E-06  1428   0.305E-03    0.176E-03
RMM:   8    -0.616030698650E+03   -0.38490E-08   -0.44922E-07  1058   0.141E-03
 441 F= -.62425785E+03 E0= -.62425785E+03  d E =-.861677E-03
 curvature:  54.10 expect dE= 0.308E+00 dE for cont linesearch  0.829E-03
 ZBRENT: bracketing found
 ZBRENT: interpolating
 opt :   1.2782  next Energy=  -624.258203 (dE=-0.122E-02)
 bond charge predicted
       N       E                     dE             d eps       ncg     rms          rms(c)
DAV:   1    -0.616028739342E+03    0.19593E-02   -0.15610E+00  1428   0.289E+00    0.324E-01
RMM:   2    -0.616030570596E+03   -0.18313E-02   -0.25165E-02  1428   0.362E-01    0.192E-01
RMM:   3    -0.616030294483E+03    0.27611E-03   -0.11204E-03  1429   0.934E-02    0.971E-02
RMM:   4    -0.616030249235E+03    0.45248E-04   -0.43933E-04  1486   0.427E-02    0.173E-02
RMM:   5    -0.616030243466E+03    0.57687E-05   -0.32584E-05  1431   0.121E-02    0.699E-03
RMM:   6    -0.616030243260E+03    0.20568E-06   -0.25734E-06  1474   0.358E-03    0.360E-03
RMM:   7    -0.616030243210E+03    0.50793E-07   -0.12001E-06  1401   0.199E-03    0.115E-03
RMM:   8    -0.616030243202E+03    0.78071E-08   -0.19794E-07   954   0.945E-04
 442 F= -.62425821E+03 E0= -.62425821E+03  d E =-.122178E-02
 curvature:  -6.74 expect dE=-0.146E-01 dE for cont linesearch -0.477E-07
 trial: gam= 1.13676 g(F)=  0.208E-02 g(S)=  0.862E-04 ort = 0.224E-04 (trialstep = 0.415E+00)
 search vector abs. value=  0.939E-01
 bond charge predicted
       N       E                     dE             d eps       ncg     rms          rms(c)
DAV:   1    -0.616029737736E+03    0.50547E-03   -0.71373E-01  1428   0.195E+00    0.218E-01
RMM:   2    -0.616030608860E+03   -0.87112E-03   -0.11648E-02  1428   0.245E-01    0.128E-01
RMM:   3    -0.616030476784E+03    0.13208E-03   -0.50628E-04  1429   0.629E-02    0.630E-02
RMM:   4    -0.616030456089E+03    0.20695E-04   -0.18920E-04  1485   0.278E-02    0.107E-02
RMM:   5    -0.616030454054E+03    0.20351E-05   -0.12990E-05  1431   0.795E-03    0.444E-03
RMM:   6    -0.616030454013E+03    0.40767E-07   -0.97253E-07  1410   0.227E-03
 443 F= -.62425892E+03 E0= -.62425892E+03  d E =-.707264E-03
 trial-energy change:   -0.000707  1 .order   -0.000706   -0.000909   -0.000503
 step:   0.9310(harm=  0.9310)  dis= 0.00953  next Energy=  -624.259227 (dE=-0.102E-02)
 bond charge predicted
       N       E                     dE             d eps       ncg     rms          rms(c)
DAV:   1    -0.616029063471E+03    0.13906E-02   -0.11009E+00  1428   0.243E+00    0.271E-01
RMM:   2    -0.616030408660E+03   -0.13452E-02   -0.17970E-02  1428   0.305E-01    0.159E-01
RMM:   3    -0.616030206104E+03    0.20256E-03   -0.78119E-04  1429   0.781E-02    0.782E-02
RMM:   4    -0.616030174314E+03    0.31790E-04   -0.29181E-04  1485   0.345E-02    0.132E-02
RMM:   5    -0.616030171169E+03    0.31449E-05   -0.19625E-05  1431   0.980E-03    0.550E-03
RMM:   6    -0.616030171093E+03    0.76223E-07   -0.15402E-06  1466   0.282E-03    0.279E-03
RMM:   7    -0.616030171103E+03   -0.97643E-08   -0.72829E-07  1324   0.159E-03
 444 F= -.62425925E+03 E0= -.62425925E+03  d E =-.104674E-02
 curvature: -19.97 expect dE=-0.677E-01 dE for cont linesearch -0.900E-06
 trial: gam= 1.52335 g(F)=  0.330E-02 g(S)=  0.883E-04 ort = 0.650E-04 (trialstep = 0.220E+00)
 search vector abs. value=  0.221E+00
 bond charge predicted
       N       E                     dE             d eps       ncg     rms          rms(c)
DAV:   1    -0.616029465655E+03    0.70544E-03   -0.47876E-01  1428   0.160E+00    0.177E-01
RMM:   2    -0.616030051153E+03   -0.58550E-03   -0.79749E-03  1428   0.206E-01    0.105E-01
RMM:   3    -0.616029961227E+03    0.89926E-04   -0.35368E-04  1428   0.533E-02    0.516E-02
RMM:   4    -0.616029946559E+03    0.14668E-04   -0.12639E-04  1485   0.234E-02    0.877E-03
RMM:   5    -0.616029945228E+03    0.13311E-05   -0.74863E-06  1436   0.616E-03    0.374E-03
RMM:   6    -0.616029945101E+03    0.12653E-06   -0.71206E-07  1318   0.185E-03    0.174E-03
RMM:   7    -0.616029945065E+03    0.36300E-07   -0.29294E-07   963   0.105E-03
 445 F= -.62425993E+03 E0= -.62425993E+03  d E =-.676421E-03
 trial-energy change:   -0.000676  1 .order   -0.000673   -0.000766   -0.000580
 step:   0.7362(harm=  0.9053)  dis= 0.01148  next Energy=  -624.260652 (dE=-0.140E-02)
 bond charge predicted
       N       E                     dE             d eps       ncg     rms          rms(c)
DAV:   1    -0.616026036216E+03    0.39089E-02   -0.26425E+00  1428   0.377E+00    0.417E-01
RMM:   2    -0.616029263078E+03   -0.32269E-02   -0.44024E-02  1428   0.482E-01    0.248E-01
RMM:   3    -0.616028765477E+03    0.49760E-03   -0.19467E-03  1428   0.125E-01    0.121E-01
RMM:   4    -0.616028682905E+03    0.82573E-04   -0.69670E-04  1485   0.549E-02    0.205E-02
RMM:   5    -0.616028675803E+03    0.71015E-05   -0.41261E-05  1439   0.145E-02    0.875E-03
RMM:   6    -0.616028675117E+03    0.68590E-06   -0.39774E-06  1461   0.426E-03    0.411E-03
RMM:   7    -0.616028674876E+03    0.24130E-06   -0.16833E-06  1427   0.237E-03    0.138E-03
RMM:   8    -0.616028674821E+03    0.54875E-07   -0.43187E-07  1044   0.128E-03
 446 F= -.62426079E+03 E0= -.62426079E+03  d E =-.153748E-02
 curvature: -27.00 expect dE=-0.362E-01 dE for cont linesearch -0.577E-04
 ZBRENT: extrapolating
 opt :   0.9181  next Energy=  -624.260855 (dE=-0.160E-02)
 bond charge predicted
       N       E                     dE             d eps       ncg     rms          rms(c)
DAV:   1    -0.616027651472E+03    0.10234E-02   -0.32803E-01  1464   0.133E+00    0.147E-01
RMM:   2    -0.616028051002E+03   -0.39953E-03   -0.54449E-03  1428   0.170E-01    0.872E-02
RMM:   3    -0.616027989955E+03    0.61046E-04   -0.24107E-04  1428   0.440E-02    0.426E-02
RMM:   4    -0.616027980000E+03    0.99557E-05   -0.85618E-05  1486   0.193E-02    0.713E-03
RMM:   5    -0.616027979118E+03    0.88185E-06   -0.49064E-06  1436   0.501E-03    0.308E-03
RMM:   6    -0.616027979024E+03    0.93867E-07   -0.46460E-07  1145   0.152E-03
 447 F= -.62426085E+03 E0= -.62426085E+03  d E =-.159631E-02
 curvature: -29.29 expect dE=-0.593E-01 dE for cont linesearch -0.117E-06
 trial: gam= 0.68334 g(F)=  0.199E-02 g(S)=  0.298E-04 ort =-0.297E-04 (trialstep = 0.359E+00)
 search vector abs. value=  0.105E+00
 bond charge predicted
       N       E                     dE             d eps       ncg     rms          rms(c)
DAV:   1    -0.616027514265E+03    0.46485E-03   -0.58035E-01  1428   0.176E+00    0.202E-01
RMM:   2    -0.616028204714E+03   -0.69045E-03   -0.94796E-03  1428   0.222E-01    0.120E-01
RMM:   3    -0.616028094593E+03    0.11012E-03   -0.43753E-04  1428   0.580E-02    0.581E-02
RMM:   4    -0.616028078139E+03    0.16454E-04   -0.15202E-04  1487   0.254E-02    0.108E-02
RMM:   5    -0.616028076283E+03    0.18561E-05   -0.14953E-05  1429   0.806E-03    0.443E-03
RMM:   6    -0.616028076166E+03    0.11665E-06   -0.91037E-07  1368   0.232E-03    0.219E-03
RMM:   7    -0.616028076167E+03   -0.10914E-08   -0.54305E-07  1176   0.141E-03
 448 F= -.62426140E+03 E0= -.62426140E+03  d E =-.553442E-03
 trial-energy change:   -0.000553  1 .order   -0.000548   -0.000720   -0.000376
 step:   0.6939(harm=  0.7529)  dis= 0.00717  next Energy=  -624.261584 (dE=-0.733E-03)
 bond charge predicted
       N       E                     dE             d eps       ncg     rms          rms(c)
DAV:   1    -0.616027360384E+03    0.71578E-03   -0.50238E-01  1428   0.164E+00    0.188E-01
RMM:   2    -0.616027958696E+03   -0.59831E-03   -0.82156E-03  1428   0.206E-01    0.112E-01
RMM:   3    -0.616027862693E+03    0.96003E-04   -0.37997E-04  1428   0.541E-02    0.542E-02
RMM:   4    -0.616027848338E+03    0.14355E-04   -0.13225E-04  1487   0.237E-02    0.102E-02
RMM:   5    -0.616027846683E+03    0.16553E-05   -0.13401E-05  1429   0.759E-03    0.416E-03
RMM:   6    -0.616027846572E+03    0.11046E-06   -0.79760E-07  1311   0.219E-03    0.206E-03
RMM:   7    -0.616027846570E+03    0.25902E-08   -0.49903E-07  1125   0.138E-03
 449 F= -.62426160E+03 E0= -.62426160E+03  d E =-.751542E-03
 curvature: -19.36 expect dE=-0.446E-01 dE for cont linesearch -0.380E-05
 trial: gam= 1.04625 g(F)=  0.223E-02 g(S)=  0.738E-04 ort = 0.144E-03 (trialstep = 0.381E+00)
 search vector abs. value=  0.118E+00
 bond charge predicted
       N       E                     dE             d eps       ncg     rms          rms(c)
DAV:   1    -0.616028244694E+03   -0.39812E-03   -0.75630E-01  1428   0.201E+00    0.230E-01
RMM:   2    -0.616029126678E+03   -0.88198E-03   -0.12113E-02  1428   0.252E-01    0.133E-01
RMM:   3    -0.616028989611E+03    0.13707E-03   -0.54628E-04  1430   0.653E-02    0.668E-02
RMM:   4    -0.616028965037E+03    0.24574E-04   -0.21153E-04  1488   0.295E-02    0.117E-02
RMM:   5    -0.616028962662E+03    0.23750E-05   -0.15178E-05  1428   0.840E-03    0.479E-03
RMM:   6    -0.616028962548E+03    0.11319E-06   -0.11307E-06  1427   0.247E-03    0.247E-03
RMM:   7    -0.616028962537E+03    0.11729E-07   -0.57286E-07  1211   0.139E-03
 450 F= -.62426239E+03 E0= -.62426239E+03  d E =-.789425E-03
 trial-energy change:   -0.000789  1 .order   -0.000785   -0.000934   -0.000636
 step:   1.0376(harm=  1.1937)  dis= 0.01151  next Energy=  -624.262962 (dE=-0.136E-02)
 bond charge predicted
       N       E                     dE             d eps       ncg     rms          rms(c)
DAV:   1    -0.616028039819E+03    0.92273E-03   -0.22478E+00  1428   0.347E+00    0.396E-01
RMM:   2    -0.616030660348E+03   -0.26205E-02   -0.35970E-02  1428   0.434E-01    0.229E-01
RMM:   3    -0.616030254820E+03    0.40553E-03   -0.16227E-03  1430   0.112E-01    0.115E-01
RMM:   4    -0.616030182558E+03    0.72262E-04   -0.62719E-04  1488   0.509E-02    0.202E-02
RMM:   5    -0.616030175456E+03    0.71017E-05   -0.44657E-05  1428   0.144E-02    0.821E-03
RMM:   6    -0.616030175148E+03    0.30769E-06   -0.34019E-06  1473   0.425E-03    0.425E-03
RMM:   7    -0.616030175108E+03    0.40076E-07   -0.17032E-06  1425   0.232E-03    0.143E-03
RMM:   8    -0.616030175096E+03    0.12493E-07   -0.29646E-07   998   0.114E-03
 451 F= -.62426305E+03 E0= -.62426305E+03  d E =-.144910E-02
 curvature: -27.65 expect dE=-0.582E-01 dE for cont linesearch -0.226E-04
 trial: gam= 0.94134 g(F)=  0.208E-02 g(S)=  0.208E-04 ort = 0.311E-03 (trialstep = 0.512E+00)
 search vector abs. value=  0.107E+00
 bond charge predicted
       N       E                     dE             d eps       ncg     rms          rms(c)
DAV:   1    -0.616029975491E+03    0.19962E-03   -0.12410E+00  1428   0.257E+00    0.283E-01
RMM:   2    -0.616031328894E+03   -0.13534E-02   -0.18683E-02  1428   0.315E-01    0.171E-01
RMM:   3    -0.616031107272E+03    0.22162E-03   -0.87403E-04  1428   0.811E-02    0.808E-02
RMM:   4    -0.616031074880E+03    0.32392E-04   -0.30165E-04  1489   0.357E-02    0.142E-02
RMM:   5    -0.616031071546E+03    0.33338E-05   -0.25201E-05  1431   0.108E-02    0.619E-03
RMM:   6    -0.616031071314E+03    0.23245E-06   -0.18616E-06  1463   0.311E-03    0.311E-03
RMM:   7    -0.616031071308E+03    0.57735E-08   -0.93488E-07  1367   0.173E-03
 452 F= -.62426389E+03 E0= -.62426389E+03  d E =-.839240E-03
 trial-energy change:   -0.000839  1 .order   -0.000835   -0.001228   -0.000441
 step:   0.7849(harm=  0.7996)  dis= 0.00838  next Energy=  -624.264009 (dE=-0.957E-03)
 bond charge predicted
       N       E                     dE             d eps       ncg     rms          rms(c)
DAV:   1    -0.616030916719E+03    0.15460E-03   -0.35168E-01  1452   0.137E+00    0.151E-01
RMM:   2    -0.616031301355E+03   -0.38464E-03   -0.53088E-03  1428   0.168E-01    0.912E-02
RMM:   3    -0.616031237894E+03    0.63461E-04   -0.24926E-04  1428   0.433E-02    0.431E-02
RMM:   4    -0.616031228563E+03    0.93310E-05   -0.86190E-05  1488   0.191E-02    0.765E-03
RMM:   5    -0.616031227588E+03    0.97500E-06   -0.74327E-06  1431   0.586E-03    0.333E-03
RMM:   6    -0.616031227508E+03    0.79795E-07   -0.50338E-07  1114   0.169E-03
 453 F= -.62426402E+03 E0= -.62426402E+03  d E =-.968242E-03
 curvature: -17.84 expect dE=-0.448E-01 dE for cont linesearch -0.150E-06
 trial: gam= 1.34735 g(F)=  0.246E-02 g(S)=  0.534E-04 ort = 0.300E-04 (trialstep = 0.308E+00)
 search vector abs. value=  0.197E+00
 bond charge predicted
       N       E                     dE             d eps       ncg     rms          rms(c)
DAV:   1    -0.616030773297E+03    0.45429E-03   -0.82820E-01  1428   0.210E+00    0.233E-01
RMM:   2    -0.616031656206E+03   -0.88291E-03   -0.12222E-02  1428   0.256E-01    0.139E-01
RMM:   3    -0.616031505010E+03    0.15120E-03   -0.57161E-04  1428   0.656E-02    0.641E-02
RMM:   4    -0.616031483902E+03    0.21108E-04   -0.19140E-04  1487   0.285E-02    0.105E-02
RMM:   5    -0.616031482260E+03    0.16414E-05   -0.11718E-05  1429   0.800E-03    0.481E-03
RMM:   6    -0.616031482217E+03    0.43525E-07   -0.11572E-06  1436   0.236E-03    0.225E-03
RMM:   7    -0.616031482252E+03   -0.35416E-07   -0.35496E-07  1021   0.119E-03
 454 F= -.62426470E+03 E0= -.62426470E+03  d E =-.678776E-03
 trial-energy change:   -0.000679  1 .order   -0.000673   -0.000786   -0.000561
 step:   0.8588(harm=  1.0788)  dis= 0.01273  next Energy=  -624.265231 (dE=-0.121E-02)
 bond charge predicted
       N       E                     dE             d eps       ncg     rms          rms(c)
DAV:   1    -0.616029110581E+03    0.23716E-02   -0.26448E+00  1428   0.375E+00    0.417E-01
RMM:   2    -0.616031924716E+03   -0.28141E-02   -0.38979E-02  1428   0.457E-01    0.248E-01
RMM:   3    -0.616031440298E+03    0.48442E-03   -0.18244E-03  1428   0.117E-01    0.114E-01
RMM:   4    -0.616031372607E+03    0.67691E-04   -0.60910E-04  1488   0.509E-02    0.188E-02
RMM:   5    -0.616031367426E+03    0.51807E-05   -0.37588E-05  1429   0.143E-02    0.858E-03
RMM:   6    -0.616031367279E+03    0.14724E-06   -0.36571E-06  1475   0.419E-03    0.402E-03
RMM:   7    -0.616031367368E+03   -0.89036E-07   -0.12120E-06  1408   0.212E-03    0.115E-03
RMM:   8    -0.616031367390E+03   -0.21697E-07   -0.17232E-07   930   0.933E-04
 455 F= -.62426535E+03 E0= -.62426535E+03  d E =-.133465E-02
 curvature: -38.33 expect dE=-0.945E-01 dE for cont linesearch -0.546E-04
 ZBRENT: extrapolating
 opt :   1.0848  next Energy=  -624.265414 (dE=-0.139E-02)
 bond charge predicted
       N       E                     dE             d eps       ncg     rms          rms(c)
DAV:   1    -0.616030724882E+03    0.64249E-03   -0.44562E-01  1464   0.154E+00    0.171E-01
RMM:   2    -0.616031198663E+03   -0.47378E-03   -0.65565E-03  1428   0.187E-01    0.102E-01
RMM:   3    -0.616031117419E+03    0.81244E-04   -0.30710E-04  1428   0.480E-02    0.469E-02
RMM:   4    -0.616031106192E+03    0.11228E-04   -0.10209E-04  1488   0.208E-02    0.769E-03
RMM:   5    -0.616031105332E+03    0.85941E-06   -0.62471E-06  1429   0.583E-03    0.354E-03
RMM:   6    -0.616031105307E+03    0.25160E-07   -0.57773E-07  1200   0.172E-03
 456 F= -.62426541E+03 E0= -.62426541E+03  d E =-.139361E-02
 curvature: -42.06 expect dE=-0.147E+00 dE for cont linesearch -0.178E-06
 trial: gam= 1.17750 g(F)=  0.346E-02 g(S)=  0.229E-04 ort =-0.289E-04 (trialstep = 0.330E+00)
 search vector abs. value=  0.277E+00
 bond charge predicted
       N       E                     dE             d eps       ncg     rms          rms(c)
DAV:   1    -0.616030446583E+03    0.65875E-03   -0.12942E+00  1428   0.263E+00    0.293E-01
RMM:   2    -0.616031848593E+03   -0.14020E-02   -0.19477E-02  1428   0.323E-01    0.175E-01
RMM:   3    -0.616031604074E+03    0.24452E-03   -0.91803E-04  1428   0.831E-02    0.792E-02
RMM:   4    -0.616031571967E+03    0.32108E-04   -0.28227E-04  1490   0.349E-02    0.130E-02
RMM:   5    -0.616031569515E+03    0.24519E-05   -0.18411E-05  1430   0.982E-03    0.585E-03
RMM:   6    -0.616031569457E+03    0.57938E-07   -0.18392E-06  1466   0.295E-03    0.266E-03
RMM:   7    -0.616031569482E+03   -0.25393E-07   -0.49187E-07  1145   0.136E-03
 457 F= -.62426632E+03 E0= -.62426632E+03  d E =-.906018E-03
 trial-energy change:   -0.000906  1 .order   -0.000895   -0.001139   -0.000651
 step:   0.6775(harm=  0.7707)  dis= 0.01159  next Energy=  -624.266674 (dE=-0.126E-02)
 bond charge predicted
       N       E                     dE             d eps       ncg     rms          rms(c)
DAV:   1    -0.616030272146E+03    0.12973E-02   -0.14325E+00  1428   0.276E+00    0.308E-01
RMM:   2    -0.616031822616E+03   -0.15505E-02   -0.21549E-02  1428   0.340E-01    0.184E-01
RMM:   3    -0.616031551010E+03    0.27161E-03   -0.10173E-03  1428   0.874E-02    0.833E-02
RMM:   4    -0.616031515378E+03    0.35632E-04   -0.31224E-04  1490   0.367E-02    0.137E-02
RMM:   5    -0.616031512643E+03    0.27352E-05   -0.20597E-05  1430   0.104E-02    0.617E-03
RMM:   6    -0.616031512569E+03    0.73607E-07   -0.20433E-06  1467   0.312E-03    0.281E-03
RMM:   7    -0.616031512592E+03   -0.22665E-07   -0.55542E-07  1220   0.144E-03
 458 F= -.62426674E+03 E0= -.62426674E+03  d E =-.132281E-02
 curvature: -29.53 expect dE=-0.776E-01 dE for cont linesearch -0.172E-04
 trial: gam= 0.62475 g(F)=  0.259E-02 g(S)=  0.364E-04 ort = 0.402E-03 (trialstep = 0.400E+00)
 search vector abs. value=  0.111E+00
 bond charge predicted
       N       E                     dE             d eps       ncg     rms          rms(c)
DAV:   1    -0.616031645135E+03   -0.13257E-03   -0.81177E-01  1440   0.208E+00    0.235E-01
RMM:   2    -0.616032583238E+03   -0.93810E-03   -0.12829E-02  1428   0.262E-01    0.138E-01
RMM:   3    -0.616032418961E+03    0.16428E-03   -0.58453E-04  1428   0.667E-02    0.651E-02
RMM:   4    -0.616032394433E+03    0.24527E-04   -0.19715E-04  1487   0.291E-02    0.108E-02
RMM:   5    -0.616032392654E+03    0.17794E-05   -0.12971E-05  1430   0.809E-03    0.473E-03
RMM:   6    -0.616032392614E+03    0.40243E-07   -0.11299E-06  1438   0.243E-03    0.222E-03
RMM:   7    -0.616032392642E+03   -0.28511E-07   -0.37811E-07  1056   0.118E-03
 459 F= -.62426762E+03 E0= -.62426762E+03  d E =-.888122E-03
 trial-energy change:   -0.000888  1 .order   -0.000880   -0.001150   -0.000610
 step:   0.7837(harm=  0.8511)  dis= 0.00865  next Energy=  -624.267925 (dE=-0.119E-02)
 bond charge predicted
       N       E                     dE             d eps       ncg     rms          rms(c)
DAV:   1    -0.616032035612E+03    0.35700E-03   -0.75007E-01  1428   0.200E+00    0.226E-01
RMM:   2    -0.616032902431E+03   -0.86682E-03   -0.11854E-02  1428   0.252E-01    0.133E-01
RMM:   3    -0.616032750625E+03    0.15181E-03   -0.53992E-04  1428   0.641E-02    0.626E-02
RMM:   4    -0.616032727893E+03    0.22732E-04   -0.18206E-04  1486   0.279E-02    0.103E-02
RMM:   5    -0.616032726265E+03    0.16278E-05   -0.11996E-05  1431   0.780E-03    0.455E-03
RMM:   6    -0.616032726228E+03    0.37544E-07   -0.10424E-06  1420   0.233E-03    0.213E-03
RMM:   7    -0.616032726254E+03   -0.26543E-07   -0.34734E-07  1028   0.114E-03
 460 F= -.62426797E+03 E0= -.62426797E+03  d E =-.123463E-02
 curvature: -16.08 expect dE=-0.362E-01 dE for cont linesearch -0.737E-05
 trial: gam= 0.93646 g(F)=  0.224E-02 g(S)=  0.148E-04 ort = 0.226E-03 (trialstep = 0.476E+00)
 search vector abs. value=  0.100E+00
 bond charge predicted
       N       E                     dE             d eps       ncg     rms          rms(c)
DAV:   1    -0.616032931198E+03   -0.20497E-03   -0.10048E+00  1428   0.232E+00    0.262E-01
RMM:   2    -0.616034064526E+03   -0.11333E-02   -0.15815E-02  1428   0.291E-01    0.155E-01
RMM:   3    -0.616033856350E+03    0.20818E-03   -0.72431E-04  1428   0.748E-02    0.732E-02
RMM:   4    -0.616033822233E+03    0.34117E-04   -0.24669E-04  1488   0.324E-02    0.121E-02
RMM:   5    -0.616033819553E+03    0.26795E-05   -0.15821E-05  1436   0.892E-03    0.549E-03
RMM:   6    -0.616033819242E+03    0.31084E-06   -0.17329E-06  1468   0.273E-03    0.257E-03
RMM:   7    -0.616033819110E+03    0.13276E-06   -0.51216E-07  1148   0.137E-03    0.820E-04
RMM:   8    -0.616033819081E+03    0.28667E-07   -0.11162E-07   883   0.768E-04
 461 F= -.62426885E+03 E0= -.62426885E+03  d E =-.881692E-03
 trial-energy change:   -0.000882  1 .order   -0.000876   -0.001175   -0.000577
 step:   0.8915(harm=  0.9367)  dis= 0.00928  next Energy=  -624.269108 (dE=-0.114E-02)
 bond charge predicted
       N       E                     dE             d eps       ncg     rms          rms(c)
DAV:   1    -0.616033601667E+03    0.21744E-03   -0.76232E-01  1452   0.202E+00    0.228E-01
RMM:   2    -0.616034460113E+03   -0.85845E-03   -0.11981E-02  1428   0.253E-01    0.135E-01
RMM:   3    -0.616034302483E+03    0.15763E-03   -0.54845E-04  1428   0.651E-02    0.637E-02
RMM:   4    -0.616034276475E+03    0.26009E-04   -0.18666E-04  1488   0.282E-02    0.104E-02
RMM:   5    -0.616034274446E+03    0.20281E-05   -0.11905E-05  1437   0.774E-03    0.478E-03
RMM:   6    -0.616034274194E+03    0.25226E-06   -0.13014E-06  1448   0.237E-03    0.223E-03
RMM:   7    -0.616034274084E+03    0.11023E-06   -0.38271E-07  1040   0.120E-03    0.713E-04
RMM:   8    -0.616034274062E+03    0.21839E-07   -0.93001E-08   882   0.740E-04
 462 F= -.62426913E+03 E0= -.62426913E+03  d E =-.115780E-02
 curvature: -18.85 expect dE=-0.406E-01 dE for cont linesearch -0.220E-05
 trial: gam= 0.99038 g(F)=  0.212E-02 g(S)=  0.339E-04 ort = 0.108E-03 (trialstep = 0.557E+00)
 search vector abs. value=  0.101E+00
 bond charge predicted
       N       E                     dE             d eps       ncg     rms          rms(c)
DAV:   1    -0.616034480779E+03   -0.20669E-03   -0.13601E+00  1428   0.269E+00    0.310E-01
RMM:   2    -0.616035902582E+03   -0.14218E-02   -0.20671E-02  1428   0.333E-01    0.182E-01
RMM:   3    -0.616035621317E+03    0.28127E-03   -0.98455E-04  1428   0.859E-02    0.845E-02
RMM:   4    -0.616035578875E+03    0.42442E-04   -0.31916E-04  1488   0.372E-02    0.142E-02
RMM:   5    -0.616035575870E+03    0.30055E-05   -0.23817E-05  1430   0.109E-02    0.631E-03
RMM:   6    -0.616035575695E+03    0.17515E-06   -0.21088E-06  1475   0.322E-03    0.311E-03
RMM:   7    -0.616035575675E+03    0.19441E-07   -0.68962E-07  1296   0.161E-03
 463 F= -.62427000E+03 E0= -.62427000E+03  d E =-.873591E-03
 trial-energy change:   -0.000874  1 .order   -0.000872   -0.001258   -0.000485
 step:   0.9067(harm=  0.9067)  dis= 0.00947  next Energy=  -624.270153 (dE=-0.102E-02)
 bond charge predicted
       N       E                     dE             d eps       ncg     rms          rms(c)
DAV:   1    -0.616035566911E+03    0.87838E-05   -0.53635E-01  1440   0.169E+00    0.195E-01
RMM:   2    -0.616036128791E+03   -0.56188E-03   -0.81665E-03  1428   0.209E-01    0.114E-01
RMM:   3    -0.616036017422E+03    0.11137E-03   -0.38959E-04  1428   0.540E-02    0.532E-02
RMM:   4    -0.616036000496E+03    0.16926E-04   -0.12650E-04  1488   0.234E-02    0.898E-03
RMM:   5    -0.616035999256E+03    0.12400E-05   -0.95645E-06  1429   0.688E-03    0.399E-03
RMM:   6    -0.616035999165E+03    0.91277E-07   -0.81824E-07  1323   0.204E-03
 464 F= -.62427016E+03 E0= -.62427016E+03  d E =-.103288E-02
 curvature: -20.20 expect dE=-0.667E-01 dE for cont linesearch -0.349E-08
 trial: gam= 1.52532 g(F)=  0.325E-02 g(S)=  0.539E-04 ort =-0.417E-05 (trialstep = 0.266E+00)
 search vector abs. value=  0.237E+00
 bond charge predicted
       N       E                     dE             d eps       ncg     rms          rms(c)
DAV:   1    -0.616036748772E+03   -0.74952E-03   -0.72786E-01  1428   0.197E+00    0.227E-01
RMM:   2    -0.616037466009E+03   -0.71724E-03   -0.10843E-02  1428   0.243E-01    0.133E-01
RMM:   3    -0.616037315668E+03    0.15034E-03   -0.53232E-04  1428   0.626E-02    0.603E-02
RMM:   4    -0.616037293230E+03    0.22438E-04   -0.16236E-04  1489   0.268E-02    0.977E-03
RMM:   5    -0.616037292221E+03    0.10096E-05   -0.92984E-06  1446   0.716E-03    0.466E-03
RMM:   6    -0.616037292176E+03    0.44529E-07   -0.11683E-06  1426   0.226E-03    0.203E-03
RMM:   7    -0.616037292193E+03   -0.16531E-07   -0.22623E-07   923   0.101E-03
 465 F= -.62427094E+03 E0= -.62427094E+03  d E =-.777556E-03
 trial-energy change:   -0.000778  1 .order   -0.000769   -0.000875   -0.000663
 step:   0.7552(harm=  1.0934)  dis= 0.01247  next Energy=  -624.271603 (dE=-0.144E-02)
 bond charge predicted
       N       E                     dE             d eps       ncg     rms          rms(c)
DAV:   1    -0.616037212754E+03    0.79422E-04   -0.24688E+00  1428   0.362E+00    0.419E-01
RMM:   2    -0.616039643314E+03   -0.24306E-02   -0.36742E-02  1428   0.449E-01    0.246E-01
RMM:   3    -0.616039132351E+03    0.51096E-03   -0.18049E-03  1428   0.115E-01    0.111E-01
RMM:   4    -0.616039056659E+03    0.75692E-04   -0.54834E-04  1489   0.493E-02    0.180E-02
RMM:   5    -0.616039053225E+03    0.34343E-05   -0.31896E-05  1443   0.132E-02    0.853E-03
RMM:   6    -0.616039053093E+03    0.13224E-06   -0.39447E-06  1479   0.416E-03    0.378E-03
RMM:   7    -0.616039053143E+03   -0.50761E-07   -0.86980E-07  1375   0.185E-03
 466 F= -.62427176E+03 E0= -.62427176E+03  d E =-.160188E-02
 curvature: -32.83 expect dE=-0.764E-01 dE for cont linesearch -0.135E-03
 ZBRENT: increasing intervall
 opt :   1.7341  next Energy=  -624.271260 (dE=-0.110E-02)
 bond charge predicted
       N       E                     dE             d eps       ncg     rms          rms(c)
DAV:   1    -0.616032988967E+03    0.60641E-02   -0.98723E+00  1428   0.725E+00    0.836E-01
RMM:   2    -0.616042755275E+03   -0.97663E-02   -0.14721E-01  1428   0.900E-01    0.492E-01
RMM:   3    -0.616040715989E+03    0.20393E-02   -0.72290E-03  1428   0.230E-01    0.223E-01
RMM:   4    -0.616040411704E+03    0.30429E-03   -0.21943E-03  1489   0.986E-02    0.362E-02
RMM:   5    -0.616040397621E+03    0.14084E-04   -0.13037E-04  1442   0.266E-02    0.169E-02
RMM:   6    -0.616040397141E+03    0.47940E-06   -0.15693E-05  1480   0.832E-03    0.771E-03
RMM:   7    -0.616040397297E+03   -0.15607E-06   -0.36724E-06  1432   0.379E-03    0.233E-03
RMM:   8    -0.616040397303E+03   -0.50823E-08   -0.53852E-07  1101   0.157E-03
 467 F= -.62427128E+03 E0= -.62427128E+03  d E =-.112178E-02
 curvature: 122.08 expect dE= 0.135E+01 dE for cont linesearch  0.209E-02
 ZBRENT: bracketing found
 ZBRENT: interpolating
 opt :   1.0772  next Energy=  -624.271923 (dE=-0.176E-02)
 bond charge predicted
       N       E                     dE             d eps       ncg     rms          rms(c)
DAV:   1    -0.616036504594E+03    0.38927E-02   -0.44454E+00  1428   0.486E+00    0.563E-01
RMM:   2    -0.616040881534E+03   -0.43769E-02   -0.66292E-02  1428   0.600E-01    0.329E-01
RMM:   3    -0.616039967051E+03    0.91448E-03   -0.32379E-03  1428   0.155E-01    0.150E-01
RMM:   4    -0.616039832328E+03    0.13472E-03   -0.99924E-04  1489   0.664E-02    0.244E-02
RMM:   5    -0.616039826255E+03    0.60727E-05   -0.56220E-05  1448   0.177E-02    0.118E-02
RMM:   6    -0.616039826061E+03    0.19393E-06   -0.71468E-06  1477   0.557E-03    0.500E-03
RMM:   7    -0.616039826153E+03   -0.91426E-07   -0.14560E-06  1429   0.241E-03    0.151E-03
RMM:   8    -0.616039826137E+03    0.15596E-07   -0.20698E-07   936   0.101E-03
 468 F= -.62427193E+03 E0= -.62427193E+03  d E =-.176809E-02
 curvature:  -9.29 expect dE=-0.367E-01 dE for cont linesearch -0.370E-07
 trial: gam= 1.12583 g(F)=  0.390E-02 g(S)=  0.508E-04 ort = 0.307E-04 (trialstep = 0.333E+00)
 search vector abs. value=  0.305E+00
 bond charge predicted
       N       E                     dE             d eps       ncg     rms          rms(c)
DAV:   1    -0.616040455171E+03   -0.62902E-03   -0.14299E+00  1428   0.275E+00    0.324E-01
RMM:   2    -0.616041788225E+03   -0.13331E-02   -0.20832E-02  1428   0.340E-01    0.191E-01
RMM:   3    -0.616041479247E+03    0.30898E-03   -0.10843E-03  1428   0.881E-02    0.814E-02
RMM:   4    -0.616041438474E+03    0.40772E-04   -0.28703E-04  1492   0.363E-02    0.136E-02
RMM:   5    -0.616041437222E+03    0.12521E-05   -0.15651E-05  1473   0.953E-03    0.710E-03
RMM:   6    -0.616041437139E+03    0.83106E-07   -0.25392E-06  1449   0.318E-03    0.242E-03
RMM:   7    -0.616041437168E+03   -0.28689E-07   -0.29356E-07   962   0.123E-03
 469 F= -.62427296E+03 E0= -.62427296E+03  d E =-.103173E-02
 trial-energy change:   -0.001032  1 .order   -0.001026   -0.001328   -0.000724
 step:   0.6893(harm=  0.7320)  dis= 0.01249  next Energy=  -624.273355 (dE=-0.143E-02)
 bond charge predicted
       N       E                     dE             d eps       ncg     rms          rms(c)
DAV:   1    -0.616041378998E+03    0.58142E-04   -0.16320E+00  1428   0.294E+00    0.346E-01
RMM:   2    -0.616042900596E+03   -0.15216E-02   -0.23765E-02  1428   0.363E-01    0.204E-01
RMM:   3    -0.616042548340E+03    0.35226E-03   -0.12384E-03  1428   0.941E-02    0.869E-02
RMM:   4    -0.616042501933E+03    0.46407E-04   -0.32730E-04  1492   0.388E-02    0.146E-02
RMM:   5    -0.616042500524E+03    0.14093E-05   -0.17894E-05  1472   0.102E-02    0.759E-03
RMM:   6    -0.616042500426E+03    0.97825E-07   -0.29150E-06  1453   0.340E-03    0.258E-03
RMM:   7    -0.616042500455E+03   -0.29446E-07   -0.35177E-07  1043   0.131E-03
 470 F= -.62427342E+03 E0= -.62427342E+03  d E =-.148690E-02
 curvature: -27.69 expect dE=-0.116E+00 dE for cont linesearch -0.752E-05
 trial: gam= 0.98441 g(F)=  0.412E-02 g(S)=  0.540E-04 ort = 0.288E-03 (trialstep = 0.404E+00)
 search vector abs. value=  0.300E+00
 bond charge predicted
       N       E                     dE             d eps       ncg     rms          rms(c)
DAV:   1    -0.616042872535E+03   -0.37211E-03   -0.20509E+00  1428   0.328E+00    0.383E-01
RMM:   2    -0.616044673062E+03   -0.18005E-02   -0.28797E-02  1428   0.401E-01    0.229E-01
RMM:   3    -0.616044207509E+03    0.46555E-03   -0.15298E-03  1428   0.103E-01    0.911E-02
RMM:   4    -0.616044160853E+03    0.46657E-04   -0.37864E-04  1493   0.417E-02    0.154E-02
RMM:   5    -0.616044158860E+03    0.19927E-05   -0.21236E-05  1470   0.112E-02    0.780E-03
RMM:   6    -0.616044158813E+03    0.47374E-07   -0.34456E-06  1455   0.367E-03    0.265E-03
RMM:   7    -0.616044158843E+03   -0.30457E-07   -0.33972E-07  1008   0.138E-03
 471 F= -.62427496E+03 E0= -.62427496E+03  d E =-.154101E-02
 trial-energy change:   -0.001541  1 .order   -0.001527   -0.001802   -0.001252
 step:   1.0615(harm=  1.3240)  dis= 0.01969  next Energy=  -624.276034 (dE=-0.262E-02)
 bond charge predicted
       N       E                     dE             d eps       ncg     rms          rms(c)
DAV:   1    -0.616042256376E+03    0.19024E-02   -0.54127E+00  1428   0.534E+00    0.622E-01
RMM:   2    -0.616047009547E+03   -0.47532E-02   -0.76016E-02  1428   0.652E-01    0.372E-01
RMM:   3    -0.616045782367E+03    0.12272E-02   -0.40400E-03  1428   0.168E-01    0.148E-01
RMM:   4    -0.616045658574E+03    0.12379E-03   -0.99693E-04  1493   0.678E-02    0.250E-02
RMM:   5    -0.616045653684E+03    0.48898E-05   -0.55779E-05  1468   0.181E-02    0.126E-02
RMM:   6    -0.616045653640E+03    0.44267E-07   -0.90413E-06  1457   0.595E-03    0.430E-03
RMM:   7    -0.616045653738E+03   -0.98000E-07   -0.10261E-06  1428   0.223E-03    0.155E-03
RMM:   8    -0.616045653746E+03   -0.82509E-08   -0.20797E-07   899   0.969E-04
 472 F= -.62427629E+03 E0= -.62427629E+03  d E =-.287519E-02
 curvature: -40.98 expect dE=-0.135E+00 dE for cont linesearch -0.113E-03
 ZBRENT: extrapolating
 opt :   1.3346  next Energy=  -624.276416 (dE=-0.300E-02)
 bond charge predicted
       N       E                     dE             d eps       ncg     rms          rms(c)
DAV:   1    -0.616045249271E+03    0.40447E-03   -0.93502E-01  1464   0.222E+00    0.258E-01
RMM:   2    -0.616046069882E+03   -0.82061E-03   -0.13120E-02  1428   0.271E-01    0.154E-01
RMM:   3    -0.616045858227E+03    0.21165E-03   -0.69779E-04  1428   0.697E-02    0.614E-02
RMM:   4    -0.616045837120E+03    0.21108E-04   -0.17197E-04  1494   0.281E-02    0.104E-02
RMM:   5    -0.616045836206E+03    0.91340E-06   -0.96559E-06  1471   0.752E-03    0.527E-03
RMM:   6    -0.616045836173E+03    0.32967E-07   -0.15554E-06  1423   0.247E-03    0.179E-03
RMM:   7    -0.616045836182E+03   -0.88185E-08   -0.14428E-07   884   0.930E-04
 473 F= -.62427642E+03 E0= -.62427642E+03  d E =-.300167E-02
 curvature: -45.13 expect dE=-0.244E+00 dE for cont linesearch -0.936E-07
 trial: gam= 1.50538 g(F)=  0.537E-02 g(S)=  0.289E-04 ort =-0.250E-04 (trialstep = 0.259E+00)
 search vector abs. value=  0.686E+00
 bond charge predicted
       N       E                     dE             d eps       ncg     rms          rms(c)
DAV:   1    -0.616045534174E+03    0.30200E-03   -0.18848E+00  1428   0.315E+00    0.371E-01
RMM:   2    -0.616047230990E+03   -0.16968E-02   -0.26538E-02  1428   0.384E-01    0.221E-01
RMM:   3    -0.616046801286E+03    0.42970E-03   -0.13850E-03  1428   0.991E-02    0.889E-02
RMM:   4    -0.616046754193E+03    0.47093E-04   -0.35475E-04  1496   0.402E-02    0.145E-02
RMM:   5    -0.616046752429E+03    0.17642E-05   -0.19168E-05  1461   0.107E-02    0.749E-03
RMM:   6    -0.616046752295E+03    0.13333E-06   -0.31004E-06  1457   0.352E-03    0.256E-03
RMM:   7    -0.616046752299E+03   -0.41073E-08   -0.37370E-07  1055   0.136E-03
 474 F= -.62427755E+03 E0= -.62427755E+03  d E =-.113302E-02
 trial-energy change:   -0.001133  1 .order   -0.001117   -0.001385   -0.000849
 step:   0.5563(harm=  0.6682)  dis= 0.01589  next Energy=  -624.278064 (dE=-0.165E-02)
 bond charge predicted
       N       E                     dE             d eps       ncg     rms          rms(c)
DAV:   1    -0.616045504584E+03    0.12477E-02   -0.24996E+00  1428   0.362E+00    0.427E-01
RMM:   2    -0.616047754807E+03   -0.22502E-02   -0.35197E-02  1428   0.443E-01    0.254E-01
RMM:   3    -0.616047184938E+03    0.56987E-03   -0.18388E-03  1428   0.114E-01    0.102E-01
RMM:   4    -0.616047122398E+03    0.62540E-04   -0.47047E-04  1496   0.463E-02    0.167E-02
RMM:   5    -0.616047120099E+03    0.22990E-05   -0.25475E-05  1460   0.123E-02    0.863E-03
RMM:   6    -0.616047119935E+03    0.16363E-06   -0.41235E-06  1461   0.406E-03    0.295E-03
RMM:   7    -0.616047119945E+03   -0.96952E-08   -0.52442E-07  1208   0.156E-03
 475 F= -.62427818E+03 E0= -.62427818E+03  d E =-.176623E-02
 curvature: -39.57 expect dE=-0.125E+00 dE for cont linesearch -0.448E-04
 ZBRENT: extrapolating
 opt :   0.6655  next Energy=  -624.278233 (dE=-0.181E-02)
 bond charge predicted
       N       E                     dE             d eps       ncg     rms          rms(c)
DAV:   1    -0.616046851066E+03    0.26887E-03   -0.33632E-01  1480   0.133E+00    0.157E-01
RMM:   2    -0.616047154073E+03   -0.30301E-03   -0.47381E-03  1428   0.162E-01    0.933E-02
RMM:   3    -0.616047077345E+03    0.76728E-04   -0.24810E-04  1428   0.419E-02    0.376E-02
RMM:   4    -0.616047068919E+03    0.84266E-05   -0.63547E-05  1496   0.170E-02    0.616E-03
RMM:   5    -0.616047068574E+03    0.34485E-06   -0.34668E-06  1464   0.454E-03    0.320E-03
RMM:   6    -0.616047068528E+03    0.45482E-07   -0.53537E-07  1228   0.150E-03
 476 F= -.62427823E+03 E0= -.62427823E+03  d E =-.181648E-02
 curvature: -42.48 expect dE=-0.175E+00 dE for cont linesearch -0.107E-07
 trial: gam= 0.67763 g(F)=  0.405E-02 g(S)=  0.710E-04 ort =-0.131E-04 (trialstep = 0.340E+00)
 search vector abs. value=  0.319E+00
 bond charge predicted
       N       E                     dE             d eps       ncg     rms          rms(c)
DAV:   1    -0.616047140935E+03   -0.72361E-04   -0.14595E+00  1428   0.276E+00    0.328E-01
RMM:   2    -0.616048451931E+03   -0.13110E-02   -0.20531E-02  1428   0.336E-01    0.197E-01
RMM:   3    -0.616048133902E+03    0.31803E-03   -0.10979E-03  1428   0.878E-02    0.803E-02
RMM:   4    -0.616048099020E+03    0.34882E-04   -0.27339E-04  1499   0.354E-02    0.137E-02
RMM:   5    -0.616048097247E+03    0.17723E-05   -0.20654E-05  1441   0.102E-02    0.645E-03
RMM:   6    -0.616048097181E+03    0.66007E-07   -0.23441E-06  1458   0.322E-03    0.270E-03
RMM:   7    -0.616048097211E+03   -0.29981E-07   -0.38337E-07  1074   0.132E-03
 477 F= -.62427934E+03 E0= -.62427934E+03  d E =-.110564E-02
 trial-energy change:   -0.001106  1 .order   -0.001096   -0.001398   -0.000793
 step:   0.7099(harm=  0.7860)  dis= 0.01353  next Energy=  -624.279785 (dE=-0.155E-02)
 bond charge predicted
       N       E                     dE             d eps       ncg     rms          rms(c)
DAV:   1    -0.616047382502E+03    0.71468E-03   -0.17287E+00  1428   0.300E+00    0.357E-01
RMM:   2    -0.616048933890E+03   -0.15514E-02   -0.24305E-02  1428   0.365E-01    0.214E-01
RMM:   3    -0.616048556718E+03    0.37717E-03   -0.13014E-03  1428   0.956E-02    0.875E-02
RMM:   4    -0.616048515257E+03    0.41460E-04   -0.32374E-04  1499   0.386E-02    0.149E-02
RMM:   5    -0.616048513142E+03    0.21157E-05   -0.24677E-05  1441   0.112E-02    0.702E-03
RMM:   6    -0.616048513052E+03    0.89487E-07   -0.27876E-06  1458   0.351E-03    0.295E-03
RMM:   7    -0.616048513083E+03   -0.30304E-07   -0.47539E-07  1173   0.144E-03
 478 F= -.62427985E+03 E0= -.62427985E+03  d E =-.161707E-02
 curvature: -29.60 expect dE=-0.918E-01 dE for cont linesearch -0.140E-04
 trial: gam= 0.64063 g(F)=  0.309E-02 g(S)=  0.110E-04 ort = 0.388E-03 (trialstep = 0.414E+00)
 search vector abs. value=  0.135E+00
 bond charge predicted
       N       E                     dE             d eps       ncg     rms          rms(c)
DAV:   1    -0.616049013495E+03   -0.50044E-03   -0.95465E-01  1428   0.223E+00    0.276E-01
RMM:   2    -0.616049944019E+03   -0.93052E-03   -0.14138E-02  1428   0.279E-01    0.156E-01
RMM:   3    -0.616049743166E+03    0.20085E-03   -0.70027E-04  1432   0.707E-02    0.731E-02
RMM:   4    -0.616049709555E+03    0.33611E-04   -0.23101E-04  1489   0.315E-02    0.114E-02
RMM:   5    -0.616049707720E+03    0.18347E-05   -0.13899E-05  1442   0.866E-03    0.547E-03
RMM:   6    -0.616049707576E+03    0.14461E-06   -0.15499E-06  1448   0.262E-03    0.254E-03
RMM:   7    -0.616049707534E+03    0.41768E-07   -0.43457E-07  1065   0.127E-03
 479 F= -.62428088E+03 E0= -.62428088E+03  d E =-.103032E-02
 trial-energy change:   -0.001030  1 .order   -0.001027   -0.001387   -0.000667
 step:   0.7803(harm=  0.7975)  dis= 0.00975  next Energy=  -624.281179 (dE=-0.133E-02)
 bond charge predicted
       N       E                     dE             d eps       ncg     rms          rms(c)
DAV:   1    -0.616049625389E+03    0.82186E-04   -0.74790E-01  1440   0.198E+00    0.244E-01
RMM:   2    -0.616050353581E+03   -0.72819E-03   -0.11071E-02  1428   0.247E-01    0.139E-01
RMM:   3    -0.616050196138E+03    0.15744E-03   -0.54894E-04  1432   0.626E-02    0.647E-02
RMM:   4    -0.616050169736E+03    0.26403E-04   -0.18100E-04  1489   0.279E-02    0.101E-02
RMM:   5    -0.616050168281E+03    0.14546E-05   -0.10879E-05  1442   0.767E-03    0.485E-03
RMM:   6    -0.616050168157E+03    0.12430E-06   -0.12205E-06  1427   0.232E-03    0.224E-03
RMM:   7    -0.616050168116E+03    0.40465E-07   -0.34158E-07  1002   0.114E-03
 480 F= -.62428120E+03 E0= -.62428120E+03  d E =-.135125E-02
 curvature: -15.97 expect dE=-0.414E-01 dE for cont linesearch -0.581E-06
 trial: gam= 0.94980 g(F)=  0.251E-02 g(S)=  0.814E-04 ort = 0.699E-04 (trialstep = 0.487E+00)
 search vector abs. value=  0.124E+00
 bond charge predicted
       N       E                     dE             d eps       ncg     rms          rms(c)
DAV:   1    -0.616051127477E+03   -0.95932E-03   -0.11283E+00  1428   0.242E+00    0.296E-01
RMM:   2    -0.616052038106E+03   -0.91063E-03   -0.15651E-02  1428   0.299E-01    0.177E-01
RMM:   3    -0.616051779988E+03    0.25812E-03   -0.89436E-04  1428   0.779E-02    0.711E-02
RMM:   4    -0.616051750716E+03    0.29273E-04   -0.20783E-04  1497   0.312E-02    0.125E-02
RMM:   5    -0.616051749250E+03    0.14659E-05   -0.15350E-05  1464   0.884E-03    0.625E-03
RMM:   6    -0.616051748923E+03    0.32708E-06   -0.23656E-06  1449   0.305E-03    0.227E-03
RMM:   7    -0.616051748849E+03    0.73651E-07   -0.32487E-07  1011   0.121E-03
 481 F= -.62428212E+03 E0= -.62428212E+03  d E =-.918760E-03
 trial-energy change:   -0.000919  1 .order   -0.000908   -0.001296   -0.000521
 step:   0.7772(harm=  0.8146)  dis= 0.00993  next Energy=  -624.282279 (dE=-0.108E-02)
 bond charge predicted
       N       E                     dE             d eps       ncg     rms          rms(c)
DAV:   1    -0.616052096109E+03   -0.34719E-03   -0.39963E-01  1464   0.144E+00    0.176E-01
RMM:   2    -0.616052419036E+03   -0.32293E-03   -0.55418E-03  1428   0.178E-01    0.105E-01
RMM:   3    -0.616052327596E+03    0.91440E-04   -0.31717E-04  1428   0.464E-02    0.423E-02
RMM:   4    -0.616052317148E+03    0.10448E-04   -0.73635E-05  1497   0.186E-02    0.741E-03
RMM:   5    -0.616052316574E+03    0.57396E-06   -0.54728E-06  1465   0.527E-03    0.374E-03
RMM:   6    -0.616052316430E+03    0.14460E-06   -0.83911E-07  1354   0.182E-03    0.135E-03
RMM:   7    -0.616052316394E+03    0.35834E-07   -0.11586E-07   883   0.755E-04
 482 F= -.62428230E+03 E0= -.62428230E+03  d E =-.109645E-02
 curvature: -18.76 expect dE=-0.485E-01 dE for cont linesearch -0.240E-05
 trial: gam= 0.91268 g(F)=  0.252E-02 g(S)=  0.650E-04 ort = 0.126E-03 (trialstep = 0.545E+00)
 search vector abs. value=  0.106E+00
 bond charge predicted
       N       E                     dE             d eps       ncg     rms          rms(c)
DAV:   1    -0.616053856101E+03   -0.15397E-02   -0.11920E+00  1428   0.248E+00    0.316E-01
RMM:   2    -0.616054641020E+03   -0.78492E-03   -0.15822E-02  1428   0.305E-01    0.189E-01
RMM:   3    -0.616054320417E+03    0.32060E-03   -0.10332E-03  1428   0.807E-02    0.682E-02
RMM:   4    -0.616054292991E+03    0.27426E-04   -0.19580E-04  1500   0.309E-02    0.134E-02
RMM:   5    -0.616054291646E+03    0.13453E-05   -0.15268E-05  1458   0.896E-03    0.666E-03
RMM:   6    -0.616054291489E+03    0.15700E-06   -0.28359E-06  1449   0.331E-03    0.222E-03
RMM:   7    -0.616054291462E+03    0.26917E-07   -0.23779E-07   919   0.122E-03
 483 F= -.62428340E+03 E0= -.62428340E+03  d E =-.110493E-02
 trial-energy change:   -0.001105  1 .order   -0.001091   -0.001471   -0.000710
 step:   0.9679(harm=  1.0530)  dis= 0.01147  next Energy=  -624.283686 (dE=-0.139E-02)
 bond charge predicted
       N       E                     dE             d eps       ncg     rms          rms(c)
DAV:   1    -0.616055022321E+03   -0.73083E-03   -0.71653E-01  1440   0.192E+00    0.245E-01
RMM:   2    -0.616055495345E+03   -0.47302E-03   -0.95133E-03  1428   0.236E-01    0.147E-01
RMM:   3    -0.616055302582E+03    0.19276E-03   -0.62130E-04  1428   0.626E-02    0.528E-02
RMM:   4    -0.616055286064E+03    0.16518E-04   -0.11763E-04  1500   0.240E-02    0.104E-02
RMM:   5    -0.616055285243E+03    0.82107E-06   -0.91756E-06  1460   0.695E-03    0.518E-03
RMM:   6    -0.616055285135E+03    0.10802E-06   -0.17075E-06  1426   0.257E-03    0.172E-03
RMM:   7    -0.616055285117E+03    0.17870E-07   -0.13925E-07   883   0.944E-04
 484 F= -.62428373E+03 E0= -.62428373E+03  d E =-.143153E-02
 curvature: -20.13 expect dE=-0.698E-01 dE for cont linesearch -0.984E-05
 trial: gam= 1.32210 g(F)=  0.342E-02 g(S)=  0.455E-04 ort = 0.228E-03 (trialstep = 0.353E+00)
 search vector abs. value=  0.190E+00
 bond charge predicted
       N       E                     dE             d eps       ncg     rms          rms(c)
DAV:   1    -0.616056861563E+03   -0.15764E-02   -0.90314E-01  1440   0.216E+00    0.275E-01
RMM:   2    -0.616057409349E+03   -0.54779E-03   -0.11838E-02  1428   0.265E-01    0.164E-01
RMM:   3    -0.616057161248E+03    0.24810E-03   -0.76722E-04  1428   0.694E-02    0.590E-02
RMM:   4    -0.616057140057E+03    0.21192E-04   -0.15219E-04  1499   0.271E-02    0.113E-02
RMM:   5    -0.616057139385E+03    0.67145E-06   -0.97355E-06  1482   0.738E-03    0.575E-03
RMM:   6    -0.616057139323E+03    0.62497E-07   -0.19531E-06  1423   0.277E-03    0.174E-03
RMM:   7    -0.616057139328E+03   -0.51696E-08   -0.14087E-07   882   0.965E-04
 485 F= -.62428481E+03 E0= -.62428481E+03  d E =-.107666E-02
 trial-energy change:   -0.001077  1 .order   -0.001070   -0.001329   -0.000811
 step:   0.8181(harm=  0.9046)  dis= 0.01287  next Energy=  -624.285359 (dE=-0.163E-02)
 bond charge predicted
       N       E                     dE             d eps       ncg     rms          rms(c)
DAV:   1    -0.616058291253E+03   -0.11519E-02   -0.15747E+00  1440   0.286E+00    0.363E-01
RMM:   2    -0.616059249629E+03   -0.95838E-03   -0.20651E-02  1428   0.350E-01    0.216E-01
RMM:   3    -0.616058817771E+03    0.43186E-03   -0.13363E-03  1428   0.916E-02    0.780E-02
RMM:   4    -0.616058780976E+03    0.36795E-04   -0.26489E-04  1498   0.358E-02    0.148E-02
RMM:   5    -0.616058779892E+03    0.10839E-05   -0.16970E-05  1481   0.974E-03    0.758E-03
RMM:   6    -0.616058779800E+03    0.91546E-07   -0.33940E-06  1451   0.366E-03    0.230E-03
RMM:   7    -0.616058779805E+03   -0.50713E-08   -0.25350E-07   924   0.127E-03
 486 F= -.62428543E+03 E0= -.62428543E+03  d E =-.170377E-02
 curvature: -22.20 expect dE=-0.599E-01 dE for cont linesearch -0.147E-04
 trial: gam= 0.81403 g(F)=  0.268E-02 g(S)=  0.147E-04 ort = 0.354E-03 (trialstep = 0.446E+00)
 search vector abs. value=  0.129E+00
 bond charge predicted
       N       E                     dE             d eps       ncg     rms          rms(c)
DAV:   1    -0.616060108910E+03   -0.13291E-02   -0.10111E+00  1440   0.228E+00    0.297E-01
RMM:   2    -0.616060782645E+03   -0.67373E-03   -0.13675E-02  1428   0.283E-01    0.173E-01
RMM:   3    -0.616060515842E+03    0.26680E-03   -0.85118E-04  1428   0.743E-02    0.685E-02
RMM:   4    -0.616060484450E+03    0.31392E-04   -0.19517E-04  1498   0.302E-02    0.130E-02
RMM:   5    -0.616060483612E+03    0.83802E-06   -0.11768E-05  1470   0.814E-03    0.676E-03
RMM:   6    -0.616060483444E+03    0.16837E-06   -0.21913E-06  1428   0.301E-03    0.206E-03
RMM:   7    -0.616060483441E+03    0.27285E-08   -0.19993E-07   893   0.109E-03
 487 F= -.62428649E+03 E0= -.62428649E+03  d E =-.105948E-02
 trial-energy change:   -0.001059  1 .order   -0.001052   -0.001331   -0.000773
 step:   0.9708(harm=  1.0625)  dis= 0.01302  next Energy=  -624.286962 (dE=-0.153E-02)
 bond charge predicted
       N       E                     dE             d eps       ncg     rms          rms(c)
DAV:   1    -0.616061245738E+03   -0.76229E-03   -0.14040E+00  1440   0.269E+00    0.350E-01
RMM:   2    -0.616062178726E+03   -0.93299E-03   -0.18958E-02  1428   0.334E-01    0.203E-01
RMM:   3    -0.616061808461E+03    0.37026E-03   -0.11791E-03  1428   0.874E-02    0.807E-02
RMM:   4    -0.616061764983E+03    0.43478E-04   -0.27033E-04  1499   0.356E-02    0.152E-02
RMM:   5    -0.616061763859E+03    0.11243E-05   -0.16285E-05  1469   0.956E-03    0.794E-03
RMM:   6    -0.616061763640E+03    0.21876E-06   -0.30149E-06  1447   0.353E-03    0.243E-03
RMM:   7    -0.616061763637E+03    0.30777E-08   -0.28782E-07   953   0.128E-03
 488 F= -.62428703E+03 E0= -.62428703E+03  d E =-.159251E-02
 curvature: -22.43 expect dE=-0.790E-01 dE for cont linesearch -0.114E-04
 trial: gam= 1.33429 g(F)=  0.348E-02 g(S)=  0.365E-04 ort = 0.256E-03 (trialstep = 0.304E+00)
 search vector abs. value=  0.234E+00
 bond charge predicted
       N       E                     dE             d eps       ncg     rms          rms(c)
DAV:   1    -0.616062668906E+03   -0.90527E-03   -0.84518E-01  1464   0.209E+00    0.262E-01
RMM:   2    -0.616063272269E+03   -0.60336E-03   -0.11536E-02  1428   0.259E-01    0.156E-01
RMM:   3    -0.616063058446E+03    0.21382E-03   -0.69551E-04  1428   0.678E-02    0.609E-02
RMM:   4    -0.616063036422E+03    0.22024E-04   -0.15966E-04  1500   0.275E-02    0.113E-02
RMM:   5    -0.616063035541E+03    0.88066E-06   -0.11477E-05  1463   0.768E-03    0.573E-03
RMM:   6    -0.616063035416E+03    0.12530E-06   -0.15832E-06  1430   0.261E-03    0.209E-03
RMM:   7    -0.616063035411E+03    0.47730E-08   -0.20199E-07   907   0.101E-03
 489 F= -.62428805E+03 E0= -.62428805E+03  d E =-.102550E-02
 trial-energy change:   -0.001025  1 .order   -0.001019   -0.001173   -0.000864
 step:   0.9094(harm=  1.1533)  dis= 0.01699  next Energy=  -624.288969 (dE=-0.194E-02)
 bond charge predicted
       N       E                     dE             d eps       ncg     rms          rms(c)
DAV:   1    -0.616063165306E+03   -0.12989E-03   -0.33602E+00  1440   0.417E+00    0.522E-01
RMM:   2    -0.616065566403E+03   -0.24011E-02   -0.45864E-02  1428   0.517E-01    0.311E-01
RMM:   3    -0.616064716616E+03    0.84979E-03   -0.27631E-03  1428   0.135E-01    0.122E-01
RMM:   4    -0.616064629129E+03    0.87487E-04   -0.63269E-04  1499   0.547E-02    0.226E-02
RMM:   5    -0.616064625953E+03    0.31759E-05   -0.45706E-05  1458   0.153E-02    0.114E-02
RMM:   6    -0.616064625595E+03    0.35775E-06   -0.62460E-06  1452   0.521E-03    0.419E-03
RMM:   7    -0.616064625625E+03   -0.30046E-07   -0.96927E-07  1403   0.201E-03
 490 F= -.62428918E+03 E0= -.62428918E+03  d E =-.214779E-02
 curvature: -32.03 expect dE=-0.105E+00 dE for cont linesearch -0.869E-04
 ZBRENT: extrapolating
 opt :   1.1450  next Energy=  -624.289269 (dE=-0.224E-02)
 bond charge predicted
       N       E                     dE             d eps       ncg     rms          rms(c)
DAV:   1    -0.616064678587E+03   -0.52992E-04   -0.50805E-01  1464   0.162E+00    0.203E-01
RMM:   2    -0.616065042523E+03   -0.36394E-03   -0.69402E-03  1428   0.201E-01    0.121E-01
RMM:   3    -0.616064913867E+03    0.12866E-03   -0.41876E-04  1428   0.526E-02    0.472E-02
RMM:   4    -0.616064900546E+03    0.13320E-04   -0.95939E-05  1499   0.213E-02    0.881E-03
RMM:   5    -0.616064900002E+03    0.54391E-06   -0.69606E-06  1461   0.598E-03    0.445E-03
RMM:   6    -0.616064899913E+03    0.89225E-07   -0.94632E-07  1382   0.203E-03
 491 F= -.62428928E+03 E0= -.62428928E+03  d E =-.224831E-02
 curvature: -34.57 expect dE=-0.176E+00 dE for cont linesearch -0.199E-07
 trial: gam= 1.51698 g(F)=  0.502E-02 g(S)=  0.748E-04 ort =-0.116E-04 (trialstep = 0.203E+00)
 search vector abs. value=  0.543E+00
 bond charge predicted
       N       E                     dE             d eps       ncg     rms          rms(c)
DAV:   1    -0.616065112742E+03   -0.21274E-03   -0.89456E-01  1440   0.216E+00    0.269E-01
RMM:   2    -0.616065859014E+03   -0.74627E-03   -0.12797E-02  1428   0.270E-01    0.158E-01
RMM:   3    -0.616065628962E+03    0.23005E-03   -0.69635E-04  1428   0.696E-02    0.645E-02
RMM:   4    -0.616065601396E+03    0.27565E-04   -0.18662E-04  1497   0.291E-02    0.109E-02
RMM:   5    -0.616065600093E+03    0.13029E-05   -0.10577E-05  1458   0.771E-03    0.550E-03
RMM:   6    -0.616065599923E+03    0.17043E-06   -0.17085E-06  1438   0.259E-03    0.214E-03
RMM:   7    -0.616065599859E+03    0.63526E-07   -0.25010E-07   936   0.109E-03
 492 F= -.62429016E+03 E0= -.62429016E+03  d E =-.883802E-03
 trial-energy change:   -0.000884  1 .order   -0.000878   -0.001032   -0.000724
 step:   0.5718(harm=  0.6814)  dis= 0.01720  next Energy=  -624.290849 (dE=-0.157E-02)
 bond charge predicted
       N       E                     dE             d eps       ncg     rms          rms(c)
DAV:   1    -0.616064458998E+03    0.11409E-02   -0.29435E+00  1428   0.392E+00    0.488E-01
RMM:   2    -0.616066912669E+03   -0.24537E-02   -0.42085E-02  1428   0.490E-01    0.286E-01
RMM:   3    -0.616066154358E+03    0.75831E-03   -0.22895E-03  1428   0.126E-01    0.117E-01
RMM:   4    -0.616066063240E+03    0.91118E-04   -0.61180E-04  1497   0.526E-02    0.197E-02
RMM:   5    -0.616066059121E+03    0.41195E-05   -0.34856E-05  1456   0.140E-02    0.995E-03
RMM:   6    -0.616066058634E+03    0.48691E-06   -0.55968E-06  1466   0.468E-03    0.389E-03
RMM:   7    -0.616066058472E+03    0.16154E-06   -0.93749E-07  1389   0.197E-03    0.131E-03
RMM:   8    -0.616066058398E+03    0.74011E-07   -0.17214E-07   892   0.846E-04
 493 F= -.62429097E+03 E0= -.62429097E+03  d E =-.169593E-02
 curvature: -34.51 expect dE=-0.116E+00 dE for cont linesearch -0.389E-04
 ZBRENT: extrapolating
 opt :   0.6754  next Energy=  -624.291012 (dE=-0.174E-02)
 bond charge predicted
       N       E                     dE             d eps       ncg     rms          rms(c)
DAV:   1    -0.616065868586E+03    0.18989E-03   -0.23235E-01  1496   0.110E+00    0.137E-01
RMM:   2    -0.616066062473E+03   -0.19389E-03   -0.33198E-03  1428   0.137E-01    0.803E-02
RMM:   3    -0.616066002838E+03    0.59635E-04   -0.18034E-04  1428   0.354E-02    0.328E-02
RMM:   4    -0.616065995655E+03    0.71828E-05   -0.48325E-05  1497   0.148E-02    0.554E-03
RMM:   5    -0.616065995300E+03    0.35496E-06   -0.27266E-06  1457   0.392E-03    0.281E-03
RMM:   6    -0.616065995240E+03    0.60689E-07   -0.41174E-07  1132   0.132E-03
 494 F= -.62429101E+03 E0= -.62429101E+03  d E =-.173669E-02
 curvature: -35.96 expect dE=-0.155E+00 dE for cont linesearch -0.120E-06
 trial: gam= 0.73588 g(F)=  0.423E-02 g(S)=  0.834E-04 ort =-0.426E-04 (trialstep = 0.298E+00)
 search vector abs. value=  0.298E+00
 bond charge predicted
       N       E                     dE             d eps       ncg     rms          rms(c)
DAV:   1    -0.616066118615E+03   -0.12331E-03   -0.10391E+00  1428   0.233E+00    0.285E-01
RMM:   2    -0.616066991036E+03   -0.87242E-03   -0.14856E-02  1428   0.290E-01    0.171E-01
RMM:   3    -0.616066722942E+03    0.26809E-03   -0.84054E-04  1428   0.755E-02    0.653E-02
RMM:   4    -0.616066698073E+03    0.24869E-04   -0.18592E-04  1496   0.299E-02    0.115E-02
RMM:   5    -0.616066697108E+03    0.96557E-06   -0.12823E-05  1458   0.826E-03    0.583E-03
RMM:   6    -0.616066697049E+03    0.58590E-07   -0.18200E-06  1446   0.278E-03    0.206E-03
RMM:   7    -0.616066697048E+03    0.16335E-08   -0.24051E-07   923   0.109E-03
 495 F= -.62429210E+03 E0= -.62429210E+03  d E =-.108833E-02
 trial-energy change:   -0.001088  1 .order   -0.001084   -0.001275   -0.000893
 step:   0.8739(harm=  0.9935)  dis= 0.01974  next Energy=  -624.292998 (dE=-0.199E-02)
 bond charge predicted
       N       E                     dE             d eps       ncg     rms          rms(c)
DAV:   1    -0.616064790199E+03    0.19068E-02   -0.38950E+00  1428   0.451E+00    0.552E-01
RMM:   2    -0.616068063266E+03   -0.32731E-02   -0.55707E-02  1428   0.563E-01    0.331E-01
RMM:   3    -0.616067057468E+03    0.10058E-02   -0.31471E-03  1428   0.146E-01    0.127E-01
RMM:   4    -0.616066962883E+03    0.94585E-04   -0.69715E-04  1496   0.578E-02    0.224E-02
RMM:   5    -0.616066959381E+03    0.35024E-05   -0.48328E-05  1454   0.160E-02    0.113E-02
RMM:   6    -0.616066959144E+03    0.23655E-06   -0.67709E-06  1458   0.538E-03    0.401E-03
RMM:   7    -0.616066959166E+03   -0.22101E-07   -0.10792E-06  1413   0.210E-03    0.139E-03
RMM:   8    -0.616066959103E+03    0.63254E-07   -0.22823E-07   945   0.960E-04
 496 F= -.62429314E+03 E0= -.62429314E+03  d E =-.212539E-02
 curvature: -33.58 expect dE=-0.139E+00 dE for cont linesearch -0.339E-04
 trial: gam= 0.81746 g(F)=  0.410E-02 g(S)=  0.526E-04 ort = 0.549E-03 (trialstep = 0.413E+00)
 search vector abs. value=  0.204E+00
 bond charge predicted
       N       E                     dE             d eps       ncg     rms          rms(c)
DAV:   1    -0.616066905839E+03    0.53327E-04   -0.15017E+00  1428   0.281E+00    0.333E-01
RMM:   2    -0.616068273152E+03   -0.13673E-02   -0.21838E-02  1428   0.351E-01    0.197E-01
RMM:   3    -0.616067904501E+03    0.36865E-03   -0.11190E-03  1428   0.883E-02    0.819E-02
RMM:   4    -0.616067861439E+03    0.43062E-04   -0.30825E-04  1490   0.373E-02    0.136E-02
RMM:   5    -0.616067858956E+03    0.24834E-05   -0.17016E-05  1458   0.100E-02    0.661E-03
RMM:   6    -0.616067858724E+03    0.23203E-06   -0.28781E-06  1461   0.335E-03    0.244E-03
RMM:   7    -0.616067858659E+03    0.64581E-07   -0.40812E-07  1082   0.138E-03
 497 F= -.62429446E+03 E0= -.62429446E+03  d E =-.132425E-02
 trial-energy change:   -0.001324  1 .order   -0.001316   -0.001900   -0.000731
 step:   0.6540(harm=  0.6710)  dis= 0.01180  next Energy=  -624.294677 (dE=-0.154E-02)
 bond charge predicted
       N       E                     dE             d eps       ncg     rms          rms(c)
DAV:   1    -0.616067513649E+03    0.34508E-03   -0.51204E-01  1464   0.164E+00    0.194E-01
RMM:   2    -0.616067979991E+03   -0.46634E-03   -0.74516E-03  1428   0.205E-01    0.115E-01
RMM:   3    -0.616067854013E+03    0.12598E-03   -0.38235E-04  1428   0.516E-02    0.478E-02
RMM:   4    -0.616067839277E+03    0.14736E-04   -0.10543E-04  1490   0.218E-02    0.796E-03
RMM:   5    -0.616067838385E+03    0.89259E-06   -0.58148E-06  1457   0.586E-03    0.388E-03
RMM:   6    -0.616067838286E+03    0.98538E-07   -0.97438E-07  1362   0.197E-03
 498 F= -.62429470E+03 E0= -.62429470E+03  d E =-.155776E-02
 curvature: -14.84 expect dE=-0.462E-01 dE for cont linesearch -0.107E-05
 trial: gam= 0.89787 g(F)=  0.299E-02 g(S)=  0.124E-03 ort = 0.121E-03 (trialstep = 0.461E+00)
 search vector abs. value=  0.168E+00
 bond charge predicted
       N       E                     dE             d eps       ncg     rms          rms(c)
DAV:   1    -0.616068612278E+03   -0.77389E-03   -0.14648E+00  1428   0.278E+00    0.340E-01
RMM:   2    -0.616069791260E+03   -0.11790E-02   -0.20990E-02  1428   0.344E-01    0.200E-01
RMM:   3    -0.616069424251E+03    0.36701E-03   -0.11272E-03  1428   0.883E-02    0.835E-02
RMM:   4    -0.616069378936E+03    0.45315E-04   -0.29888E-04  1492   0.374E-02    0.146E-02
RMM:   5    -0.616069376648E+03    0.22881E-05   -0.19151E-05  1438   0.101E-02    0.686E-03
RMM:   6    -0.616069376459E+03    0.18827E-06   -0.28014E-06  1468   0.341E-03    0.281E-03
RMM:   7    -0.616069376419E+03    0.40691E-07   -0.48363E-07  1125   0.147E-03
 499 F= -.62429586E+03 E0= -.62429586E+03  d E =-.116668E-02
 trial-energy change:   -0.001167  1 .order   -0.001150   -0.001487   -0.000813
 step:   0.8928(harm=  1.0174)  dis= 0.01505  next Energy=  -624.296256 (dE=-0.156E-02)
 bond charge predicted
       N       E                     dE             d eps       ncg     rms          rms(c)
DAV:   1    -0.616069516711E+03   -0.14025E-03   -0.12839E+00  1428   0.260E+00    0.318E-01
RMM:   2    -0.616070551061E+03   -0.10344E-02   -0.18399E-02  1428   0.322E-01    0.187E-01
RMM:   3    -0.616070228732E+03    0.32233E-03   -0.98731E-04  1428   0.827E-02    0.781E-02
RMM:   4    -0.616070188838E+03    0.39894E-04   -0.26192E-04  1492   0.350E-02    0.137E-02
RMM:   5    -0.616070186837E+03    0.20006E-05   -0.16851E-05  1438   0.946E-03    0.643E-03
RMM:   6    -0.616070186664E+03    0.17269E-06   -0.24370E-06  1468   0.319E-03    0.263E-03
RMM:   7    -0.616070186626E+03    0.38279E-07   -0.41954E-07  1075   0.138E-03
 500 F= -.62429634E+03 E0= -.62429634E+03  d E =-.164176E-02
 curvature: -25.19 expect dE=-0.779E-01 dE for cont linesearch -0.220E-04
 trial: gam= 0.79931 g(F)=  0.304E-02 g(S)=  0.541E-04 ort = 0.384E-03 (trialstep = 0.547E+00)
 search vector abs. value=  0.111E+00
Note: The following floating-point exceptions are signalling: IEEE_UNDERFLOW_FLAG IEEE_DENORMAL
Note: The following floating-point exceptions are signalling: IEEE_DENORMAL
Note: The following floating-point exceptions are signalling: IEEE_DENORMAL
Note: The following floating-point exceptions are signalling: IEEE_UNDERFLOW_FLAG IEEE_DENORMAL
Note: The following floating-point exceptions are signalling: IEEE_UNDERFLOW_FLAG IEEE_DENORMAL
Note: The following floating-point exceptions are signalling: IEEE_INVALID_FLAG IEEE_UNDERFLOW_FLAG IEEE_DENORMAL
Note: The following floating-point exceptions are signalling: IEEE_DENORMAL
Note: The following floating-point exceptions are signalling: IEEE_INVALID_FLAG IEEE_UNDERFLOW_FLAG IEEE_DENORMAL
Note: The following floating-point exceptions are signalling: IEEE_DENORMAL
Note: The following floating-point exceptions are signalling: IEEE_INVALID_FLAG IEEE_UNDERFLOW_FLAG IEEE_DENORMAL
Note: The following floating-point exceptions are signalling: IEEE_DENORMAL
Note: The following floating-point exceptions are signalling: IEEE_UNDERFLOW_FLAG IEEE_DENORMAL
Note: The following floating-point exceptions are signalling: IEEE_UNDERFLOW_FLAG IEEE_DENORMAL
Note: The following floating-point exceptions are signalling: IEEE_INVALID_FLAG IEEE_UNDERFLOW_FLAG IEEE_DENORMAL
Note: The following floating-point exceptions are signalling: IEEE_UNDERFLOW_FLAG IEEE_DENORMAL
Note: The following floating-point exceptions are signalling: IEEE_UNDERFLOW_FLAG IEEE_DENORMAL
Note: The following floating-point exceptions are signalling: IEEE_UNDERFLOW_FLAG IEEE_DENORMAL
Note: The following floating-point exceptions are signalling: IEEE_DENORMAL
Note: The following floating-point exceptions are signalling: IEEE_UNDERFLOW_FLAG IEEE_DENORMAL
Note: The following floating-point exceptions are signalling: IEEE_UNDERFLOW_FLAG IEEE_DENORMAL
Note: The following floating-point exceptions are signalling: IEEE_INVALID_FLAG IEEE_UNDERFLOW_FLAG IEEE_DENORMAL
Note: The following floating-point exceptions are signalling: IEEE_DENORMAL
Note: The following floating-point exceptions are signalling: IEEE_DENORMAL
Note: The following floating-point exceptions are signalling: IEEE_DENORMAL
Note: The following floating-point exceptions are signalling: IEEE_UNDERFLOW_FLAG IEEE_DENORMAL
Note: The following floating-point exceptions are signalling: IEEE_INVALID_FLAG IEEE_UNDERFLOW_FLAG IEEE_DENORMAL
Note: The following floating-point exceptions are signalling: IEEE_UNDERFLOW_FLAG IEEE_DENORMAL
Note: The following floating-point exceptions are signalling: IEEE_INVALID_FLAG IEEE_DENORMAL
Note: The following floating-point exceptions are signalling: IEEE_UNDERFLOW_FLAG IEEE_DENORMAL
Note: The following floating-point exceptions are signalling: IEEE_UNDERFLOW_FLAG IEEE_DENORMAL
Note: The following floating-point exceptions are signalling: IEEE_DENORMAL
Note: The following floating-point exceptions are signalling: IEEE_DENORMAL
Note: The following floating-point exceptions are signalling: IEEE_DENORMAL
Note: The following floating-point exceptions are signalling: IEEE_DENORMAL
Note: The following floating-point exceptions are signalling: IEEE_DENORMAL
Note: The following floating-point exceptions are signalling: IEEE_UNDERFLOW_FLAG IEEE_DENORMAL
Note: The following floating-point exceptions are signalling: IEEE_INVALID_FLAG IEEE_UNDERFLOW_FLAG IEEE_DENORMAL
Note: The following floating-point exceptions are signalling: IEEE_INVALID_FLAG IEEE_UNDERFLOW_FLAG IEEE_DENORMAL
Note: The following floating-point exceptions are signalling: IEEE_UNDERFLOW_FLAG IEEE_DENORMAL
Note: The following floating-point exceptions are signalling: IEEE_UNDERFLOW_FLAG IEEE_DENORMAL
Note: The following floating-point exceptions are signalling: IEEE_UNDERFLOW_FLAG IEEE_DENORMAL
Note: The following floating-point exceptions are signalling: IEEE_DENORMAL
Note: The following floating-point exceptions are signalling: IEEE_UNDERFLOW_FLAG IEEE_DENORMAL
Note: The following floating-point exceptions are signalling: IEEE_DENORMAL
Note: The following floating-point exceptions are signalling: IEEE_UNDERFLOW_FLAG IEEE_DENORMAL
Note: The following floating-point exceptions are signalling: IEEE_UNDERFLOW_FLAG IEEE_DENORMAL
Note: The following floating-point exceptions are signalling: IEEE_DENORMAL
Note: The following floating-point exceptions are signalling: IEEE_DENORMAL
Note: The following floating-point exceptions are signalling: IEEE_INVALID_FLAG IEEE_DENORMAL
Note: The following floating-point exceptions are signalling: IEEE_DENORMAL
Note: The following floating-point exceptions are signalling: IEEE_UNDERFLOW_FLAG IEEE_DENORMAL
Note: The following floating-point exceptions are signalling: IEEE_UNDERFLOW_FLAG IEEE_DENORMAL
Note: The following floating-point exceptions are signalling: IEEE_UNDERFLOW_FLAG IEEE_DENORMAL
Note: The following floating-point exceptions are signalling: IEEE_UNDERFLOW_FLAG IEEE_DENORMAL
Note: The following floating-point exceptions are signalling: IEEE_DENORMAL
Note: The following floating-point exceptions are signalling: IEEE_DENORMAL
Note: The following floating-point exceptions are signalling: IEEE_DENORMAL
Note: The following floating-point exceptions are signalling: IEEE_DENORMAL
Note: The following floating-point exceptions are signalling: IEEE_DENORMAL
Note: The following floating-point exceptions are signalling: IEEE_UNDERFLOW_FLAG IEEE_DENORMAL
Note: The following floating-point exceptions are signalling: IEEE_DENORMAL
Note: The following floating-point exceptions are signalling: IEEE_DENORMAL
Note: The following floating-point exceptions are signalling: IEEE_DENORMAL
Note: The following floating-point exceptions are signalling: IEEE_INVALID_FLAG IEEE_DENORMAL
Note: The following floating-point exceptions are signalling: IEEE_DENORMAL
Note: The following floating-point exceptions are signalling: IEEE_UNDERFLOW_FLAG IEEE_DENORMAL
Note: The following floating-point exceptions are signalling: IEEE_UNDERFLOW_FLAG IEEE_DENORMAL
Note: The following floating-point exceptions are signalling: IEEE_UNDERFLOW_FLAG IEEE_DENORMAL
Note: The following floating-point exceptions are signalling: IEEE_INVALID_FLAG IEEE_UNDERFLOW_FLAG IEEE_DENORMAL
Note: The following floating-point exceptions are signalling: IEEE_UNDERFLOW_FLAG IEEE_DENORMAL
Note: The following floating-point exceptions are signalling: IEEE_INVALID_FLAG IEEE_UNDERFLOW_FLAG IEEE_DENORMAL
Note: The following floating-point exceptions are signalling: IEEE_UNDERFLOW_FLAG IEEE_DENORMAL
Note: The following floating-point exceptions are signalling: IEEE_UNDERFLOW_FLAG IEEE_DENORMAL
Note: The following floating-point exceptions are signalling: IEEE_UNDERFLOW_FLAG IEEE_DENORMAL
Note: The following floating-point exceptions are signalling: IEEE_UNDERFLOW_FLAG IEEE_DENORMAL
Note: The following floating-point exceptions are signalling: IEEE_UNDERFLOW_FLAG IEEE_DENORMAL
Note: The following floating-point exceptions are signalling: IEEE_INVALID_FLAG IEEE_UNDERFLOW_FLAG IEEE_DENORMAL
Note: The following floating-point exceptions are signalling: IEEE_UNDERFLOW_FLAG IEEE_DENORMAL
Note: The following floating-point exceptions are signalling: IEEE_UNDERFLOW_FLAG IEEE_DENORMAL
Note: The following floating-point exceptions are signalling: IEEE_UNDERFLOW_FLAG IEEE_DENORMAL
Note: The following floating-point exceptions are signalling: IEEE_UNDERFLOW_FLAG IEEE_DENORMAL
Note: The following floating-point exceptions are signalling: IEEE_INVALID_FLAG IEEE_UNDERFLOW_FLAG IEEE_DENORMAL
Note: The following floating-point exceptions are signalling: IEEE_UNDERFLOW_FLAG IEEE_DENORMAL
Note: The following floating-point exceptions are signalling: IEEE_INVALID_FLAG IEEE_UNDERFLOW_FLAG IEEE_DENORMAL
Note: The following floating-point exceptions are signalling: IEEE_INVALID_FLAG IEEE_UNDERFLOW_FLAG IEEE_DENORMAL
Note: The following floating-point exceptions are signalling: IEEE_UNDERFLOW_FLAG IEEE_DENORMAL
Note: The following floating-point exceptions are signalling: IEEE_UNDERFLOW_FLAG IEEE_DENORMAL
Note: The following floating-point exceptions are signalling: IEEE_UNDERFLOW_FLAG IEEE_DENORMAL
Note: The following floating-point exceptions are signalling: IEEE_UNDERFLOW_FLAG IEEE_DENORMAL
Note: The following floating-point exceptions are signalling: IEEE_UNDERFLOW_FLAG IEEE_DENORMAL
Note: The following floating-point exceptions are signalling: IEEE_UNDERFLOW_FLAG IEEE_DENORMAL
Note: The following floating-point exceptions are signalling: IEEE_UNDERFLOW_FLAG IEEE_DENORMAL
Note: The following floating-point exceptions are signalling: IEEE_UNDERFLOW_FLAG IEEE_DENORMAL
Note: The following floating-point exceptions are signalling: IEEE_INVALID_FLAG IEEE_UNDERFLOW_FLAG IEEE_DENORMAL
Note: The following floating-point exceptions are signalling: IEEE_UNDERFLOW_FLAG IEEE_DENORMAL
Note: The following floating-point exceptions are signalling: IEEE_UNDERFLOW_FLAG IEEE_DENORMAL
Note: The following floating-point exceptions are signalling: IEEE_UNDERFLOW_FLAG IEEE_DENORMAL
Note: The following floating-point exceptions are signalling: IEEE_UNDERFLOW_FLAG IEEE_DENORMAL
Note: The following floating-point exceptions are signalling: IEEE_UNDERFLOW_FLAG IEEE_DENORMAL
Note: The following floating-point exceptions are signalling: IEEE_UNDERFLOW_FLAG IEEE_DENORMAL
Note: The following floating-point exceptions are signalling: IEEE_UNDERFLOW_FLAG IEEE_DENORMAL
Note: The following floating-point exceptions are signalling: IEEE_UNDERFLOW_FLAG IEEE_DENORMAL
Note: The following floating-point exceptions are signalling: IEEE_INVALID_FLAG IEEE_UNDERFLOW_FLAG IEEE_DENORMAL
Note: The following floating-point exceptions are signalling: IEEE_UNDERFLOW_FLAG IEEE_DENORMAL
Note: The following floating-point exceptions are signalling: IEEE_INVALID_FLAG IEEE_UNDERFLOW_FLAG IEEE_DENORMAL
Note: The following floating-point exceptions are signalling: IEEE_UNDERFLOW_FLAG IEEE_DENORMAL
Note: The following floating-point exceptions are signalling: IEEE_INVALID_FLAG IEEE_UNDERFLOW_FLAG IEEE_DENORMAL
Note: The following floating-point exceptions are signalling: IEEE_UNDERFLOW_FLAG IEEE_DENORMAL
Note: The following floating-point exceptions are signalling: IEEE_UNDERFLOW_FLAG IEEE_DENORMAL
Note: The following floating-point exceptions are signalling: IEEE_UNDERFLOW_FLAG IEEE_DENORMAL
Note: The following floating-point exceptions are signalling: IEEE_UNDERFLOW_FLAG IEEE_DENORMAL
Note: The following floating-point exceptions are signalling: IEEE_UNDERFLOW_FLAG IEEE_DENORMAL
Note: The following floating-point exceptions are signalling: IEEE_UNDERFLOW_FLAG IEEE_DENORMAL
Note: The following floating-point exceptions are signalling: IEEE_UNDERFLOW_FLAG IEEE_DENORMAL
Note: The following floating-point exceptions are signalling: IEEE_UNDERFLOW_FLAG IEEE_DENORMAL
Note: The following floating-point exceptions are signalling: IEEE_UNDERFLOW_FLAG IEEE_DENORMAL
Note: The following floating-point exceptions are signalling: IEEE_UNDERFLOW_FLAG IEEE_DENORMAL
Note: The following floating-point exceptions are signalling: IEEE_INVALID_FLAG IEEE_UNDERFLOW_FLAG IEEE_DENORMAL
Note: The following floating-point exceptions are signalling: IEEE_UNDERFLOW_FLAG IEEE_DENORMAL
Note: The following floating-point exceptions are signalling: IEEE_UNDERFLOW_FLAG IEEE_DENORMAL
Note: The following floating-point exceptions are signalling: IEEE_UNDERFLOW_FLAG IEEE_DENORMAL
Note: The following floating-point exceptions are signalling: IEEE_UNDERFLOW_FLAG IEEE_DENORMAL
Note: The following floating-point exceptions are signalling: IEEE_UNDERFLOW_FLAG IEEE_DENORMAL
Note: The following floating-point exceptions are signalling: IEEE_INVALID_FLAG IEEE_UNDERFLOW_FLAG IEEE_DENORMAL
Note: The following floating-point exceptions are signalling: IEEE_UNDERFLOW_FLAG IEEE_DENORMAL
Note: The following floating-point exceptions are signalling: IEEE_UNDERFLOW_FLAG IEEE_DENORMAL
Note: The following floating-point exceptions are signalling: IEEE_UNDERFLOW_FLAG IEEE_DENORMAL
Note: The following floating-point exceptions are signalling: IEEE_UNDERFLOW_FLAG IEEE_DENORMAL

JOB STATISTICS
==============
Job ID: 409852
Cluster: snellius
User/Group: srinidhi/srinidhi
State: COMPLETED (exit code 0)
Nodes: 1
Cores per node: 128
CPU Utilized: 18-17:04:36
CPU Efficiency: 98.870f 18-22:13:20 core-walltime
Job Wall-clock time: 03:32:55
Memory Utilized: 178.36 GB (estimated maximum)
Memory Efficiency: 76.100f 234.38 GB (1.83 GB/core)
