Zn4 H28 C42 N12 O10 F12                 
   1.0000000000000000     
     0.0096772315847285   -0.0000000008801370   -7.1026428836215425
    10.0485645575518596   -0.0000000001260303   -1.0146830530429867
     5.0242822780991849  -16.8328697854787848   -0.5073410283340742
   C    F    H    N    O    Zn
    42    12    28    12    10     4
Direct
  0.7797671412858591  0.9077211917273331  0.0593323931029488
  0.2797671412858520  0.9670535848303246  0.9406676068969801
  0.1342955585681622  0.9144116467103274  0.5015142469031204
  0.6342955585681764  0.4159258936134123  0.4984857530969435
  0.5801597215883305  0.8388055325012687  0.8320863014206310
  0.0801597215883092  0.6708918339219210  0.1679136985793264
  0.1825406476122211  0.8426262656479437  0.6506764751860459
  0.6825406476122069  0.4933017408339637  0.3493235248139896
  0.8622375045724908  0.9422314023015019  0.5988302580806817
  0.3622375045724837  0.5410616603821552  0.4011697419193325
  0.4182732170334589  0.9344050347314479  0.4205396057159447
  0.9182732170334660  0.3549446404473500  0.5794603942841263
  0.4394973680921552  0.8414802392539968  0.7698994842053182
  0.9394973680921197  0.6113797234593150  0.2301005157946747
  0.9838066162377714  0.7087471639602043  0.5834047969056400
  0.4838066162377359  0.2921519608657874  0.4165952030944524
  0.3793895174452686  0.9657716243601158  0.7126139716313062
  0.8793895174452189  0.6783855959913936  0.2873860283687293
  0.0282346890213674  0.9897226661418301  0.4341443234129869
  0.5282346890213816  0.4238669895547815  0.5658556765870770
  0.5147799747388149  0.8714246979592275  0.1183903760917175
  0.0147799747388859  0.9898150740509593  0.8816096239082611
  0.0436794492841841  0.8526852236423039  0.5830891496049517
  0.5436794492841841  0.4357743732472272  0.4169108503950980
  0.2548141765018457  0.9657801145004612  0.6531559699349572
  0.7548141765018173  0.6189350844353783  0.3468440300650855
  0.2399998852910841  0.7189633358377563  0.7089455342113169
  0.7399998852910628  0.4279088700490803  0.2910544657886831
  0.3696380660074041  0.7187098770853950  0.7669182490224387
  0.8696380660073899  0.4856281261078550  0.2330817509775258
  0.3300481365957211  0.8872484550520028  0.4936392143646415
  0.8300481365957282  0.3808876694166017  0.5063607856354295
  0.3129225851072377  0.0091661788365727  0.3531394928243543
  0.8129225851072448  0.3623056716608914  0.6468605071757096
  0.0241490723229134  0.4839917356081500  0.8875161396454985
  0.5241490723228992  0.3715088752537028  0.1124838603544163
  0.1170310083136599  0.0371421617563783  0.3610010580507463
  0.6170310083136741  0.3981432198071033  0.6389989419493034
  0.3069930757278030  0.4408756026913707  0.9327955817787128
  0.8069930757278740  0.3736711844701617  0.0672044182211593
  0.4094831526663114  0.0572936526131613  0.2745250007817646
  0.9094831526663398  0.3318186533948975  0.7254749992182852
  0.8748990677944448  0.7161941661998412  0.5195494343727844
  0.3748990677943880  0.2357436005725333  0.4804505656273577
  0.7061586544090162  0.9289311217586516  0.5592179163906650
  0.2061586544089877  0.4881490381492668  0.4407820836093705
  0.1381697326872597  0.6187556879294007  0.5805169454381556
  0.6381697326872313  0.1992726333674923  0.4194830545619723
  0.8880134226074219  0.0793677251329896  0.5765400888364383
  0.3880144226074407  0.6559078139694208  0.4234599111635333
  0.8170688850819445  0.9070381800296374  0.6773368436851612
  0.3170688850819161  0.5843760237147748  0.3226631563148246
  0.8825412674830133  0.6505595192303772  0.6496400320570785
  0.3825412674829352  0.3001995512874061  0.3503599679429783
  0.9147622385778504  0.9472527212984332  0.0407907839860044
  0.4147622385778078  0.9880425052844828  0.9592092160139103
  0.5703499902437699  0.9122769496486640  0.4148832594673735
  0.0703499902437912  0.3271602091160091  0.5851167405326976
  0.4346669962548688  0.0622262879679951  0.7131656855404174
  0.9346669962548120  0.7753919735083556  0.2868343144596395
  0.8758696652424334  0.0121947442885144  0.4377392807701810
  0.3758696652424689  0.4499350250586716  0.5622607192298759
  0.3901534903197401  0.8771497262772314  0.1546789335064034
  0.8901534903198609  0.0318286597836206  0.8453210664936037
  0.2155171392715758  0.0624873916505138  0.6074670132737126
  0.7155171392715474  0.6699554049241740  0.3925329867263372
  0.1875827009087487  0.6211706154266352  0.7097738861854950
  0.6875827009087274  0.3309445016121515  0.2902261138144908
  0.4190068150394168  0.6221766016096453  0.8107745472946917
  0.9190068150394168  0.4329511489044009  0.1892254527052373
  0.4145757303113982  0.8276063742063826  0.5449577529785046
  0.9145757303113982  0.3725641271848446  0.4550422470215665
  0.1089767654579603  0.0683236248111996  0.1943191741425991
  0.6089767654578893  0.2626427989537845  0.8056808258574080
  0.0392921053038506  0.9322186768986214  0.1758213206168193
  0.5392921053037369  0.1080409975154382  0.8241786793831807
  0.8953629390932534  0.4804116728649532  0.8566846230349228
  0.3953629390931823  0.3370952958999140  0.1433153769650204
  0.0325287315729383  0.0971784356653700  0.3097203199510830
  0.5325287315729668  0.4068987556164316  0.6902796800489668
  0.4527893276368360  0.3971171825901578  0.9443555042218890
  0.9527893276369497  0.3414726868121392  0.0556444957779689
  0.7117767323124866  0.8075416443959469  0.0361883325591705
  0.2117757323124678  0.8437299769551743  0.9638116674407371
  0.6611753566341108  0.9508872966901833  0.1110080299239087
  0.1611753566341392  0.0618963266141108  0.8889919700760629
  0.0435967869766714  0.5675949207760738  0.9323271717538688
  0.5435967869766785  0.4999220925300136  0.0676728282460104
  0.2245460493162525  0.5410002302769712  0.9614274112770076
  0.7245460493163165  0.5024276415540498  0.0385725887228503
  0.1867940754429185  0.4016731157054707  0.8861186887385131
  0.6867940754429398  0.2877918044440335  0.1138813112614017
  0.5402829702772181  0.7846719060677287  0.0738491234261360
  0.0402829702772607  0.8585210294939003  0.9261508765737929
  0.6270757538822878  0.9509438617185992  0.8407455933591024
  0.1270757538822451  0.7916894550776803  0.1592544066408905
  0.6475684631464205  0.7178812363327509  0.8748402219658544
  0.1475684631464205  0.5927224582986668  0.1251597780340461
  0.9960068894654910  0.0295830328472704  0.1779481726148191
  0.4960068894653347  0.2075312054620611  0.8220518273852022
  0.5925776208122500  0.0425702310369047  0.2754732895410896
  0.0925776208122571  0.3180445205779492  0.7245267104589743
  0.3144220313957078  0.1086654160763700  0.2111597117046315
  0.8144220313957504  0.3198251277809874  0.7888402882954111
  0.8348339056295231  0.7023147096326738  0.9601472834054121
  0.3348339056295089  0.6624629930381474  0.0398527165944742
  0.7188153159247918  0.0847100445505180  0.1705012238269778
  0.2167031353970401  0.2552133025049059  0.8294987761728905

  0.00000000E+00 -0.00000000E+00 -0.00000000E+00
  0.00000000E+00 -0.00000000E+00 -0.00000000E+00
  0.00000000E+00 -0.00000000E+00 -0.00000000E+00
  0.00000000E+00 -0.00000000E+00 -0.00000000E+00
  0.00000000E+00 -0.00000000E+00 -0.00000000E+00
  0.00000000E+00 -0.00000000E+00 -0.00000000E+00
  0.00000000E+00 -0.00000000E+00 -0.00000000E+00
  0.00000000E+00 -0.00000000E+00 -0.00000000E+00
  0.00000000E+00 -0.00000000E+00 -0.00000000E+00
  0.00000000E+00 -0.00000000E+00 -0.00000000E+00
  0.00000000E+00 -0.00000000E+00 -0.00000000E+00
  0.00000000E+00 -0.00000000E+00 -0.00000000E+00
  0.00000000E+00 -0.00000000E+00 -0.00000000E+00
  0.00000000E+00 -0.00000000E+00 -0.00000000E+00
  0.00000000E+00 -0.00000000E+00 -0.00000000E+00
  0.00000000E+00 -0.00000000E+00 -0.00000000E+00
  0.00000000E+00 -0.00000000E+00 -0.00000000E+00
  0.00000000E+00 -0.00000000E+00 -0.00000000E+00
  0.00000000E+00 -0.00000000E+00 -0.00000000E+00
  0.00000000E+00 -0.00000000E+00 -0.00000000E+00
  0.00000000E+00 -0.00000000E+00 -0.00000000E+00
  0.00000000E+00 -0.00000000E+00 -0.00000000E+00
  0.00000000E+00 -0.00000000E+00 -0.00000000E+00
  0.00000000E+00 -0.00000000E+00 -0.00000000E+00
  0.00000000E+00 -0.00000000E+00 -0.00000000E+00
  0.00000000E+00 -0.00000000E+00 -0.00000000E+00
  0.00000000E+00 -0.00000000E+00 -0.00000000E+00
  0.00000000E+00 -0.00000000E+00 -0.00000000E+00
  0.00000000E+00 -0.00000000E+00 -0.00000000E+00
  0.00000000E+00 -0.00000000E+00 -0.00000000E+00
  0.00000000E+00 -0.00000000E+00 -0.00000000E+00
  0.00000000E+00 -0.00000000E+00 -0.00000000E+00
  0.00000000E+00 -0.00000000E+00 -0.00000000E+00
  0.00000000E+00 -0.00000000E+00 -0.00000000E+00
  0.00000000E+00 -0.00000000E+00 -0.00000000E+00
  0.00000000E+00 -0.00000000E+00 -0.00000000E+00
  0.00000000E+00 -0.00000000E+00 -0.00000000E+00
  0.00000000E+00 -0.00000000E+00 -0.00000000E+00
  0.00000000E+00 -0.00000000E+00 -0.00000000E+00
  0.00000000E+00 -0.00000000E+00 -0.00000000E+00
  0.00000000E+00 -0.00000000E+00 -0.00000000E+00
  0.00000000E+00 -0.00000000E+00 -0.00000000E+00
  0.00000000E+00 -0.00000000E+00 -0.00000000E+00
  0.00000000E+00 -0.00000000E+00 -0.00000000E+00
  0.00000000E+00 -0.00000000E+00 -0.00000000E+00
  0.00000000E+00 -0.00000000E+00 -0.00000000E+00
  0.00000000E+00 -0.00000000E+00 -0.00000000E+00
  0.00000000E+00 -0.00000000E+00 -0.00000000E+00
  0.00000000E+00 -0.00000000E+00 -0.00000000E+00
  0.00000000E+00 -0.00000000E+00 -0.00000000E+00
  0.00000000E+00 -0.00000000E+00 -0.00000000E+00
  0.00000000E+00 -0.00000000E+00 -0.00000000E+00
  0.00000000E+00 -0.00000000E+00 -0.00000000E+00
  0.00000000E+00 -0.00000000E+00 -0.00000000E+00
  0.00000000E+00 -0.00000000E+00 -0.00000000E+00
  0.00000000E+00 -0.00000000E+00 -0.00000000E+00
  0.00000000E+00 -0.00000000E+00 -0.00000000E+00
  0.00000000E+00 -0.00000000E+00 -0.00000000E+00
  0.00000000E+00 -0.00000000E+00 -0.00000000E+00
  0.00000000E+00 -0.00000000E+00 -0.00000000E+00
  0.00000000E+00 -0.00000000E+00 -0.00000000E+00
  0.00000000E+00 -0.00000000E+00 -0.00000000E+00
  0.00000000E+00 -0.00000000E+00 -0.00000000E+00
  0.00000000E+00 -0.00000000E+00 -0.00000000E+00
  0.00000000E+00 -0.00000000E+00 -0.00000000E+00
  0.00000000E+00 -0.00000000E+00 -0.00000000E+00
  0.00000000E+00 -0.00000000E+00 -0.00000000E+00
  0.00000000E+00 -0.00000000E+00 -0.00000000E+00
  0.00000000E+00 -0.00000000E+00 -0.00000000E+00
  0.00000000E+00 -0.00000000E+00 -0.00000000E+00
  0.00000000E+00 -0.00000000E+00 -0.00000000E+00
  0.00000000E+00 -0.00000000E+00 -0.00000000E+00
  0.00000000E+00 -0.00000000E+00 -0.00000000E+00
  0.00000000E+00 -0.00000000E+00 -0.00000000E+00
  0.00000000E+00 -0.00000000E+00 -0.00000000E+00
  0.00000000E+00 -0.00000000E+00 -0.00000000E+00
  0.00000000E+00 -0.00000000E+00 -0.00000000E+00
  0.00000000E+00 -0.00000000E+00 -0.00000000E+00
  0.00000000E+00 -0.00000000E+00 -0.00000000E+00
  0.00000000E+00 -0.00000000E+00 -0.00000000E+00
  0.00000000E+00 -0.00000000E+00 -0.00000000E+00
  0.00000000E+00 -0.00000000E+00 -0.00000000E+00
  0.00000000E+00 -0.00000000E+00 -0.00000000E+00
  0.00000000E+00 -0.00000000E+00 -0.00000000E+00
  0.00000000E+00 -0.00000000E+00 -0.00000000E+00
  0.00000000E+00 -0.00000000E+00 -0.00000000E+00
  0.00000000E+00 -0.00000000E+00 -0.00000000E+00
  0.00000000E+00 -0.00000000E+00 -0.00000000E+00
  0.00000000E+00 -0.00000000E+00 -0.00000000E+00
  0.00000000E+00 -0.00000000E+00 -0.00000000E+00
  0.00000000E+00 -0.00000000E+00 -0.00000000E+00
  0.00000000E+00 -0.00000000E+00 -0.00000000E+00
  0.00000000E+00 -0.00000000E+00 -0.00000000E+00
  0.00000000E+00 -0.00000000E+00 -0.00000000E+00
  0.00000000E+00 -0.00000000E+00 -0.00000000E+00
  0.00000000E+00 -0.00000000E+00 -0.00000000E+00
  0.00000000E+00 -0.00000000E+00 -0.00000000E+00
  0.00000000E+00 -0.00000000E+00 -0.00000000E+00
  0.00000000E+00 -0.00000000E+00 -0.00000000E+00
  0.00000000E+00 -0.00000000E+00 -0.00000000E+00
  0.00000000E+00 -0.00000000E+00 -0.00000000E+00
  0.00000000E+00 -0.00000000E+00 -0.00000000E+00
  0.00000000E+00 -0.00000000E+00 -0.00000000E+00
  0.00000000E+00 -0.00000000E+00 -0.00000000E+00
  0.00000000E+00 -0.00000000E+00 -0.00000000E+00
  0.00000000E+00 -0.00000000E+00 -0.00000000E+00
  0.00000000E+00 -0.00000000E+00 -0.00000000E+00
  0.00000000E+00 -0.00000000E+00 -0.00000000E+00
