  108  108 1333    1
  0.1112240E+02  0.7102649E-09  0.1009966E-08  0.1757402E-08  0.5000000E-15
   1.0000000000000000E-004
  CAR 
 unknown system                          
    448      4    288

  0.3742002E-15  0.1262379E-14  0.1262379E-14  0.1666667E+00
    1      -28.000319   1.000000
    2      -27.987946   1.000000
    3      -27.838507   1.000000
    4      -27.825233   1.000000
    5      -25.720150   1.000000
    6      -25.718294   1.000000
    7      -25.679218   1.000000
    8      -25.677343   1.000000
    9      -25.609735   1.000000
   10      -25.604504   1.000000
   11      -25.542510   1.000000
   12      -25.540348   1.000000
   13      -21.883741   1.000000
   14      -21.814519   1.000000
   15      -21.811392   1.000000
   16      -21.745898   1.000000
   17      -21.542334   1.000000
   18      -21.526168   1.000000
   19      -21.393197   1.000000
   20      -21.386313   1.000000
   21      -19.974457   1.000000
   22      -19.930163   1.000000
   23      -19.155678   1.000000
   24      -19.143692   1.000000
   25      -19.012101   1.000000
   26      -19.005723   1.000000
   27      -17.454234   1.000000
   28      -17.405336   1.000000
   29      -17.318504   1.000000
   30      -17.289143   1.000000
   31      -17.072053   1.000000
   32      -17.042735   1.000000
   33      -16.294989   1.000000
   34      -16.290317   1.000000
   35      -15.673012   1.000000
   36      -15.611939   1.000000
   37      -15.504077   1.000000
   38      -15.435844   1.000000
   39      -15.231745   1.000000
   40      -15.212505   1.000000
   41      -13.770444   1.000000
   42      -13.767957   1.000000
   43      -13.588861   1.000000
   44      -13.565815   1.000000
   45      -13.449073   1.000000
   46      -13.442077   1.000000
   47      -13.358104   1.000000
   48      -13.344398   1.000000
   49      -12.509361   1.000000
   50      -12.447601   1.000000
   51      -11.551166   1.000000
   52      -11.524194   1.000000
   53      -10.721821   1.000000
   54      -10.708648   1.000000
   55      -10.528157   1.000000
   56      -10.491452   1.000000
   57      -10.483269   1.000000
   58      -10.418915   1.000000
   59      -10.366259   1.000000
   60      -10.358423   1.000000
   61      -10.284145   1.000000
   62      -10.273179   1.000000
   63      -10.240919   1.000000
   64      -10.208798   1.000000
   65      -10.183606   1.000000
   66      -10.156780   1.000000
   67       -9.997451   1.000000
   68       -9.922873   1.000000
   69       -9.616415   1.000000
   70       -9.546707   1.000000
   71       -9.510076   1.000000
   72       -9.478978   1.000000
   73       -9.403786   1.000000
   74       -9.382288   1.000000
   75       -9.285214   1.000000
   76       -9.260495   1.000000
   77       -8.962627   1.000000
   78       -8.811687   1.000000
   79       -8.796455   1.000000
   80       -8.745539   1.000000
   81       -8.684975   1.000000
   82       -8.624783   1.000000
   83       -8.520682   1.000000
   84       -8.480157   1.000000
   85       -8.390686   1.000000
   86       -8.292307   1.000000
   87       -8.199699   1.000000
   88       -8.090181   1.000000
   89       -7.998350   1.000000
   90       -7.801765   1.000000
   91       -7.620706   1.000000
   92       -7.345040   1.000000
   93       -7.232237   1.000000
   94       -7.063354   1.000000
   95       -6.848461   1.000000
   96       -6.807471   1.000000
   97       -6.701811   1.000000
   98       -6.633166   1.000000
   99       -6.614276   1.000000
  100       -6.592299   1.000000
  101       -6.439938   1.000000
  102       -6.410680   1.000000
  103       -6.354435   1.000000
  104       -6.305737   1.000000
  105       -6.282950   1.000000
  106       -6.233701   1.000000
  107       -6.198189   1.000000
  108       -6.137967   1.000000
  109       -6.136721   1.000000
  110       -6.099226   1.000000
  111       -6.071147   1.000000
  112       -6.058799   1.000000
  113       -6.010617   1.000000
  114       -6.000014   1.000000
  115       -5.959151   1.000000
  116       -5.958031   1.000000
  117       -5.909604   1.000000
  118       -5.896315   1.000000
  119       -5.874125   1.000000
  120       -5.839508   1.000000
  121       -5.795445   1.000000
  122       -5.785638   1.000000
  123       -5.745535   1.000000
  124       -5.728056   1.000000
  125       -5.721802   1.000000
  126       -5.708340   1.000000
  127       -5.692503   1.000000
  128       -5.669716   1.000000
  129       -5.591888   1.000000
  130       -5.557428   1.000000
  131       -5.533781   1.000000
  132       -5.515664   1.000000
  133       -5.448462   1.000000
  134       -5.416784   1.000000
  135       -5.399260   1.000000
  136       -5.376287   1.000000
  137       -5.349247   1.000000
  138       -5.324624   1.000000
  139       -5.319613   1.000000
  140       -5.305464   1.000000
  141       -5.278943   1.000000
  142       -5.253025   1.000000
  143       -5.161020   1.000000
  144       -5.159811   1.000000
  145       -5.130030   1.000000
  146       -5.099182   1.000000
  147       -5.073660   1.000000
  148       -5.037300   1.000000
  149       -4.998995   1.000000
  150       -4.992667   1.000000
  151       -4.974926   1.000000
  152       -4.949845   1.000000
  153       -4.944215   1.000000
  154       -4.939149   1.000000
  155       -4.885272   1.000000
  156       -4.866926   1.000000
  157       -4.844767   1.000000
  158       -4.823260   1.000000
  159       -4.782712   1.000000
  160       -4.780944   1.000000
  161       -4.681560   1.000000
  162       -4.664382   1.000000
  163       -4.547093   1.000000
  164       -4.540655   1.000000
  165       -4.534917   1.000000
  166       -4.460951   1.000000
  167       -4.438445   1.000000
  168       -4.436679   1.000000
  169       -4.393355   1.000000
  170       -4.303905   1.000000
  171       -4.198175   1.000000
  172       -4.126684   1.000000
  173       -4.081710   1.000000
  174       -3.980656   1.000000
  175       -3.897287   1.000000
  176       -3.860988   1.000000
  177       -3.832306   1.000000
  178       -3.795044   1.000000
  179       -3.760664   1.000000
  180       -3.629822   1.000000
  181       -3.614845   1.000000
  182       -3.539769   1.000000
  183       -3.486912   1.000000
  184       -3.317198   1.000000
  185       -3.187323   1.000000
  186       -3.126431   1.000000
  187       -3.086369   1.000000
  188       -3.041619   1.000000
  189       -3.004193   1.000000
  190       -2.956457   1.000000
  191       -2.881010   1.000000
  192       -2.676358   1.000000
  193       -2.664287   1.000000
  194       -2.654135   1.000000
  195       -2.448799   1.000000
  196       -2.418958   1.000000
  197       -2.341237   1.000000
  198       -2.305579   1.000000
  199       -2.024167   1.000000
  200       -1.971122   1.000000
  201       -1.871494   1.000000
  202       -1.864682   1.000000
  203       -1.790024   1.000000
  204       -1.772593   1.000000
  205       -1.755335   1.000000
  206       -1.708314   1.000000
  207       -1.644737   1.000000
  208       -1.593454   1.000000
  209       -1.489127   1.000000
  210       -1.473437   1.000000
  211       -1.447310   1.000000
  212       -1.411489   1.000000
  213       -1.399293   1.000000
  214       -1.324437   1.000000
  215       -1.288394   1.000000
  216       -1.266673   1.000000
  217       -1.249670   1.000000
  218       -1.162617   1.000000
  219       -1.153740   1.000000
  220       -1.102046   1.000000
  221       -1.081843   1.000000
  222       -1.035741   1.000000
  223       -1.007088   1.000000
  224       -0.965316   1.000000
  225        2.783047   0.000000
  226        2.844117   0.000000
  227        2.945657   0.000000
  228        2.969659   0.000000
  229        3.635780   0.000000
  230        3.690204   0.000000
  231        3.838832   0.000000
  232        3.885090   0.000000
  233        3.993186   0.000000
  234        4.038409   0.000000
  235        4.059417   0.000000
  236        4.148749   0.000000
  237        4.285063   0.000000
  238        4.334776   0.000000
  239        4.460274   0.000000
  240        4.471705   0.000000
  241        4.801349   0.000000
  242        4.866229   0.000000
  243        5.122346   0.000000
  244        5.129620   0.000000
  245        5.238216   0.000000
  246        5.263497   0.000000
  247        5.364534   0.000000
  248        5.806144   0.000000
  249        5.885951   0.000000
  250        5.896809   0.000000
  251        5.941381   0.000000
  252        6.010292   0.000000
  253        6.087102   0.000000
  254        6.232020   0.000000
  255        6.244607   0.000000
  256        6.360073   0.000000
  257        6.447079   0.000000
  258        6.496641   0.000000
  259        6.693886   0.000000
  260        6.788079   0.000000
  261        6.817519   0.000000
  262        6.870649   0.000000
  263        6.997151   0.000000
  264        7.055098   0.000000
  265        7.085331   0.000000
  266        7.169782   0.000000
  267        7.196618   0.000000
  268        7.393772   0.000000
  269        7.398517   0.000000
  270        7.519439   0.000000
  271        7.571128   0.000000
  272        7.633777   0.000000
  273        7.643504   0.000000
  274        7.686375   0.000000
  275        7.736500   0.000000
  276        7.827639   0.000000
  277        7.874545   0.000000
  278        7.939964   0.000000
  279        8.091096   0.000000
  280        8.109214   0.000000
  281        8.124179   0.000000
  282        8.201902   0.000000
  283        8.227656   0.000000
  284        8.341559   0.000000
  285        8.347627   0.000000
  286        8.397046   0.000000
  287        8.482993   0.000000
  288        8.507440   0.000000

  0.3333333E+00  0.1272124E-14  0.1256407E-14  0.3333333E+00
    1      -27.997379   1.000000
    2      -27.991197   1.000000
    3      -27.835064   1.000000
    4      -27.828397   1.000000
    5      -25.719828   1.000000
    6      -25.718913   1.000000
    7      -25.678719   1.000000
    8      -25.677730   1.000000
    9      -25.608518   1.000000
   10      -25.605893   1.000000
   11      -25.541999   1.000000
   12      -25.540780   1.000000
   13      -21.865404   1.000000
   14      -21.830705   1.000000
   15      -21.794002   1.000000
   16      -21.760716   1.000000
   17      -21.539743   1.000000
   18      -21.523411   1.000000
   19      -21.395544   1.000000
   20      -21.389975   1.000000
   21      -19.987313   1.000000
   22      -19.943430   1.000000
   23      -19.147698   1.000000
   24      -19.136552   1.000000
   25      -19.008824   1.000000
   26      -19.002761   1.000000
   27      -17.443078   1.000000
   28      -17.418594   1.000000
   29      -17.312086   1.000000
   30      -17.296715   1.000000
   31      -17.074611   1.000000
   32      -17.060233   1.000000
   33      -16.295003   1.000000
   34      -16.292162   1.000000
   35      -15.637017   1.000000
   36      -15.606148   1.000000
   37      -15.436334   1.000000
   38      -15.379059   1.000000
   39      -15.299939   1.000000
   40      -15.267628   1.000000
   41      -13.767754   1.000000
   42      -13.765249   1.000000
   43      -13.566674   1.000000
   44      -13.545492   1.000000
   45      -13.449870   1.000000
   46      -13.443255   1.000000
   47      -13.394939   1.000000
   48      -13.372422   1.000000
   49      -12.498044   1.000000
   50      -12.472988   1.000000
   51      -11.566014   1.000000
   52      -11.549713   1.000000
   53      -10.705564   1.000000
   54      -10.701398   1.000000
   55      -10.508285   1.000000
   56      -10.490942   1.000000
   57      -10.449489   1.000000
   58      -10.402422   1.000000
   59      -10.366678   1.000000
   60      -10.345555   1.000000
   61      -10.304498   1.000000
   62      -10.288566   1.000000
   63      -10.245795   1.000000
   64      -10.211667   1.000000
   65      -10.177324   1.000000
   66      -10.150701   1.000000
   67       -9.941466   1.000000
   68       -9.906605   1.000000
   69       -9.594320   1.000000
   70       -9.556950   1.000000
   71       -9.521687   1.000000
   72       -9.512344   1.000000
   73       -9.379889   1.000000
   74       -9.369122   1.000000
   75       -9.320170   1.000000
   76       -9.316537   1.000000
   77       -8.861062   1.000000
   78       -8.830991   1.000000
   79       -8.808561   1.000000
   80       -8.725678   1.000000
   81       -8.702776   1.000000
   82       -8.693545   1.000000
   83       -8.504216   1.000000
   84       -8.459242   1.000000
   85       -8.365054   1.000000
   86       -8.328352   1.000000
   87       -8.177124   1.000000
   88       -8.128947   1.000000
   89       -7.951281   1.000000
   90       -7.840920   1.000000
   91       -7.522414   1.000000
   92       -7.386784   1.000000
   93       -7.118910   1.000000
   94       -7.044132   1.000000
   95       -6.873529   1.000000
   96       -6.843077   1.000000
   97       -6.709218   1.000000
   98       -6.654665   1.000000
   99       -6.646526   1.000000
  100       -6.594567   1.000000
  101       -6.482558   1.000000
  102       -6.422976   1.000000
  103       -6.355427   1.000000
  104       -6.337368   1.000000
  105       -6.297089   1.000000
  106       -6.282403   1.000000
  107       -6.197829   1.000000
  108       -6.180306   1.000000
  109       -6.141190   1.000000
  110       -6.131262   1.000000
  111       -6.040968   1.000000
  112       -6.021440   1.000000
  113       -5.992344   1.000000
  114       -5.981837   1.000000
  115       -5.973154   1.000000
  116       -5.945005   1.000000
  117       -5.911938   1.000000
  118       -5.863475   1.000000
  119       -5.847985   1.000000
  120       -5.843588   1.000000
  121       -5.804083   1.000000
  122       -5.793458   1.000000
  123       -5.761234   1.000000
  124       -5.746176   1.000000
  125       -5.715872   1.000000
  126       -5.698719   1.000000
  127       -5.665003   1.000000
  128       -5.654019   1.000000
  129       -5.613841   1.000000
  130       -5.607386   1.000000
  131       -5.520459   1.000000
  132       -5.510061   1.000000
  133       -5.479753   1.000000
  134       -5.459294   1.000000
  135       -5.440386   1.000000
  136       -5.382844   1.000000
  137       -5.377777   1.000000
  138       -5.359855   1.000000
  139       -5.297230   1.000000
  140       -5.295347   1.000000
  141       -5.236551   1.000000
  142       -5.230552   1.000000
  143       -5.198361   1.000000
  144       -5.180245   1.000000
  145       -5.134645   1.000000
  146       -5.122102   1.000000
  147       -5.102421   1.000000
  148       -5.058051   1.000000
  149       -5.022046   1.000000
  150       -5.019780   1.000000
  151       -4.968128   1.000000
  152       -4.917618   1.000000
  153       -4.904528   1.000000
  154       -4.897068   1.000000
  155       -4.878026   1.000000
  156       -4.872597   1.000000
  157       -4.850052   1.000000
  158       -4.832278   1.000000
  159       -4.790964   1.000000
  160       -4.785889   1.000000
  161       -4.692028   1.000000
  162       -4.689889   1.000000
  163       -4.557592   1.000000
  164       -4.536827   1.000000
  165       -4.531355   1.000000
  166       -4.501204   1.000000
  167       -4.438780   1.000000
  168       -4.434594   1.000000
  169       -4.331395   1.000000
  170       -4.255989   1.000000
  171       -4.176937   1.000000
  172       -4.176218   1.000000
  173       -4.093090   1.000000
  174       -3.951398   1.000000
  175       -3.930439   1.000000
  176       -3.847564   1.000000
  177       -3.770163   1.000000
  178       -3.748481   1.000000
  179       -3.708366   1.000000
  180       -3.677979   1.000000
  181       -3.614537   1.000000
  182       -3.569912   1.000000
  183       -3.537281   1.000000
  184       -3.351998   1.000000
  185       -3.150985   1.000000
  186       -3.077667   1.000000
  187       -3.069373   1.000000
  188       -3.033896   1.000000
  189       -2.991775   1.000000
  190       -2.986943   1.000000
  191       -2.787495   1.000000
  192       -2.751634   1.000000
  193       -2.670428   1.000000
  194       -2.646634   1.000000
  195       -2.458687   1.000000
  196       -2.438978   1.000000
  197       -2.391972   1.000000
  198       -2.367431   1.000000
  199       -1.950610   1.000000
  200       -1.869140   1.000000
  201       -1.837778   1.000000
  202       -1.827230   1.000000
  203       -1.785177   1.000000
  204       -1.736662   1.000000
  205       -1.710277   1.000000
  206       -1.684206   1.000000
  207       -1.626950   1.000000
  208       -1.558023   1.000000
  209       -1.509482   1.000000
  210       -1.481907   1.000000
  211       -1.467031   1.000000
  212       -1.446624   1.000000
  213       -1.369971   1.000000
  214       -1.326516   1.000000
  215       -1.304581   1.000000
  216       -1.242819   1.000000
  217       -1.239581   1.000000
  218       -1.176817   1.000000
  219       -1.167964   1.000000
  220       -1.118400   1.000000
  221       -1.090609   1.000000
  222       -1.082153   1.000000
  223       -1.001604   1.000000
  224       -0.987069   1.000000
  225        2.805290   0.000000
  226        2.861254   0.000000
  227        2.911458   0.000000
  228        2.947461   0.000000
  229        3.652028   0.000000
  230        3.680728   0.000000
  231        3.849777   0.000000
  232        3.863462   0.000000
  233        4.048684   0.000000
  234        4.060261   0.000000
  235        4.134250   0.000000
  236        4.196038   0.000000
  237        4.288086   0.000000
  238        4.381605   0.000000
  239        4.474341   0.000000
  240        4.708432   0.000000
  241        4.719226   0.000000
  242        5.007973   0.000000
  243        5.141673   0.000000
  244        5.153391   0.000000
  245        5.286542   0.000000
  246        5.302610   0.000000
  247        5.552099   0.000000
  248        5.609584   0.000000
  249        5.713745   0.000000
  250        5.788713   0.000000
  251        5.929944   0.000000
  252        5.997121   0.000000
  253        6.163551   0.000000
  254        6.222508   0.000000
  255        6.263154   0.000000
  256        6.342199   0.000000
  257        6.491600   0.000000
  258        6.519873   0.000000
  259        6.657081   0.000000
  260        6.671893   0.000000
  261        6.827914   0.000000
  262        6.852499   0.000000
  263        6.969054   0.000000
  264        7.002548   0.000000
  265        7.075152   0.000000
  266        7.160852   0.000000
  267        7.166792   0.000000
  268        7.343314   0.000000
  269        7.396902   0.000000
  270        7.425698   0.000000
  271        7.458640   0.000000
  272        7.506225   0.000000
  273        7.578632   0.000000
  274        7.643289   0.000000
  275        7.796824   0.000000
  276        7.823882   0.000000
  277        7.891629   0.000000
  278        7.899599   0.000000
  279        7.957789   0.000000
  280        8.000015   0.000000
  281        8.070410   0.000000
  282        8.168131   0.000000
  283        8.209914   0.000000
  284        8.280801   0.000000
  285        8.297563   0.000000
  286        8.351935   0.000000
  287        8.357749   0.000000
  288        8.451042   0.000000

  0.3743558E-15  0.5000000E+00  0.1291762E-14  0.1666667E+00
    1      -27.994503   1.000000
    2      -27.994293   1.000000
    3      -27.831789   1.000000
    4      -27.831474   1.000000
    5      -25.719281   1.000000
    6      -25.719223   1.000000
    7      -25.678421   1.000000
    8      -25.678223   1.000000
    9      -25.607369   1.000000
   10      -25.606968   1.000000
   11      -25.541685   1.000000
   12      -25.541115   1.000000
   13      -21.880230   1.000000
   14      -21.815468   1.000000
   15      -21.811531   1.000000
   16      -21.749143   1.000000
   17      -21.542135   1.000000
   18      -21.525993   1.000000
   19      -21.393219   1.000000
   20      -21.386284   1.000000
   21      -19.974350   1.000000
   22      -19.930067   1.000000
   23      -19.155292   1.000000
   24      -19.143292   1.000000
   25      -19.012690   1.000000
   26      -19.006221   1.000000
   27      -17.426561   1.000000
   28      -17.380274   1.000000
   29      -17.347103   1.000000
   30      -17.314888   1.000000
   31      -17.057921   1.000000
   32      -17.056673   1.000000
   33      -16.293559   1.000000
   34      -16.291785   1.000000
   35      -15.644241   1.000000
   36      -15.642469   1.000000
   37      -15.503104   1.000000
   38      -15.436609   1.000000
   39      -15.231115   1.000000
   40      -15.213237   1.000000
   41      -13.770299   1.000000
   42      -13.767760   1.000000
   43      -13.580218   1.000000
   44      -13.578839   1.000000
   45      -13.449046   1.000000
   46      -13.447403   1.000000
   47      -13.345954   1.000000
   48      -13.344358   1.000000
   49      -12.480662   1.000000
   50      -12.480275   1.000000
   51      -11.537085   1.000000
   52      -11.535475   1.000000
   53      -10.716895   1.000000
   54      -10.713746   1.000000
   55      -10.505889   1.000000
   56      -10.461778   1.000000
   57      -10.431942   1.000000
   58      -10.410497   1.000000
   59      -10.404908   1.000000
   60      -10.373610   1.000000
   61      -10.307077   1.000000
   62      -10.278744   1.000000
   63      -10.236290   1.000000
   64      -10.207884   1.000000
   65      -10.183431   1.000000
   66      -10.176369   1.000000
   67       -9.960851   1.000000
   68       -9.956327   1.000000
   69       -9.572123   1.000000
   70       -9.565823   1.000000
   71       -9.512664   1.000000
   72       -9.509845   1.000000
   73       -9.386591   1.000000
   74       -9.385739   1.000000
   75       -9.275209   1.000000
   76       -9.274753   1.000000
   77       -8.923165   1.000000
   78       -8.831772   1.000000
   79       -8.810543   1.000000
   80       -8.741507   1.000000
   81       -8.603263   1.000000
   82       -8.591977   1.000000
   83       -8.550494   1.000000
   84       -8.457851   1.000000
   85       -8.448492   1.000000
   86       -8.301621   1.000000
   87       -8.292306   1.000000
   88       -8.158046   1.000000
   89       -7.910651   1.000000
   90       -7.895468   1.000000
   91       -7.497155   1.000000
   92       -7.478753   1.000000
   93       -7.134586   1.000000
   94       -7.116053   1.000000
   95       -6.834588   1.000000
   96       -6.821680   1.000000
   97       -6.657271   1.000000
   98       -6.624959   1.000000
   99       -6.598098   1.000000
  100       -6.589507   1.000000
  101       -6.532526   1.000000
  102       -6.453319   1.000000
  103       -6.378805   1.000000
  104       -6.373422   1.000000
  105       -6.245545   1.000000
  106       -6.238256   1.000000
  107       -6.182076   1.000000
  108       -6.164832   1.000000
  109       -6.123153   1.000000
  110       -6.120618   1.000000
  111       -6.042935   1.000000
  112       -6.038977   1.000000
  113       -6.019297   1.000000
  114       -6.000673   1.000000
  115       -5.969680   1.000000
  116       -5.928824   1.000000
  117       -5.894240   1.000000
  118       -5.879705   1.000000
  119       -5.872793   1.000000
  120       -5.820794   1.000000
  121       -5.784883   1.000000
  122       -5.758585   1.000000
  123       -5.742514   1.000000
  124       -5.725602   1.000000
  125       -5.709562   1.000000
  126       -5.701045   1.000000
  127       -5.697448   1.000000
  128       -5.677733   1.000000
  129       -5.578247   1.000000
  130       -5.575692   1.000000
  131       -5.500348   1.000000
  132       -5.482750   1.000000
  133       -5.449338   1.000000
  134       -5.438617   1.000000
  135       -5.407087   1.000000
  136       -5.395271   1.000000
  137       -5.360223   1.000000
  138       -5.319900   1.000000
  139       -5.310654   1.000000
  140       -5.305499   1.000000
  141       -5.300073   1.000000
  142       -5.212342   1.000000
  143       -5.176719   1.000000
  144       -5.145732   1.000000
  145       -5.140433   1.000000
  146       -5.101040   1.000000
  147       -5.053291   1.000000
  148       -5.022943   1.000000
  149       -5.004160   1.000000
  150       -4.982583   1.000000
  151       -4.956690   1.000000
  152       -4.950862   1.000000
  153       -4.941313   1.000000
  154       -4.900769   1.000000
  155       -4.884983   1.000000
  156       -4.875411   1.000000
  157       -4.852784   1.000000
  158       -4.835142   1.000000
  159       -4.805665   1.000000
  160       -4.792553   1.000000
  161       -4.677309   1.000000
  162       -4.676382   1.000000
  163       -4.544884   1.000000
  164       -4.541639   1.000000
  165       -4.484233   1.000000
  166       -4.472706   1.000000
  167       -4.439895   1.000000
  168       -4.434215   1.000000
  169       -4.362861   1.000000
  170       -4.239105   1.000000
  171       -4.179554   1.000000
  172       -4.171985   1.000000
  173       -4.022488   1.000000
  174       -3.939238   1.000000
  175       -3.894407   1.000000
  176       -3.869732   1.000000
  177       -3.801913   1.000000
  178       -3.795122   1.000000
  179       -3.697262   1.000000
  180       -3.682009   1.000000
  181       -3.617928   1.000000
  182       -3.594004   1.000000
  183       -3.434172   1.000000
  184       -3.297595   1.000000
  185       -3.171590   1.000000
  186       -3.130709   1.000000
  187       -3.124395   1.000000
  188       -3.092427   1.000000
  189       -3.015566   1.000000
  190       -3.000189   1.000000
  191       -2.956940   1.000000
  192       -2.889858   1.000000
  193       -2.545448   1.000000
  194       -2.531747   1.000000
  195       -2.506731   1.000000
  196       -2.462066   1.000000
  197       -2.292981   1.000000
  198       -2.264777   1.000000
  199       -2.153522   1.000000
  200       -2.023703   1.000000
  201       -1.951873   1.000000
  202       -1.844464   1.000000
  203       -1.823262   1.000000
  204       -1.744536   1.000000
  205       -1.714614   1.000000
  206       -1.699795   1.000000
  207       -1.599345   1.000000
  208       -1.547977   1.000000
  209       -1.489722   1.000000
  210       -1.480099   1.000000
  211       -1.452052   1.000000
  212       -1.403183   1.000000
  213       -1.398655   1.000000
  214       -1.308845   1.000000
  215       -1.303381   1.000000
  216       -1.271987   1.000000
  217       -1.266167   1.000000
  218       -1.168324   1.000000
  219       -1.150707   1.000000
  220       -1.094140   1.000000
  221       -1.088752   1.000000
  222       -1.032032   1.000000
  223       -1.001963   1.000000
  224       -0.955147   1.000000
  225        2.819384   0.000000
  226        2.822376   0.000000
  227        2.933331   0.000000
  228        2.940738   0.000000
  229        3.652165   0.000000
  230        3.658650   0.000000
  231        3.939808   0.000000
  232        3.954932   0.000000
  233        4.023875   0.000000
  234        4.038709   0.000000
  235        4.055341   0.000000
  236        4.136617   0.000000
  237        4.163600   0.000000
  238        4.312617   0.000000
  239        4.569742   0.000000
  240        4.702009   0.000000
  241        4.736475   0.000000
  242        4.969415   0.000000
  243        5.092098   0.000000
  244        5.146520   0.000000
  245        5.240066   0.000000
  246        5.286854   0.000000
  247        5.372722   0.000000
  248        5.539846   0.000000
  249        5.685366   0.000000
  250        5.856041   0.000000
  251        5.972737   0.000000
  252        5.984885   0.000000
  253        6.129728   0.000000
  254        6.156574   0.000000
  255        6.169087   0.000000
  256        6.281547   0.000000
  257        6.577374   0.000000
  258        6.596077   0.000000
  259        6.608377   0.000000
  260        6.798313   0.000000
  261        6.823307   0.000000
  262        6.868130   0.000000
  263        6.971294   0.000000
  264        7.062900   0.000000
  265        7.077565   0.000000
  266        7.218398   0.000000
  267        7.291214   0.000000
  268        7.364684   0.000000
  269        7.451409   0.000000
  270        7.465430   0.000000
  271        7.506779   0.000000
  272        7.587136   0.000000
  273        7.632319   0.000000
  274        7.748210   0.000000
  275        7.770495   0.000000
  276        7.837680   0.000000
  277        7.957334   0.000000
  278        7.988475   0.000000
  279        8.055782   0.000000
  280        8.090814   0.000000
  281        8.182091   0.000000
  282        8.243412   0.000000
  283        8.335461   0.000000
  284        8.365459   0.000000
  285        8.406159   0.000000
  286        8.415144   0.000000
  287        8.479929   0.000000
  288        8.501164   0.000000

  0.3333333E+00  0.5000000E+00  0.1286264E-14  0.3333333E+00
    1      -27.999212   1.000000
    2      -27.989072   1.000000
    3      -27.837361   1.000000
    4      -27.826287   1.000000
    5      -25.720348   1.000000
    6      -25.718172   1.000000
    7      -25.679475   1.000000
    8      -25.677280   1.000000
    9      -25.609819   1.000000
   10      -25.604347   1.000000
   11      -25.542449   1.000000
   12      -25.540382   1.000000
   13      -21.862348   1.000000
   14      -21.828050   1.000000
   15      -21.797381   1.000000
   16      -21.763691   1.000000
   17      -21.539596   1.000000
   18      -21.523286   1.000000
   19      -21.395478   1.000000
   20      -21.389895   1.000000
   21      -19.987416   1.000000
   22      -19.943540   1.000000
   23      -19.147252   1.000000
   24      -19.136074   1.000000
   25      -19.009106   1.000000
   26      -19.002993   1.000000
   27      -17.415910   1.000000
   28      -17.392801   1.000000
   29      -17.340306   1.000000
   30      -17.323259   1.000000
   31      -17.067805   1.000000
   32      -17.066545   1.000000
   33      -16.294873   1.000000
   34      -16.292438   1.000000
   35      -15.624106   1.000000
   36      -15.620148   1.000000
   37      -15.435400   1.000000
   38      -15.379860   1.000000
   39      -15.299198   1.000000
   40      -15.268439   1.000000
   41      -13.770570   1.000000
   42      -13.762618   1.000000
   43      -13.563204   1.000000
   44      -13.546573   1.000000
   45      -13.449486   1.000000
   46      -13.447046   1.000000
   47      -13.395751   1.000000
   48      -13.377638   1.000000
   49      -12.492366   1.000000
   50      -12.463106   1.000000
   51      -11.578985   1.000000
   52      -11.539694   1.000000
   53      -10.711075   1.000000
   54      -10.699771   1.000000
   55      -10.485723   1.000000
   56      -10.471542   1.000000
   57      -10.442206   1.000000
   58      -10.388973   1.000000
   59      -10.372009   1.000000
   60      -10.356755   1.000000
   61      -10.318354   1.000000
   62      -10.282725   1.000000
   63      -10.253725   1.000000
   64      -10.221479   1.000000
   65      -10.176721   1.000000
   66      -10.153653   1.000000
   67       -9.950112   1.000000
   68       -9.898311   1.000000
   69       -9.576603   1.000000
   70       -9.561143   1.000000
   71       -9.537235   1.000000
   72       -9.522350   1.000000
   73       -9.376668   1.000000
   74       -9.369621   1.000000
   75       -9.326664   1.000000
   76       -9.296077   1.000000
   77       -8.839434   1.000000
   78       -8.815898   1.000000
   79       -8.794231   1.000000
   80       -8.728984   1.000000
   81       -8.654070   1.000000
   82       -8.628483   1.000000
   83       -8.538526   1.000000
   84       -8.516641   1.000000
   85       -8.390166   1.000000
   86       -8.298853   1.000000
   87       -8.276096   1.000000
   88       -8.220142   1.000000
   89       -7.938428   1.000000
   90       -7.836658   1.000000
   91       -7.536127   1.000000
   92       -7.327276   1.000000
   93       -7.174456   1.000000
   94       -7.017623   1.000000
   95       -6.862893   1.000000
   96       -6.845616   1.000000
   97       -6.701106   1.000000
   98       -6.660576   1.000000
   99       -6.624373   1.000000
  100       -6.573642   1.000000
  101       -6.516476   1.000000
  102       -6.485810   1.000000
  103       -6.377753   1.000000
  104       -6.362045   1.000000
  105       -6.304449   1.000000
  106       -6.270417   1.000000
  107       -6.206268   1.000000
  108       -6.178334   1.000000
  109       -6.137109   1.000000
  110       -6.120774   1.000000
  111       -6.055676   1.000000
  112       -6.040556   1.000000
  113       -6.007836   1.000000
  114       -5.963581   1.000000
  115       -5.950944   1.000000
  116       -5.924290   1.000000
  117       -5.897603   1.000000
  118       -5.874652   1.000000
  119       -5.858964   1.000000
  120       -5.825763   1.000000
  121       -5.807535   1.000000
  122       -5.780796   1.000000
  123       -5.753255   1.000000
  124       -5.738641   1.000000
  125       -5.713579   1.000000
  126       -5.706230   1.000000
  127       -5.662310   1.000000
  128       -5.641401   1.000000
  129       -5.608148   1.000000
  130       -5.591974   1.000000
  131       -5.530321   1.000000
  132       -5.512741   1.000000
  133       -5.449406   1.000000
  134       -5.437887   1.000000
  135       -5.431948   1.000000
  136       -5.380668   1.000000
  137       -5.355789   1.000000
  138       -5.333232   1.000000
  139       -5.316916   1.000000
  140       -5.291727   1.000000
  141       -5.276711   1.000000
  142       -5.252926   1.000000
  143       -5.232582   1.000000
  144       -5.180247   1.000000
  145       -5.133412   1.000000
  146       -5.092496   1.000000
  147       -5.071946   1.000000
  148       -5.046490   1.000000
  149       -5.026560   1.000000
  150       -5.008257   1.000000
  151       -4.961707   1.000000
  152       -4.930650   1.000000
  153       -4.906319   1.000000
  154       -4.885698   1.000000
  155       -4.871778   1.000000
  156       -4.855075   1.000000
  157       -4.849512   1.000000
  158       -4.836432   1.000000
  159       -4.812369   1.000000
  160       -4.788119   1.000000
  161       -4.697419   1.000000
  162       -4.692974   1.000000
  163       -4.540825   1.000000
  164       -4.534661   1.000000
  165       -4.502206   1.000000
  166       -4.491291   1.000000
  167       -4.436301   1.000000
  168       -4.433766   1.000000
  169       -4.301628   1.000000
  170       -4.286702   1.000000
  171       -4.171800   1.000000
  172       -4.157122   1.000000
  173       -3.978141   1.000000
  174       -3.944270   1.000000
  175       -3.882544   1.000000
  176       -3.819583   1.000000
  177       -3.800310   1.000000
  178       -3.736767   1.000000
  179       -3.677653   1.000000
  180       -3.643887   1.000000
  181       -3.610634   1.000000
  182       -3.551841   1.000000
  183       -3.474744   1.000000
  184       -3.341029   1.000000
  185       -3.185080   1.000000
  186       -3.161982   1.000000
  187       -3.104888   1.000000
  188       -3.087489   1.000000
  189       -3.039683   1.000000
  190       -3.011182   1.000000
  191       -2.981811   1.000000
  192       -2.976975   1.000000
  193       -2.603625   1.000000
  194       -2.581881   1.000000
  195       -2.472821   1.000000
  196       -2.465149   1.000000
  197       -2.291639   1.000000
  198       -2.272327   1.000000
  199       -1.953296   1.000000
  200       -1.907808   1.000000
  201       -1.853369   1.000000
  202       -1.825572   1.000000
  203       -1.776008   1.000000
  204       -1.763867   1.000000
  205       -1.742716   1.000000
  206       -1.645256   1.000000
  207       -1.636839   1.000000
  208       -1.560414   1.000000
  209       -1.503581   1.000000
  210       -1.477091   1.000000
  211       -1.454201   1.000000
  212       -1.438871   1.000000
  213       -1.368755   1.000000
  214       -1.330505   1.000000
  215       -1.300125   1.000000
  216       -1.255968   1.000000
  217       -1.235314   1.000000
  218       -1.178986   1.000000
  219       -1.153977   1.000000
  220       -1.117812   1.000000
  221       -1.089559   1.000000
  222       -1.083489   1.000000
  223       -1.003875   1.000000
  224       -0.994034   1.000000
  225        2.825508   0.000000
  226        2.826956   0.000000
  227        2.902465   0.000000
  228        2.960562   0.000000
  229        3.639876   0.000000
  230        3.693704   0.000000
  231        3.957406   0.000000
  232        3.964935   0.000000
  233        4.021629   0.000000
  234        4.067218   0.000000
  235        4.082398   0.000000
  236        4.158642   0.000000
  237        4.232241   0.000000
  238        4.406701   0.000000
  239        4.446896   0.000000
  240        4.628754   0.000000
  241        4.958677   0.000000
  242        5.107456   0.000000
  243        5.142703   0.000000
  244        5.209421   0.000000
  245        5.254752   0.000000
  246        5.272563   0.000000
  247        5.582610   0.000000
  248        5.674764   0.000000
  249        5.752857   0.000000
  250        5.824205   0.000000
  251        5.911071   0.000000
  252        5.953059   0.000000
  253        6.118899   0.000000
  254        6.136328   0.000000
  255        6.205062   0.000000
  256        6.288193   0.000000
  257        6.410388   0.000000
  258        6.497367   0.000000
  259        6.515773   0.000000
  260        6.646822   0.000000
  261        6.766479   0.000000
  262        6.835234   0.000000
  263        6.912027   0.000000
  264        6.990090   0.000000
  265        7.039985   0.000000
  266        7.106811   0.000000
  267        7.215712   0.000000
  268        7.260874   0.000000
  269        7.364713   0.000000
  270        7.421489   0.000000
  271        7.521130   0.000000
  272        7.561967   0.000000
  273        7.587589   0.000000
  274        7.695357   0.000000
  275        7.743402   0.000000
  276        7.853841   0.000000
  277        7.905793   0.000000
  278        7.935031   0.000000
  279        8.033448   0.000000
  280        8.056634   0.000000
  281        8.079659   0.000000
  282        8.157188   0.000000
  283        8.209455   0.000000
  284        8.285358   0.000000
  285        8.344854   0.000000
  286        8.394685   0.000000
  287        8.442000   0.000000
  288        8.535799   0.000000
