Zn4 H28 C42 N12 O10 F12                 
   1.0000000000000000     
     0.0096772315847285   -0.0000000008801370   -7.1026428836215425
    10.0485645575518596   -0.0000000001260303   -1.0146830530429867
     5.0242822780991849  -16.8328697854787848   -0.5073410283340742
   C    F    H    N    O    Zn
    42    12    28    12    10     4
Direct
  0.7797671412858620  0.9077211917273338  0.0593323931029510
  0.2797671412858512  0.9670535848303250  0.9406676068969810
  0.1342955585681648  0.9144116467103267  0.5015142469031189
  0.6342955585681761  0.4159258936134109  0.4984857530969429
  0.5801597215883314  0.8388055325012708  0.8320863014206339
  0.0801597215883090  0.6708918339219244  0.1679136985793259
  0.1825406476122187  0.8426262656479403  0.6506764751860431
  0.6825406476122081  0.4933017408339639  0.3493235248139890
  0.8622375045724939  0.9422314023015046  0.5988302580806809
  0.3622375045724812  0.5410616603821528  0.4011697419193300
  0.4182732170334556  0.9344050347314462  0.4205396057159444
  0.9182732170334670  0.3549446404473522  0.5794603942841230
  0.4394973680921582  0.8414802392539966  0.7698994842053166
  0.9394973680921233  0.6113797234593171  0.2301005157946716
  0.9838066162377738  0.7087471639602052  0.5834047969056434
  0.4838066162377329  0.2921519608657906  0.4165952030944530
  0.3793895174452691  0.9657716243601150  0.7126139716313080
  0.8793895174452198  0.6783855959913950  0.2873860283687271
  0.0282346890213686  0.9897226661418285  0.4341443234129846
  0.5282346890213825  0.4238669895547850  0.5658556765870735
  0.5147799747388168  0.8714246979592254  0.1183903760917168
  0.0147799747388831  0.9898150740509578  0.8816096239082599
  0.0436794492841848  0.8526852236423061  0.5830891496049538
  0.5436794492841861  0.4357743732472261  0.4169108503951009
  0.2548141765018442  0.9657801145004604  0.6531559699349553
  0.7548141765018207  0.6189350844353756  0.3468440300650862
  0.2399998852910854  0.7189633358377542  0.7089455342113165
  0.7399998852910644  0.4279088700490813  0.2910544657886812
  0.3696380660074018  0.7187098770853968  0.7669182490224389
  0.8696380660073890  0.4856281261078571  0.2330817509775276
  0.3300481365957236  0.8872484550520019  0.4936392143646385
  0.8300481365957263  0.3808876694165986  0.5063607856354261
  0.3129225851072368  0.0091661788365762  0.3531394928243529
  0.8129225851072471  0.3623056716608901  0.6468605071757072
  0.0241490723229142  0.4839917356081489  0.8875161396454965
  0.5241490723228971  0.3715088752537044  0.1124838603544176
  0.1170310083136611  0.0371421617563758  0.3610010580507492
  0.6170310083136771  0.3981432198071049  0.6389989419493051
  0.3069930757278047  0.4408756026913688  0.9327955817787154
  0.8069930757278774  0.3736711844701582  0.0672044182211600
  0.4094831526663134  0.0572936526131587  0.2745250007817663
  0.9094831526663409  0.3318186533948949  0.7254749992182885
  0.8748990677944438  0.7161941661998380  0.5195494343727842
  0.3748990677943852  0.2357436005725302  0.4804505656273598
  0.7061586544090193  0.9289311217586481  0.5592179163906644
  0.2061586544089851  0.4881490381492675  0.4407820836093677
  0.1381697326872622  0.6187556879294003  0.5805169454381568
  0.6381697326872329  0.1992726333674920  0.4194830545619746
  0.8880134226074216  0.0793677251329931  0.5765400888364399
  0.3880144226074371  0.6559078139694219  0.4234599111635310
  0.8170688850819448  0.9070381800296361  0.6773368436851605
  0.3170688850819182  0.5843760237147753  0.3226631563148248
  0.8825412674830111  0.6505595192303786  0.6496400320570803
  0.3825412674829380  0.3001995512874078  0.3503599679429800
  0.9147622385778479  0.9472527212984357  0.0407907839860032
  0.4147622385778078  0.9880425052844839  0.9592092160139128
  0.5703499902437673  0.9122769496486656  0.4148832594673730
  0.0703499902437884  0.3271602091160094  0.5851167405326980
  0.4346669962548699  0.0622262879679922  0.7131656855404204
  0.9346669962548120  0.7753919735083565  0.2868343144596415
  0.8758696652424356  0.0121947442885146  0.4377392807701836
  0.3758696652424681  0.4499350250586739  0.5622607192298756
  0.3901534903197386  0.8771497262772341  0.1546789335064064
  0.8901534903198582  0.0318286597836207  0.8453210664936067
  0.2155171392715762  0.0624873916505124  0.6074670132737134
  0.7155171392715503  0.6699554049241755  0.3925329867263359
  0.1875827009087484  0.6211706154266374  0.7097738861854923
  0.6875827009087250  0.3309445016121484  0.2902261138144919
  0.4190068150394183  0.6221766016096487  0.8107745472946927
  0.9190068150394202  0.4329511489044020  0.1892254527052383
  0.4145757303114002  0.8276063742063805  0.5449577529785018
  0.9145757303114004  0.3725641271848476  0.4550422470215677
  0.1089767654579617  0.0683236248111968  0.1943191741425966
  0.6089767654578861  0.2626427989537828  0.8056808258574063
  0.0392921053038492  0.9322186768986198  0.1758213206168208
  0.5392921053037394  0.1080409975154365  0.8241786793831787
  0.8953629390932545  0.4804116728649508  0.8566846230349230
  0.3953629390931798  0.3370952958999128  0.1433153769650194
  0.0325287315729409  0.0971784356653674  0.3097203199510836
  0.5325287315729688  0.4068987556164316  0.6902796800489640
  0.4527893276368334  0.3971171825901606  0.9443555042218915
  0.9527893276369483  0.3414726868121416  0.0556444957779661
  0.7117767323124840  0.8075416443959438  0.0361883325591711
  0.2117757323124713  0.8437299769551770  0.9638116674407377
  0.6611753566341073  0.9508872966901858  0.1110080299239099
  0.1611753566341400  0.0618963266141085  0.8889919700760661
  0.0435967869766721  0.5675949207760720  0.9323271717538685
  0.5435967869766754  0.4999220925300125  0.0676728282460129
  0.2245460493162527  0.5410002302769701  0.9614274112770056
  0.7245460493163143  0.5024276415540522  0.0385725887228502
  0.1867940754429161  0.4016731157054676  0.8861186887385122
  0.6867940754429409  0.2877918044440329  0.1138813112613995
  0.5402829702772189  0.7846719060677287  0.0738491234261381
  0.0402829702772588  0.8585210294939034  0.9261508765737949
  0.6270757538822854  0.9509438617186023  0.8407455933591020
  0.1270757538822430  0.7916894550776835  0.1592544066408940
  0.6475684631464189  0.7178812363327536  0.8748402219658551
  0.1475684631464174  0.5927224582986643  0.1251597780340442
  0.9960068894654936  0.0295830328472728  0.1779481726148209
  0.4960068894653328  0.2075312054620635  0.8220518273852055
  0.5925776208122481  0.0425702310369031  0.2754732895410872
  0.0925776208122556  0.3180445205779495  0.7245267104589753
  0.3144220313957058  0.1086654160763728  0.2111597117046289
  0.8144220313957505  0.3198251277809886  0.7888402882954105
  0.8348339056295256  0.7023147096326738  0.9601472834054142
  0.3348339056295097  0.6624629930381439  0.0398527165944763
  0.7167031353970114  0.0847120786778246  0.1705012238270897
  0.2167031353970368  0.2552133025049091  0.8294987761728935

  0.00000000E+00 -0.00000000E+00 -0.00000000E+00
  0.00000000E+00 -0.00000000E+00 -0.00000000E+00
  0.00000000E+00 -0.00000000E+00 -0.00000000E+00
  0.00000000E+00 -0.00000000E+00 -0.00000000E+00
  0.00000000E+00 -0.00000000E+00 -0.00000000E+00
  0.00000000E+00 -0.00000000E+00 -0.00000000E+00
  0.00000000E+00 -0.00000000E+00 -0.00000000E+00
  0.00000000E+00 -0.00000000E+00 -0.00000000E+00
  0.00000000E+00 -0.00000000E+00 -0.00000000E+00
  0.00000000E+00 -0.00000000E+00 -0.00000000E+00
  0.00000000E+00 -0.00000000E+00 -0.00000000E+00
  0.00000000E+00 -0.00000000E+00 -0.00000000E+00
  0.00000000E+00 -0.00000000E+00 -0.00000000E+00
  0.00000000E+00 -0.00000000E+00 -0.00000000E+00
  0.00000000E+00 -0.00000000E+00 -0.00000000E+00
  0.00000000E+00 -0.00000000E+00 -0.00000000E+00
  0.00000000E+00 -0.00000000E+00 -0.00000000E+00
  0.00000000E+00 -0.00000000E+00 -0.00000000E+00
  0.00000000E+00 -0.00000000E+00 -0.00000000E+00
  0.00000000E+00 -0.00000000E+00 -0.00000000E+00
  0.00000000E+00 -0.00000000E+00 -0.00000000E+00
  0.00000000E+00 -0.00000000E+00 -0.00000000E+00
  0.00000000E+00 -0.00000000E+00 -0.00000000E+00
  0.00000000E+00 -0.00000000E+00 -0.00000000E+00
  0.00000000E+00 -0.00000000E+00 -0.00000000E+00
  0.00000000E+00 -0.00000000E+00 -0.00000000E+00
  0.00000000E+00 -0.00000000E+00 -0.00000000E+00
  0.00000000E+00 -0.00000000E+00 -0.00000000E+00
  0.00000000E+00 -0.00000000E+00 -0.00000000E+00
  0.00000000E+00 -0.00000000E+00 -0.00000000E+00
  0.00000000E+00 -0.00000000E+00 -0.00000000E+00
  0.00000000E+00 -0.00000000E+00 -0.00000000E+00
  0.00000000E+00 -0.00000000E+00 -0.00000000E+00
  0.00000000E+00 -0.00000000E+00 -0.00000000E+00
  0.00000000E+00 -0.00000000E+00 -0.00000000E+00
  0.00000000E+00 -0.00000000E+00 -0.00000000E+00
  0.00000000E+00 -0.00000000E+00 -0.00000000E+00
  0.00000000E+00 -0.00000000E+00 -0.00000000E+00
  0.00000000E+00 -0.00000000E+00 -0.00000000E+00
  0.00000000E+00 -0.00000000E+00 -0.00000000E+00
  0.00000000E+00 -0.00000000E+00 -0.00000000E+00
  0.00000000E+00 -0.00000000E+00 -0.00000000E+00
  0.00000000E+00 -0.00000000E+00 -0.00000000E+00
  0.00000000E+00 -0.00000000E+00 -0.00000000E+00
  0.00000000E+00 -0.00000000E+00 -0.00000000E+00
  0.00000000E+00 -0.00000000E+00 -0.00000000E+00
  0.00000000E+00 -0.00000000E+00 -0.00000000E+00
  0.00000000E+00 -0.00000000E+00 -0.00000000E+00
  0.00000000E+00 -0.00000000E+00 -0.00000000E+00
  0.00000000E+00 -0.00000000E+00 -0.00000000E+00
  0.00000000E+00 -0.00000000E+00 -0.00000000E+00
  0.00000000E+00 -0.00000000E+00 -0.00000000E+00
  0.00000000E+00 -0.00000000E+00 -0.00000000E+00
  0.00000000E+00 -0.00000000E+00 -0.00000000E+00
  0.00000000E+00 -0.00000000E+00 -0.00000000E+00
  0.00000000E+00 -0.00000000E+00 -0.00000000E+00
  0.00000000E+00 -0.00000000E+00 -0.00000000E+00
  0.00000000E+00 -0.00000000E+00 -0.00000000E+00
  0.00000000E+00 -0.00000000E+00 -0.00000000E+00
  0.00000000E+00 -0.00000000E+00 -0.00000000E+00
  0.00000000E+00 -0.00000000E+00 -0.00000000E+00
  0.00000000E+00 -0.00000000E+00 -0.00000000E+00
  0.00000000E+00 -0.00000000E+00 -0.00000000E+00
  0.00000000E+00 -0.00000000E+00 -0.00000000E+00
  0.00000000E+00 -0.00000000E+00 -0.00000000E+00
  0.00000000E+00 -0.00000000E+00 -0.00000000E+00
  0.00000000E+00 -0.00000000E+00 -0.00000000E+00
  0.00000000E+00 -0.00000000E+00 -0.00000000E+00
  0.00000000E+00 -0.00000000E+00 -0.00000000E+00
  0.00000000E+00 -0.00000000E+00 -0.00000000E+00
  0.00000000E+00 -0.00000000E+00 -0.00000000E+00
  0.00000000E+00 -0.00000000E+00 -0.00000000E+00
  0.00000000E+00 -0.00000000E+00 -0.00000000E+00
  0.00000000E+00 -0.00000000E+00 -0.00000000E+00
  0.00000000E+00 -0.00000000E+00 -0.00000000E+00
  0.00000000E+00 -0.00000000E+00 -0.00000000E+00
  0.00000000E+00 -0.00000000E+00 -0.00000000E+00
  0.00000000E+00 -0.00000000E+00 -0.00000000E+00
  0.00000000E+00 -0.00000000E+00 -0.00000000E+00
  0.00000000E+00 -0.00000000E+00 -0.00000000E+00
  0.00000000E+00 -0.00000000E+00 -0.00000000E+00
  0.00000000E+00 -0.00000000E+00 -0.00000000E+00
  0.00000000E+00 -0.00000000E+00 -0.00000000E+00
  0.00000000E+00 -0.00000000E+00 -0.00000000E+00
  0.00000000E+00 -0.00000000E+00 -0.00000000E+00
  0.00000000E+00 -0.00000000E+00 -0.00000000E+00
  0.00000000E+00 -0.00000000E+00 -0.00000000E+00
  0.00000000E+00 -0.00000000E+00 -0.00000000E+00
  0.00000000E+00 -0.00000000E+00 -0.00000000E+00
  0.00000000E+00 -0.00000000E+00 -0.00000000E+00
  0.00000000E+00 -0.00000000E+00 -0.00000000E+00
  0.00000000E+00 -0.00000000E+00 -0.00000000E+00
  0.00000000E+00 -0.00000000E+00 -0.00000000E+00
  0.00000000E+00 -0.00000000E+00 -0.00000000E+00
  0.00000000E+00 -0.00000000E+00 -0.00000000E+00
  0.00000000E+00 -0.00000000E+00 -0.00000000E+00
  0.00000000E+00 -0.00000000E+00 -0.00000000E+00
  0.00000000E+00 -0.00000000E+00 -0.00000000E+00
  0.00000000E+00 -0.00000000E+00 -0.00000000E+00
  0.00000000E+00 -0.00000000E+00 -0.00000000E+00
  0.00000000E+00 -0.00000000E+00 -0.00000000E+00
  0.00000000E+00 -0.00000000E+00 -0.00000000E+00
  0.00000000E+00 -0.00000000E+00 -0.00000000E+00
  0.00000000E+00 -0.00000000E+00 -0.00000000E+00
  0.00000000E+00 -0.00000000E+00 -0.00000000E+00
  0.00000000E+00 -0.00000000E+00 -0.00000000E+00
  0.00000000E+00 -0.00000000E+00 -0.00000000E+00
  0.00000000E+00 -0.00000000E+00 -0.00000000E+00
